 DBCSR| CPU Multiplication driver                                           BLAS (U)
 DBCSR| Multrec recursion limit                                              512 (U)
 DBCSR| Multiplication stack size                                           1000 (D)
 DBCSR| Maximum elements for images                                    UNLIMITED (U)
 DBCSR| Multiplicative factor virtual images                                   1 (U)
 DBCSR| Use multiplication densification                                       T (D)
 DBCSR| Multiplication size stacks                                             3 (U)
 DBCSR| Use memory pool for CPU allocation                                     F (U)
 DBCSR| OMP: Current number of threads                                        24
 DBCSR| OMP: Max number of threads                                            24
 DBCSR| Split modifier for TAS multiplication algorithm                  1.0E+00 (U)


  **** **** ******  **  PROGRAM STARTED AT               2026-08-26 09:27:52.588
 ***** ** ***  *** **   PROGRAM STARTED ON                                cge063
 **    ****   ******    PROGRAM STARTED BY                              kuehne88
 ***** **    ** ** **   PROGRAM PROCESS ID                               1452719
  **** **  *******  **  PROGRAM STARTED IN /data/home2/kuehne88/cp2k-native-skal
                                           a/validation-uzh/diet-production-p25/
                                           shared-gapw-ae/e416a91deea914db4d2bae
                                           981d58e93623122a8f

 CP2K| version string:                 CP2K version 2026.2 (Development Version)
 CP2K| source code revision number:                                   c1bff3eeb8
 CP2K| cp2kflags: omp fftw3 spglib openblas libtorch libtorch_cuda              
 CP2K| is freely available from                            https://www.cp2k.org/
 CP2K| Program compiled at                                   2026-08-23 23:01:13
 CP2K| Program compiled on                                                cge022
 CP2K| Program compiled for                                               x86_64
 CP2K| Data directory path            /home/kuehne88/cp2k-native-skala/cp2k/data
 CP2K| Input file name                                             input.cpu.inp

 GLOBAL| Force Environment number                                              1
 GLOBAL| Basis set file name                             BASIS_MOLOPT_UZH_2026.2
 GLOBAL| Potential file name                                POTENTIAL_UZH_2026.2
 GLOBAL| MM Potential file name                                     MM_POTENTIAL
 GLOBAL| Coordinate file name                                      __STD_INPUT__
 GLOBAL| Method name                                                        CP2K
 GLOBAL| Project name                                       e416a91deea9_gapw_ae
 GLOBAL| Run type                                                         ENERGY
 GLOBAL| FFT library                                                       FFTW3
 GLOBAL| Diagonalization library                                       ScaLAPACK
 GLOBAL| Cholesky decomposition library                                ScaLAPACK
 GLOBAL| DGEMM library                                                      BLAS
 GLOBAL| Direct generalized diagonalization requested                          F
 GLOBAL| Orthonormality check for eigenvectors                          DISABLED
 GLOBAL| Matrix multiplication library                                 ScaLAPACK
 GLOBAL| All-to-all communication in single precision                          F
 GLOBAL| FFTs using library dependent lengths                                  F
 GLOBAL| Grid backend                                                       AUTO
 GLOBAL| Global print level                                               MEDIUM
 GLOBAL| MPI I/O enabled                                                       T
 GLOBAL| Total number of message passing processes                             1
 GLOBAL| Number of distributed systems (nodes)                                 1
 GLOBAL| Number of threads for this process                                   24
 GLOBAL| This output is from process                                           0
 GLOBAL| OpenMP stack size per thread (OMP_STACKSIZE)                       512M
 GLOBAL| CPU model name                          AMD EPYC 9654 96-Core Processor

 MEMORY| system memory details [Kb]
 MEMORY|                        rank 0           min           max       average
 MEMORY| MemTotal           1584845144    1584845144    1584845144    1584845144
 MEMORY| MemFree            1006084016    1006084016    1006084016    1006084016
 MEMORY| Buffers                     0             0             0             0
 MEMORY| Cached                9081780       9081780       9081780       9081780
 MEMORY| Slab                  2365776       2365776       2365776       2365776
 MEMORY| SReclaimable           569944        569944        569944        569944
 MEMORY| MemLikelyFree      1015735740    1015735740    1015735740    1015735740


 *** Fundamental physical constants (SI units) ***

 *** Literature: B. J. Mohr and B. N. Taylor,
 ***             CODATA recommended values of the fundamental physical
 ***             constants: 2006, Web Version 5.1
 ***             http://physics.nist.gov/constants

 Speed of light in vacuum [m/s]                             2.99792458000000E+08
 Magnetic constant or permeability of vacuum [N/A**2]       1.25663706143592E-06
 Electric constant or permittivity of vacuum [F/m]          8.85418781762039E-12
 Planck constant (h) [J*s]                                  6.62606896000000E-34
 Planck constant (h-bar) [J*s]                              1.05457162825177E-34
 Elementary charge [C]                                      1.60217648700000E-19
 Electron mass [kg]                                         9.10938215000000E-31
 Electron g factor [ ]                                     -2.00231930436220E+00
 Proton mass [kg]                                           1.67262163700000E-27
 Fine-structure constant                                    7.29735253760000E-03
 Rydberg constant [1/m]                                     1.09737315685270E+07
 Avogadro constant [1/mol]                                  6.02214179000000E+23
 Boltzmann constant [J/K]                                   1.38065040000000E-23
 Atomic mass unit [kg]                                      1.66053878200000E-27
 Bohr radius [m]                                            5.29177208590000E-11

 *** Conversion factors ***

 [u] -> [a.u.]                                              1.82288848426455E+03
 [Angstrom] -> [Bohr] = [a.u.]                              1.88972613288564E+00
 [a.u.] = [Bohr] -> [Angstrom]                              5.29177208590000E-01
 [a.u.] -> [s]                                              2.41888432650478E-17
 [a.u.] -> [fs]                                             2.41888432650478E-02
 [a.u.] -> [J]                                              4.35974393937059E-18
 [a.u.] -> [N]                                              8.23872205491840E-08
 [a.u.] -> [K]                                              3.15774647902944E+05
 [a.u.] -> [kJ/mol]                                         2.62549961709828E+03
 [a.u.] -> [kcal/mol]                                       6.27509468713739E+02
 [a.u.] -> [Pa]                                             2.94210107994716E+13
 [a.u.] -> [bar]                                            2.94210107994716E+08
 [a.u.] -> [atm]                                            2.90362800883016E+08
 [a.u.] -> [eV]                                             2.72113838565563E+01
 [a.u.] -> [Hz]                                             6.57968392072181E+15
 [a.u.] -> [1/cm] (wave numbers)                            2.19474631370540E+05
 [a.u./Bohr**2] -> [1/cm]                                   5.14048714338585E+03
 

 CELL| Volume [angstrom^3]:                                         33600.000000
 CELL| Vector a [angstrom]:      35.000     0.000     0.000   |a| =    35.000000
 CELL| Vector b [angstrom]:       0.000    32.000     0.000   |b| =    32.000000
 CELL| Vector c [angstrom]:       0.000     0.000    30.000   |c| =    30.000000
 CELL| Angle (b,c), alpha [degree]:                                    90.000000
 CELL| Angle (a,c), beta  [degree]:                                    90.000000
 CELL| Angle (a,b), gamma [degree]:                                    90.000000
 CELL| Numerically orthorhombic:                                             YES
 CELL| Periodicity                                                          NONE

 CELL_REF| Volume [angstrom^3]:                                     33600.000000
 CELL_REF| Vector a [angstrom    35.000     0.000     0.000   |a| =    35.000000
 CELL_REF| Vector b [angstrom     0.000    32.000     0.000   |b| =    32.000000
 CELL_REF| Vector c [angstrom     0.000     0.000    30.000   |c| =    30.000000
 CELL_REF| Angle (b,c), alpha [degree]:                                90.000000
 CELL_REF| Angle (a,c), beta  [degree]:                                90.000000
 CELL_REF| Angle (a,b), gamma [degree]:                                90.000000
 CELL_REF| Numerically orthorhombic:                                         YES
 CELL_REF| Periodicity                                                      NONE

 GENERATE|  Preliminary Number of Bonds generated:                             0
 GENERATE|  Achieved consistency in connectivity generation.

 *******************************************************************************
 *******************************************************************************
 **                                                                           **
 **     #####                         ##              ##                      **
 **    ##   ##            ##          ##              ##                      **
 **   ##     ##                       ##            ######                    **
 **   ##     ##  ##   ##  ##   #####  ##  ##   ####   ##    #####    #####    **
 **   ##     ##  ##   ##  ##  ##      ## ##   ##      ##   ##   ##  ##   ##   **
 **   ##  ## ##  ##   ##  ##  ##      ####     ###    ##   ######   ######    **
 **    ##  ###   ##   ##  ##  ##      ## ##      ##   ##   ##       ##        **
 **     #######   #####   ##   #####  ##  ##  ####    ##    #####   ##        **
 **           ##                                                    ##        **
 **                                                                           **
 **                                                ... make the atoms dance   **
 **                                                                           **
 **            Copyright (C) by CP2K developers group (2000-2026)             **
 **                      J. Chem. Phys. 152, 194103 (2020)                    **
 **                                                                           **
 *******************************************************************************

 DFT| Spin restricted Kohn-Sham (RKS) calculation                            RKS
 DFT| Multiplicity                                                             1
 DFT| Number of spin states                                                    1
 DFT| Charge                                                                   0
 DFT| Self-interaction correction (SIC)                                       NO
 DFT| Cutoffs: density                                              1.000000E-10
 DFT|          gradient                                             1.000000E-10
 DFT|          tau                                                  1.000000E-10
 DFT|          cutoff_smoothing_range                               0.000000E+00
 DFT| XC density smoothing                                                  NONE
 DFT| XC derivatives                                                          PW

 FUNCTIONAL| GAUXC:
 FUNCTIONAL| Functional computed by GauXC Skala model SKALA                     

 vdW POTENTIAL|                                                   Pair Potential
 vdW POTENTIAL|          DFT-D3 (Version 3.1)
 vdW POTENTIAL|          Potential Form: S. Grimme et al, JCP 132: 154104 (2010)
 vdW POTENTIAL|          BJ Damping: S. Grimme et al, JCC 32: 1456 (2011)
 vdW POTENTIAL|          Cutoff Radius [Bohr]:                             37.79
 vdW POTENTIAL|          s6 Scaling Factor:                               1.0000
 vdW POTENTIAL|          a1 Damping Factor:                               0.3981
 vdW POTENTIAL|          s8 Scaling Factor:                               1.9889
 vdW POTENTIAL|          a2 Damping Factor:                               4.4211
 vdW POTENTIAL|          Cutoff for CN calculation:                   0.1000E-05

 QS| Method:                                                                GAPW
 QS| Density plane wave grid type                        NON-SPHERICAL FULLSPACE
 QS| Number of grid levels:                                                    5
 QS| Density cutoff [a.u.]:                                                320.0
 QS| Multi grid cutoff [a.u.]: 1) grid level                               320.0
 QS|                           2) grid level                               106.7
 QS|                           3) grid level                                35.6
 QS|                           4) grid level                                11.9
 QS|                           5) grid level                                 4.0
 QS| Grid level progression factor:                                          3.0
 QS| Relative density cutoff [a.u.]:                                        30.0
 QS| Interaction thresholds: eps_pgf_orb:                                1.0E-07
 QS|                         eps_filter_matrix:                          0.0E+00
 QS|                         eps_core_charge:                            1.0E-16
 QS|                         eps_rho_gspace:                             1.0E-14
 QS|                         eps_rho_rspace:                             1.0E-14
 QS|                         eps_gvg_rspace:                             1.0E-07
 QS|                         eps_ppl:                                    1.0E-02
 QS|                         eps_ppnl:                                   1.0E-09
 QS| GAPW|      XC integration using accurate scheme: Ref. exponent     6.000000
 QS| GAPW|      One center basis extended with primitives (small:s)
 QS| GAPW|                   eps_fit:                                    1.0E-04
 QS| GAPW|                   eps_iso:                                    1.0E-12
 QS| GAPW|                   eps_svd:                                    1.0E-08
 QS| GAPW|                   eps_cpc:                                    1.0E-14
 QS| GAPW|   atom-r-grid: quadrature:                                     GC_LOG
 QS| GAPW|      atom-s-grid:  max l :                                          6
 QS| GAPW|      max_l_rho0 :                                                   4


 ATOMIC KIND INFORMATION

  1. Atomic kind: N                                     Number of atoms:       3

     Orbital Basis Set                                       TZVPP-MOLOPT-PBE-ae

       Number of orbital shell sets:                                           2
       Number of orbital shells:                                              11
       Number of primitive Cartesian functions:                               12
       Number of Cartesian basis functions:                                   36
       Number of spherical basis functions:                                   31
       Norm type:                                                              2

       Normalised Cartesian orbitals:

                        Set   Shell   Orbital            Exponent    Coefficient

                          1       1    1s            19730.758242       0.654856
                                                      2958.006020       1.769548
                                                       673.387518       2.322723
                                                       190.675174       4.547417
                                                        62.366448       3.527190
                                                        22.833858       5.352733

                          2       1    1s               49.270190       0.802518
                                                         8.608625       2.378505
                                                         2.987378       0.535699
                                                         0.930550      -0.061635
                                                         0.322032       0.036074
                                                         0.113512       0.014500

                          2       2    2s               49.270190      -0.622920
                                                         8.608625      -0.061481
                                                         2.987378       0.054918
                                                         0.930550       0.396674
                                                         0.322032       0.082974
                                                         0.113512       0.032692

                          2       3    3s               49.270190      -0.366977
                                                         8.608625      -0.870010
                                                         2.987378      -0.229943
                                                         0.930550      -0.408076
                                                         0.322032       0.306069
                                                         0.113512       0.047996

                          2       4    4s               49.270190      -7.166333
                                                         8.608625      -0.961511
                                                         2.987378       0.637930
                                                         0.930550      -0.188982
                                                         0.322032      -0.186943
                                                         0.113512       0.171213

                          2       5    2px              49.270190      12.161855
                                                         8.608625       1.288759
                                                         2.987378       1.750760
                                                         0.930550       0.811118
                                                         0.322032       0.040684
                                                         0.113512       0.006367
                          2       5    2py              49.270190      12.161855
                                                         8.608625       1.288759
                                                         2.987378       1.750760
                                                         0.930550       0.811118
                                                         0.322032       0.040684
                                                         0.113512       0.006367
                          2       5    2pz              49.270190      12.161855
                                                         8.608625       1.288759
                                                         2.987378       1.750760
                                                         0.930550       0.811118
                                                         0.322032       0.040684
                                                         0.113512       0.006367

                          2       6    3px              49.270190     -28.403920
                                                         8.608625       0.375399
                                                         2.987378      -0.764833
                                                         0.930550      -0.153789
                                                         0.322032       0.344073
                                                         0.113512       0.011134
                          2       6    3py              49.270190     -28.403920
                                                         8.608625       0.375399
                                                         2.987378      -0.764833
                                                         0.930550      -0.153789
                                                         0.322032       0.344073
                                                         0.113512       0.011134
                          2       6    3pz              49.270190     -28.403920
                                                         8.608625       0.375399
                                                         2.987378      -0.764833
                                                         0.930550      -0.153789
                                                         0.322032       0.344073
                                                         0.113512       0.011134

                          2       7    4px              49.270190       8.328837
                                                         8.608625      -0.402261
                                                         2.987378      -0.049280
                                                         0.930550      -0.121777
                                                         0.322032      -0.047567
                                                         0.113512       0.104427
                          2       7    4py              49.270190       8.328837
                                                         8.608625      -0.402261
                                                         2.987378      -0.049280
                                                         0.930550      -0.121777
                                                         0.322032      -0.047567
                                                         0.113512       0.104427
                          2       7    4pz              49.270190       8.328837
                                                         8.608625      -0.402261
                                                         2.987378      -0.049280
                                                         0.930550      -0.121777
                                                         0.322032      -0.047567
                                                         0.113512       0.104427

                          2       8    3dx2             49.270190     -47.156995
                                                         8.608625     -15.504622
                                                         2.987378       4.861216
                                                         0.930550       0.975526
                                                         0.322032       0.004138
                                                         0.113512       0.008426
                          2       8    3dxy             49.270190     -81.678311
                                                         8.608625     -26.854794
                                                         2.987378       8.419873
                                                         0.930550       1.689661
                                                         0.322032       0.007167
                                                         0.113512       0.014594
                          2       8    3dxz             49.270190     -81.678311
                                                         8.608625     -26.854794
                                                         2.987378       8.419873
                                                         0.930550       1.689661
                                                         0.322032       0.007167
                                                         0.113512       0.014594
                          2       8    3dy2             49.270190     -47.156995
                                                         8.608625     -15.504622
                                                         2.987378       4.861216
                                                         0.930550       0.975526
                                                         0.322032       0.004138
                                                         0.113512       0.008426
                          2       8    3dyz             49.270190     -81.678311
                                                         8.608625     -26.854794
                                                         2.987378       8.419873
                                                         0.930550       1.689661
                                                         0.322032       0.007167
                                                         0.113512       0.014594
                          2       8    3dz2             49.270190     -47.156995
                                                         8.608625     -15.504622
                                                         2.987378       4.861216
                                                         0.930550       0.975526
                                                         0.322032       0.004138
                                                         0.113512       0.008426

                          2       9    4dx2             49.270190      69.517765
                                                         8.608625      17.703387
                                                         2.987378      -3.348764
                                                         0.930550       0.469670
                                                         0.322032       0.207542
                                                         0.113512      -0.007657
                          2       9    4dxy             49.270190     120.408301
                                                         8.608625      30.663165
                                                         2.987378      -5.800229
                                                         0.930550       0.813493
                                                         0.322032       0.359472
                                                         0.113512      -0.013263
                          2       9    4dxz             49.270190     120.408301
                                                         8.608625      30.663165
                                                         2.987378      -5.800229
                                                         0.930550       0.813493
                                                         0.322032       0.359472
                                                         0.113512      -0.013263
                          2       9    4dy2             49.270190      69.517765
                                                         8.608625      17.703387
                                                         2.987378      -3.348764
                                                         0.930550       0.469670
                                                         0.322032       0.207542
                                                         0.113512      -0.007657
                          2       9    4dyz             49.270190     120.408301
                                                         8.608625      30.663165
                                                         2.987378      -5.800229
                                                         0.930550       0.813493
                                                         0.322032       0.359472
                                                         0.113512      -0.013263
                          2       9    4dz2             49.270190      69.517765
                                                         8.608625      17.703387
                                                         2.987378      -3.348764
                                                         0.930550       0.469670
                                                         0.322032       0.207542
                                                         0.113512      -0.007657

                          2      10    4fx3             49.270190     240.939936
                                                         8.608625      -7.108652
                                                         2.987378       1.277764
                                                         0.930550       1.022795
                                                         0.322032       0.026408
                                                         0.113512       0.000350
                          2      10    4fx2y            49.270190     538.758076
                                                         8.608625     -15.895429
                                                         2.987378       2.857166
                                                         0.930550       2.287038
                                                         0.322032       0.059050
                                                         0.113512       0.000782
                          2      10    4fx2z            49.270190     538.758076
                                                         8.608625     -15.895429
                                                         2.987378       2.857166
                                                         0.930550       2.287038
                                                         0.322032       0.059050
                                                         0.113512       0.000782
                          2      10    4fxy2            49.270190     538.758076
                                                         8.608625     -15.895429
                                                         2.987378       2.857166
                                                         0.930550       2.287038
                                                         0.322032       0.059050
                                                         0.113512       0.000782
                          2      10    4fxyz            49.270190     933.156361
                                                         8.608625     -27.531691
                                                         2.987378       4.948757
                                                         0.930550       3.961267
                                                         0.322032       0.102278
                                                         0.113512       0.001354
                          2      10    4fxz2            49.270190     538.758076
                                                         8.608625     -15.895429
                                                         2.987378       2.857166
                                                         0.930550       2.287038
                                                         0.322032       0.059050
                                                         0.113512       0.000782
                          2      10    4fy3             49.270190     240.939936
                                                         8.608625      -7.108652
                                                         2.987378       1.277764
                                                         0.930550       1.022795
                                                         0.322032       0.026408
                                                         0.113512       0.000350
                          2      10    4fy2z            49.270190     538.758076
                                                         8.608625     -15.895429
                                                         2.987378       2.857166
                                                         0.930550       2.287038
                                                         0.322032       0.059050
                                                         0.113512       0.000782
                          2      10    4fyz2            49.270190     538.758076
                                                         8.608625     -15.895429
                                                         2.987378       2.857166
                                                         0.930550       2.287038
                                                         0.322032       0.059050
                                                         0.113512       0.000782
                          2      10    4fz3             49.270190     240.939936
                                                         8.608625      -7.108652
                                                         2.987378       1.277764
                                                         0.930550       1.022795
                                                         0.322032       0.026408
                                                         0.113512       0.000350

       Atomic covalent radius [Angstrom]:                                  0.750

       Atomic van der Waals radius [Angstrom]:                             1.550

     The atoms of this atomic kind are PAW atoms (GAPW):
       Hard Gaussian function radius:                                      1.400
       Rho0 radius:                                                        1.400
       Maximum GTO radius used for PAW projector construction:            24.566

     GAPW Soft Basis Set                                TZVPP-MOLOPT-PBE-ae_soft

       Number of orbital shell sets:                                           2
       Number of orbital shells:                                              11
       Number of primitive Cartesian functions:                                4
       Number of Cartesian basis functions:                                   36
       Number of spherical basis functions:                                   31
       Norm type:                                                              2

       Normalised Cartesian orbitals:

                        Set   Shell   Orbital            Exponent    Coefficient

                          1       1    1s         

                          2       1    1s                2.987378       0.535699
                                                         0.930550      -0.061635
                                                         0.322032       0.036074
                                                         0.113512       0.014500

                          2       2    2s                2.987378       0.054918
                                                         0.930550       0.396674
                                                         0.322032       0.082974
                                                         0.113512       0.032692

                          2       3    3s                2.987378      -0.229943
                                                         0.930550      -0.408076
                                                         0.322032       0.306069
                                                         0.113512       0.047996

                          2       4    4s                2.987378       0.637930
                                                         0.930550      -0.188982
                                                         0.322032      -0.186943
                                                         0.113512       0.171213

                          2       5    2px               2.987378       1.750760
                                                         0.930550       0.811118
                                                         0.322032       0.040684
                                                         0.113512       0.006367
                          2       5    2py               2.987378       1.750760
                                                         0.930550       0.811118
                                                         0.322032       0.040684
                                                         0.113512       0.006367
                          2       5    2pz               2.987378       1.750760
                                                         0.930550       0.811118
                                                         0.322032       0.040684
                                                         0.113512       0.006367

                          2       6    3px               2.987378      -0.764833
                                                         0.930550      -0.153789
                                                         0.322032       0.344073
                                                         0.113512       0.011134
                          2       6    3py               2.987378      -0.764833
                                                         0.930550      -0.153789
                                                         0.322032       0.344073
                                                         0.113512       0.011134
                          2       6    3pz               2.987378      -0.764833
                                                         0.930550      -0.153789
                                                         0.322032       0.344073
                                                         0.113512       0.011134

                          2       7    4px               2.987378      -0.049280
                                                         0.930550      -0.121777
                                                         0.322032      -0.047567
                                                         0.113512       0.104427
                          2       7    4py               2.987378      -0.049280
                                                         0.930550      -0.121777
                                                         0.322032      -0.047567
                                                         0.113512       0.104427
                          2       7    4pz               2.987378      -0.049280
                                                         0.930550      -0.121777
                                                         0.322032      -0.047567
                                                         0.113512       0.104427

                          2       8    3dx2              2.987378       4.861216
                                                         0.930550       0.975526
                                                         0.322032       0.004138
                                                         0.113512       0.008426
                          2       8    3dxy              2.987378       8.419873
                                                         0.930550       1.689661
                                                         0.322032       0.007167
                                                         0.113512       0.014594
                          2       8    3dxz              2.987378       8.419873
                                                         0.930550       1.689661
                                                         0.322032       0.007167
                                                         0.113512       0.014594
                          2       8    3dy2              2.987378       4.861216
                                                         0.930550       0.975526
                                                         0.322032       0.004138
                                                         0.113512       0.008426
                          2       8    3dyz              2.987378       8.419873
                                                         0.930550       1.689661
                                                         0.322032       0.007167
                                                         0.113512       0.014594
                          2       8    3dz2              2.987378       4.861216
                                                         0.930550       0.975526
                                                         0.322032       0.004138
                                                         0.113512       0.008426

                          2       9    4dx2              2.987378      -3.348764
                                                         0.930550       0.469670
                                                         0.322032       0.207542
                                                         0.113512      -0.007657
                          2       9    4dxy              2.987378      -5.800229
                                                         0.930550       0.813493
                                                         0.322032       0.359472
                                                         0.113512      -0.013263
                          2       9    4dxz              2.987378      -5.800229
                                                         0.930550       0.813493
                                                         0.322032       0.359472
                                                         0.113512      -0.013263
                          2       9    4dy2              2.987378      -3.348764
                                                         0.930550       0.469670
                                                         0.322032       0.207542
                                                         0.113512      -0.007657
                          2       9    4dyz              2.987378      -5.800229
                                                         0.930550       0.813493
                                                         0.322032       0.359472
                                                         0.113512      -0.013263
                          2       9    4dz2              2.987378      -3.348764
                                                         0.930550       0.469670
                                                         0.322032       0.207542
                                                         0.113512      -0.007657

                          2      10    4fx3              2.987378       1.277764
                                                         0.930550       1.022795
                                                         0.322032       0.026408
                                                         0.113512       0.000350
                          2      10    4fx2y             2.987378       2.857166
                                                         0.930550       2.287038
                                                         0.322032       0.059050
                                                         0.113512       0.000782
                          2      10    4fx2z             2.987378       2.857166
                                                         0.930550       2.287038
                                                         0.322032       0.059050
                                                         0.113512       0.000782
                          2      10    4fxy2             2.987378       2.857166
                                                         0.930550       2.287038
                                                         0.322032       0.059050
                                                         0.113512       0.000782
                          2      10    4fxyz             2.987378       4.948757
                                                         0.930550       3.961267
                                                         0.322032       0.102278
                                                         0.113512       0.001354
                          2      10    4fxz2             2.987378       2.857166
                                                         0.930550       2.287038
                                                         0.322032       0.059050
                                                         0.113512       0.000782
                          2      10    4fy3              2.987378       1.277764
                                                         0.930550       1.022795
                                                         0.322032       0.026408
                                                         0.113512       0.000350
                          2      10    4fy2z             2.987378       2.857166
                                                         0.930550       2.287038
                                                         0.322032       0.059050
                                                         0.113512       0.000782
                          2      10    4fyz2             2.987378       2.857166
                                                         0.930550       2.287038
                                                         0.322032       0.059050
                                                         0.113512       0.000782
                          2      10    4fz3              2.987378       1.277764
                                                         0.930550       1.022795
                                                         0.322032       0.026408
                                                         0.113512       0.000350

     AE Potential information for                                            ALL

       Description:                                       All-electron potential
                                          Krack, Parrinello, PCCP 2, 2105 (2000)

       Gaussian exponent of the core charge distribution:               5.979100
       Electronic configuration (s p d ...):                           4   3   0

  2. Atomic kind: C                                     Number of atoms:       9

     Orbital Basis Set                                       TZVPP-MOLOPT-PBE-ae

       Number of orbital shell sets:                                           2
       Number of orbital shells:                                              11
       Number of primitive Cartesian functions:                               12
       Number of Cartesian basis functions:                                   36
       Number of spherical basis functions:                                   31
       Norm type:                                                              2

       Normalised Cartesian orbitals:

                        Set   Shell   Orbital            Exponent    Coefficient

                          1       1    1s            13575.369584       0.323227
                                                      2035.237517       2.062509
                                                       463.111112       2.210797
                                                       131.318553       4.954487
                                                        42.899593       1.730189
                                                        15.855102       4.257999

                          2       1    1s               34.417212       0.637474
                                                         6.739673       1.752510
                                                         2.441624       0.446183
                                                         0.806764       0.003692
                                                         0.283960       0.027513
                                                         0.097098       0.019281

                          2       2    2s               34.417212       1.102934
                                                         6.739673      -0.288836
                                                         2.441624      -0.104551
                                                         0.806764       0.362633
                                                         0.283960       0.094997
                                                         0.097098       0.029117

                          2       3    3s               34.417212      -6.120053
                                                         6.739673      -0.168746
                                                         2.441624      -0.199197
                                                         0.806764      -0.252838
                                                         0.283960       0.169545
                                                         0.097098       0.047046

                          2       4    4s               34.417212      -3.786931
                                                         6.739673      -0.401007
                                                         2.441624      -0.053941
                                                         0.806764       0.091223
                                                         0.283960      -0.341415
                                                         0.097098       0.188374

                          2       5    2px              34.417212       2.016536
                                                         6.739673       2.243109
                                                         2.441624       0.695625
                                                         0.806764       0.779023
                                                         0.283960       0.032186
                                                         0.097098       0.005087
                          2       5    2py              34.417212       2.016536
                                                         6.739673       2.243109
                                                         2.441624       0.695625
                                                         0.806764       0.779023
                                                         0.283960       0.032186
                                                         0.097098       0.005087
                          2       5    2pz              34.417212       2.016536
                                                         6.739673       2.243109
                                                         2.441624       0.695625
                                                         0.806764       0.779023
                                                         0.283960       0.032186
                                                         0.097098       0.005087

                          2       6    3px              34.417212       1.690366
                                                         6.739673      -2.720242
                                                         2.441624       0.912249
                                                         0.806764      -0.188640
                                                         0.283960       0.294367
                                                         0.097098       0.008084
                          2       6    3py              34.417212       1.690366
                                                         6.739673      -2.720242
                                                         2.441624       0.912249
                                                         0.806764      -0.188640
                                                         0.283960       0.294367
                                                         0.097098       0.008084
                          2       6    3pz              34.417212       1.690366
                                                         6.739673      -2.720242
                                                         2.441624       0.912249
                                                         0.806764      -0.188640
                                                         0.283960       0.294367
                                                         0.097098       0.008084

                          2       7    4px              34.417212     -12.705833
                                                         6.739673       1.761645
                                                         2.441624      -0.855991
                                                         0.806764      -0.070055
                                                         0.283960      -0.017243
                                                         0.097098       0.081068
                          2       7    4py              34.417212     -12.705833
                                                         6.739673       1.761645
                                                         2.441624      -0.855991
                                                         0.806764      -0.070055
                                                         0.283960      -0.017243
                                                         0.097098       0.081068
                          2       7    4pz              34.417212     -12.705833
                                                         6.739673       1.761645
                                                         2.441624      -0.855991
                                                         0.806764      -0.070055
                                                         0.283960      -0.017243
                                                         0.097098       0.081068

                          2       8    3dx2             34.417212     174.894573
                                                         6.739673       4.248634
                                                         2.441624       3.763414
                                                         0.806764       0.546922
                                                         0.283960       0.015501
                                                         0.097098       0.001415
                          2       8    3dxy             34.417212     302.926287
                                                         6.739673       7.358850
                                                         2.441624       6.518424
                                                         0.806764       0.947296
                                                         0.283960       0.026849
                                                         0.097098       0.002451
                          2       8    3dxz             34.417212     302.926287
                                                         6.739673       7.358850
                                                         2.441624       6.518424
                                                         0.806764       0.947296
                                                         0.283960       0.026849
                                                         0.097098       0.002451
                          2       8    3dy2             34.417212     174.894573
                                                         6.739673       4.248634
                                                         2.441624       3.763414
                                                         0.806764       0.546922
                                                         0.283960       0.015501
                                                         0.097098       0.001415
                          2       8    3dyz             34.417212     302.926287
                                                         6.739673       7.358850
                                                         2.441624       6.518424
                                                         0.806764       0.947296
                                                         0.283960       0.026849
                                                         0.097098       0.002451
                          2       8    3dz2             34.417212     174.894573
                                                         6.739673       4.248634
                                                         2.441624       3.763414
                                                         0.806764       0.546922
                                                         0.283960       0.015501
                                                         0.097098       0.001415

                          2       9    4dx2             34.417212    -164.169372
                                                         6.739673      -4.401044
                                                         2.441624      -2.510108
                                                         0.806764       0.323683
                                                         0.283960       0.139703
                                                         0.097098       0.001225
                          2       9    4dxy             34.417212    -284.349694
                                                         6.739673      -7.622831
                                                         2.441624      -4.347634
                                                         0.806764       0.560636
                                                         0.283960       0.241972
                                                         0.097098       0.002122
                          2       9    4dxz             34.417212    -284.349694
                                                         6.739673      -7.622831
                                                         2.441624      -4.347634
                                                         0.806764       0.560636
                                                         0.283960       0.241972
                                                         0.097098       0.002122
                          2       9    4dy2             34.417212    -164.169372
                                                         6.739673      -4.401044
                                                         2.441624      -2.510108
                                                         0.806764       0.323683
                                                         0.283960       0.139703
                                                         0.097098       0.001225
                          2       9    4dyz             34.417212    -284.349694
                                                         6.739673      -7.622831
                                                         2.441624      -4.347634
                                                         0.806764       0.560636
                                                         0.283960       0.241972
                                                         0.097098       0.002122
                          2       9    4dz2             34.417212    -164.169372
                                                         6.739673      -4.401044
                                                         2.441624      -2.510108
                                                         0.806764       0.323683
                                                         0.283960       0.139703
                                                         0.097098       0.001225

                          2      10    4fx3             34.417212      49.427593
                                                         6.739673      -2.026957
                                                         2.441624       1.033755
                                                         0.806764       0.576468
                                                         0.283960       0.042127
                                                         0.097098      -0.000799
                          2      10    4fx2y            34.417212     110.523457
                                                         6.739673      -4.532415
                                                         2.441624       2.311546
                                                         0.806764       1.289022
                                                         0.283960       0.094199
                                                         0.097098      -0.001786
                          2      10    4fx2z            34.417212     110.523457
                                                         6.739673      -4.532415
                                                         2.441624       2.311546
                                                         0.806764       1.289022
                                                         0.283960       0.094199
                                                         0.097098      -0.001786
                          2      10    4fxy2            34.417212     110.523457
                                                         6.739673      -4.532415
                                                         2.441624       2.311546
                                                         0.806764       1.289022
                                                         0.283960       0.094199
                                                         0.097098      -0.001786
                          2      10    4fxyz            34.417212     191.432243
                                                         6.739673      -7.850372
                                                         2.441624       4.003716
                                                         0.806764       2.232651
                                                         0.283960       0.163158
                                                         0.097098      -0.003093
                          2      10    4fxz2            34.417212     110.523457
                                                         6.739673      -4.532415
                                                         2.441624       2.311546
                                                         0.806764       1.289022
                                                         0.283960       0.094199
                                                         0.097098      -0.001786
                          2      10    4fy3             34.417212      49.427593
                                                         6.739673      -2.026957
                                                         2.441624       1.033755
                                                         0.806764       0.576468
                                                         0.283960       0.042127
                                                         0.097098      -0.000799
                          2      10    4fy2z            34.417212     110.523457
                                                         6.739673      -4.532415
                                                         2.441624       2.311546
                                                         0.806764       1.289022
                                                         0.283960       0.094199
                                                         0.097098      -0.001786
                          2      10    4fyz2            34.417212     110.523457
                                                         6.739673      -4.532415
                                                         2.441624       2.311546
                                                         0.806764       1.289022
                                                         0.283960       0.094199
                                                         0.097098      -0.001786
                          2      10    4fz3             34.417212      49.427593
                                                         6.739673      -2.026957
                                                         2.441624       1.033755
                                                         0.806764       0.576468
                                                         0.283960       0.042127
                                                         0.097098      -0.000799

       Atomic covalent radius [Angstrom]:                                  0.770

       Atomic van der Waals radius [Angstrom]:                             1.700

     The atoms of this atomic kind are PAW atoms (GAPW):
       Hard Gaussian function radius:                                      1.520
       Rho0 radius:                                                        1.520
       Maximum GTO radius used for PAW projector construction:            24.566

     GAPW Soft Basis Set                                TZVPP-MOLOPT-PBE-ae_soft

       Number of orbital shell sets:                                           2
       Number of orbital shells:                                              11
       Number of primitive Cartesian functions:                                4
       Number of Cartesian basis functions:                                   36
       Number of spherical basis functions:                                   31
       Norm type:                                                              2

       Normalised Cartesian orbitals:

                        Set   Shell   Orbital            Exponent    Coefficient

                          1       1    1s         

                          2       1    1s                2.441624       0.446183
                                                         0.806764       0.003692
                                                         0.283960       0.027513
                                                         0.097098       0.019281

                          2       2    2s                2.441624      -0.104551
                                                         0.806764       0.362633
                                                         0.283960       0.094997
                                                         0.097098       0.029117

                          2       3    3s                2.441624      -0.199197
                                                         0.806764      -0.252838
                                                         0.283960       0.169545
                                                         0.097098       0.047046

                          2       4    4s                2.441624      -0.053941
                                                         0.806764       0.091223
                                                         0.283960      -0.341415
                                                         0.097098       0.188374

                          2       5    2px               2.441624       0.695625
                                                         0.806764       0.779023
                                                         0.283960       0.032186
                                                         0.097098       0.005087
                          2       5    2py               2.441624       0.695625
                                                         0.806764       0.779023
                                                         0.283960       0.032186
                                                         0.097098       0.005087
                          2       5    2pz               2.441624       0.695625
                                                         0.806764       0.779023
                                                         0.283960       0.032186
                                                         0.097098       0.005087

                          2       6    3px               2.441624       0.912249
                                                         0.806764      -0.188640
                                                         0.283960       0.294367
                                                         0.097098       0.008084
                          2       6    3py               2.441624       0.912249
                                                         0.806764      -0.188640
                                                         0.283960       0.294367
                                                         0.097098       0.008084
                          2       6    3pz               2.441624       0.912249
                                                         0.806764      -0.188640
                                                         0.283960       0.294367
                                                         0.097098       0.008084

                          2       7    4px               2.441624      -0.855991
                                                         0.806764      -0.070055
                                                         0.283960      -0.017243
                                                         0.097098       0.081068
                          2       7    4py               2.441624      -0.855991
                                                         0.806764      -0.070055
                                                         0.283960      -0.017243
                                                         0.097098       0.081068
                          2       7    4pz               2.441624      -0.855991
                                                         0.806764      -0.070055
                                                         0.283960      -0.017243
                                                         0.097098       0.081068

                          2       8    3dx2              2.441624       3.763414
                                                         0.806764       0.546922
                                                         0.283960       0.015501
                                                         0.097098       0.001415
                          2       8    3dxy              2.441624       6.518424
                                                         0.806764       0.947296
                                                         0.283960       0.026849
                                                         0.097098       0.002451
                          2       8    3dxz              2.441624       6.518424
                                                         0.806764       0.947296
                                                         0.283960       0.026849
                                                         0.097098       0.002451
                          2       8    3dy2              2.441624       3.763414
                                                         0.806764       0.546922
                                                         0.283960       0.015501
                                                         0.097098       0.001415
                          2       8    3dyz              2.441624       6.518424
                                                         0.806764       0.947296
                                                         0.283960       0.026849
                                                         0.097098       0.002451
                          2       8    3dz2              2.441624       3.763414
                                                         0.806764       0.546922
                                                         0.283960       0.015501
                                                         0.097098       0.001415

                          2       9    4dx2              2.441624      -2.510108
                                                         0.806764       0.323683
                                                         0.283960       0.139703
                                                         0.097098       0.001225
                          2       9    4dxy              2.441624      -4.347634
                                                         0.806764       0.560636
                                                         0.283960       0.241972
                                                         0.097098       0.002122
                          2       9    4dxz              2.441624      -4.347634
                                                         0.806764       0.560636
                                                         0.283960       0.241972
                                                         0.097098       0.002122
                          2       9    4dy2              2.441624      -2.510108
                                                         0.806764       0.323683
                                                         0.283960       0.139703
                                                         0.097098       0.001225
                          2       9    4dyz              2.441624      -4.347634
                                                         0.806764       0.560636
                                                         0.283960       0.241972
                                                         0.097098       0.002122
                          2       9    4dz2              2.441624      -2.510108
                                                         0.806764       0.323683
                                                         0.283960       0.139703
                                                         0.097098       0.001225

                          2      10    4fx3              2.441624       1.033755
                                                         0.806764       0.576468
                                                         0.283960       0.042127
                                                         0.097098      -0.000799
                          2      10    4fx2y             2.441624       2.311546
                                                         0.806764       1.289022
                                                         0.283960       0.094199
                                                         0.097098      -0.001786
                          2      10    4fx2z             2.441624       2.311546
                                                         0.806764       1.289022
                                                         0.283960       0.094199
                                                         0.097098      -0.001786
                          2      10    4fxy2             2.441624       2.311546
                                                         0.806764       1.289022
                                                         0.283960       0.094199
                                                         0.097098      -0.001786
                          2      10    4fxyz             2.441624       4.003716
                                                         0.806764       2.232651
                                                         0.283960       0.163158
                                                         0.097098      -0.003093
                          2      10    4fxz2             2.441624       2.311546
                                                         0.806764       1.289022
                                                         0.283960       0.094199
                                                         0.097098      -0.001786
                          2      10    4fy3              2.441624       1.033755
                                                         0.806764       0.576468
                                                         0.283960       0.042127
                                                         0.097098      -0.000799
                          2      10    4fy2z             2.441624       2.311546
                                                         0.806764       1.289022
                                                         0.283960       0.094199
                                                         0.097098      -0.001786
                          2      10    4fyz2             2.441624       2.311546
                                                         0.806764       1.289022
                                                         0.283960       0.094199
                                                         0.097098      -0.001786
                          2      10    4fz3              2.441624       1.033755
                                                         0.806764       0.576468
                                                         0.283960       0.042127
                                                         0.097098      -0.000799

     AE Potential information for                                            ALL

       Description:                                       All-electron potential
                                          Krack, Parrinello, PCCP 2, 2105 (2000)

       Gaussian exponent of the core charge distribution:               4.109048
       Electronic configuration (s p d ...):                           4   2   0

  3. Atomic kind: O                                     Number of atoms:       2

     Orbital Basis Set                                       TZVPP-MOLOPT-PBE-ae

       Number of orbital shell sets:                                           2
       Number of orbital shells:                                              11
       Number of primitive Cartesian functions:                               12
       Number of Cartesian basis functions:                                   36
       Number of spherical basis functions:                                   31
       Norm type:                                                              2

       Normalised Cartesian orbitals:

                        Set   Shell   Orbital            Exponent    Coefficient

                          1       1    1s            27032.341107       0.827485
                                                      4052.439160       2.350354
                                                       922.349653       2.989583
                                                       261.277359       5.859993
                                                        85.309424       4.920023
                                                        31.080802       6.525964

                          2       1    1s               62.914956       1.320675
                                                        12.309450       2.903007
                                                         4.395399       0.718493
                                                         1.335408       0.005818
                                                         0.454433       0.026241
                                                         0.148931       0.008771

                          2       2    2s               62.914956      -0.747743
                                                        12.309450      -0.053902
                                                         4.395399      -0.111917
                                                         1.335408       0.667362
                                                         0.454433       0.073646
                                                         0.148931       0.036066

                          2       3    3s               62.914956       0.182030
                                                        12.309450      -0.509964
                                                         4.395399      -0.066370
                                                         1.335408      -0.296204
                                                         0.454433       0.339134
                                                         0.148931       0.072341

                          2       4    4s               62.914956       1.590188
                                                        12.309450      -0.201401
                                                         4.395399      -0.014958
                                                         1.335408      -0.186757
                                                         0.454433      -0.327789
                                                         0.148931       0.257390

                          2       5    2px              62.914956     -23.794765
                                                        12.309450       3.872733
                                                         4.395399       2.867225
                                                         1.335408       1.487193
                                                         0.454433      -0.015509
                                                         0.148931       0.002211
                          2       5    2py              62.914956     -23.794765
                                                        12.309450       3.872733
                                                         4.395399       2.867225
                                                         1.335408       1.487193
                                                         0.454433      -0.015509
                                                         0.148931       0.002211
                          2       5    2pz              62.914956     -23.794765
                                                        12.309450       3.872733
                                                         4.395399       2.867225
                                                         1.335408       1.487193
                                                         0.454433      -0.015509
                                                         0.148931       0.002211

                          2       6    3px              62.914956      36.698597
                                                        12.309450      -1.837950
                                                         4.395399       0.441215
                                                         1.335408       0.085170
                                                         0.454433       0.481961
                                                         0.148931       0.008518
                          2       6    3py              62.914956      36.698597
                                                        12.309450      -1.837950
                                                         4.395399       0.441215
                                                         1.335408       0.085170
                                                         0.454433       0.481961
                                                         0.148931       0.008518
                          2       6    3pz              62.914956      36.698597
                                                        12.309450      -1.837950
                                                         4.395399       0.441215
                                                         1.335408       0.085170
                                                         0.454433       0.481961
                                                         0.148931       0.008518

                          2       7    4px              62.914956     -10.152534
                                                        12.309450       0.600610
                                                         4.395399      -0.295522
                                                         1.335408      -0.042535
                                                         0.454433      -0.034294
                                                         0.148931       0.138320
                          2       7    4py              62.914956     -10.152534
                                                        12.309450       0.600610
                                                         4.395399      -0.295522
                                                         1.335408      -0.042535
                                                         0.454433      -0.034294
                                                         0.148931       0.138320
                          2       7    4pz              62.914956     -10.152534
                                                        12.309450       0.600610
                                                         4.395399      -0.295522
                                                         1.335408      -0.042535
                                                         0.454433      -0.034294
                                                         0.148931       0.138320

                          2       8    3dx2             62.914956     245.407483
                                                        12.309450      -3.718320
                                                         4.395399      13.187048
                                                         1.335408       1.177796
                                                         0.454433       0.037044
                                                         0.148931       0.011799
                          2       8    3dxy             62.914956     425.058229
                                                        12.309450      -6.440319
                                                         4.395399      22.840637
                                                         1.335408       2.040003
                                                         0.454433       0.064161
                                                         0.148931       0.020436
                          2       8    3dxz             62.914956     425.058229
                                                        12.309450      -6.440319
                                                         4.395399      22.840637
                                                         1.335408       2.040003
                                                         0.454433       0.064161
                                                         0.148931       0.020436
                          2       8    3dy2             62.914956     245.407483
                                                        12.309450      -3.718320
                                                         4.395399      13.187048
                                                         1.335408       1.177796
                                                         0.454433       0.037044
                                                         0.148931       0.011799
                          2       8    3dyz             62.914956     425.058229
                                                        12.309450      -6.440319
                                                         4.395399      22.840637
                                                         1.335408       2.040003
                                                         0.454433       0.064161
                                                         0.148931       0.020436
                          2       8    3dz2             62.914956     245.407483
                                                        12.309450      -3.718320
                                                         4.395399      13.187048
                                                         1.335408       1.177796
                                                         0.454433       0.037044
                                                         0.148931       0.011799

                          2       9    4dx2             62.914956    -198.939864
                                                        12.309450       6.262545
                                                         4.395399      -7.656182
                                                         1.335408       1.062793
                                                         0.454433       0.341143
                                                         0.148931      -0.006399
                          2       9    4dxy             62.914956    -344.573952
                                                        12.309450      10.847045
                                                         4.395399     -13.260897
                                                         1.335408       1.840811
                                                         0.454433       0.590877
                                                         0.148931      -0.011084
                          2       9    4dxz             62.914956    -344.573952
                                                        12.309450      10.847045
                                                         4.395399     -13.260897
                                                         1.335408       1.840811
                                                         0.454433       0.590877
                                                         0.148931      -0.011084
                          2       9    4dy2             62.914956    -198.939864
                                                        12.309450       6.262545
                                                         4.395399      -7.656182
                                                         1.335408       1.062793
                                                         0.454433       0.341143
                                                         0.148931      -0.006399
                          2       9    4dyz             62.914956    -344.573952
                                                        12.309450      10.847045
                                                         4.395399     -13.260897
                                                         1.335408       1.840811
                                                         0.454433       0.590877
                                                         0.148931      -0.011084
                          2       9    4dz2             62.914956    -198.939864
                                                        12.309450       6.262545
                                                         4.395399      -7.656182
                                                         1.335408       1.062793
                                                         0.454433       0.341143
                                                         0.148931      -0.006399

                          2      10    4fx3             62.914956       4.775823
                                                        12.309450      16.622131
                                                         4.395399      -5.031344
                                                         1.335408       2.406605
                                                         0.454433       0.066745
                                                         0.148931       0.001654
                          2      10    4fx2y            62.914956      10.679066
                                                        12.309450      37.168214
                                                         4.395399     -11.250428
                                                         1.335408       5.381333
                                                         0.454433       0.149247
                                                         0.148931       0.003699
                          2      10    4fx2z            62.914956      10.679066
                                                        12.309450      37.168214
                                                         4.395399     -11.250428
                                                         1.335408       5.381333
                                                         0.454433       0.149247
                                                         0.148931       0.003699
                          2      10    4fxy2            62.914956      10.679066
                                                        12.309450      37.168214
                                                         4.395399     -11.250428
                                                         1.335408       5.381333
                                                         0.454433       0.149247
                                                         0.148931       0.003699
                          2      10    4fxyz            62.914956      18.496684
                                                        12.309450      64.377235
                                                         4.395399     -19.486313
                                                         1.335408       9.320743
                                                         0.454433       0.258503
                                                         0.148931       0.006406
                          2      10    4fxz2            62.914956      10.679066
                                                        12.309450      37.168214
                                                         4.395399     -11.250428
                                                         1.335408       5.381333
                                                         0.454433       0.149247
                                                         0.148931       0.003699
                          2      10    4fy3             62.914956       4.775823
                                                        12.309450      16.622131
                                                         4.395399      -5.031344
                                                         1.335408       2.406605
                                                         0.454433       0.066745
                                                         0.148931       0.001654
                          2      10    4fy2z            62.914956      10.679066
                                                        12.309450      37.168214
                                                         4.395399     -11.250428
                                                         1.335408       5.381333
                                                         0.454433       0.149247
                                                         0.148931       0.003699
                          2      10    4fyz2            62.914956      10.679066
                                                        12.309450      37.168214
                                                         4.395399     -11.250428
                                                         1.335408       5.381333
                                                         0.454433       0.149247
                                                         0.148931       0.003699
                          2      10    4fz3             62.914956       4.775823
                                                        12.309450      16.622131
                                                         4.395399      -5.031344
                                                         1.335408       2.406605
                                                         0.454433       0.066745
                                                         0.148931       0.001654

       Atomic covalent radius [Angstrom]:                                  0.730

       Atomic van der Waals radius [Angstrom]:                             1.520

     The atoms of this atomic kind are PAW atoms (GAPW):
       Hard Gaussian function radius:                                      1.400
       Rho0 radius:                                                        1.400
       Maximum GTO radius used for PAW projector construction:            24.566

     GAPW Soft Basis Set                                TZVPP-MOLOPT-PBE-ae_soft

       Number of orbital shell sets:                                           2
       Number of orbital shells:                                              11
       Number of primitive Cartesian functions:                                4
       Number of Cartesian basis functions:                                   36
       Number of spherical basis functions:                                   31
       Norm type:                                                              2

       Normalised Cartesian orbitals:

                        Set   Shell   Orbital            Exponent    Coefficient

                          1       1    1s         

                          2       1    1s                4.395399       0.718493
                                                         1.335408       0.005818
                                                         0.454433       0.026241
                                                         0.148931       0.008771

                          2       2    2s                4.395399      -0.111917
                                                         1.335408       0.667362
                                                         0.454433       0.073646
                                                         0.148931       0.036066

                          2       3    3s                4.395399      -0.066370
                                                         1.335408      -0.296204
                                                         0.454433       0.339134
                                                         0.148931       0.072341

                          2       4    4s                4.395399      -0.014958
                                                         1.335408      -0.186757
                                                         0.454433      -0.327789
                                                         0.148931       0.257390

                          2       5    2px               4.395399       2.867225
                                                         1.335408       1.487193
                                                         0.454433      -0.015509
                                                         0.148931       0.002211
                          2       5    2py               4.395399       2.867225
                                                         1.335408       1.487193
                                                         0.454433      -0.015509
                                                         0.148931       0.002211
                          2       5    2pz               4.395399       2.867225
                                                         1.335408       1.487193
                                                         0.454433      -0.015509
                                                         0.148931       0.002211

                          2       6    3px               4.395399       0.441215
                                                         1.335408       0.085170
                                                         0.454433       0.481961
                                                         0.148931       0.008518
                          2       6    3py               4.395399       0.441215
                                                         1.335408       0.085170
                                                         0.454433       0.481961
                                                         0.148931       0.008518
                          2       6    3pz               4.395399       0.441215
                                                         1.335408       0.085170
                                                         0.454433       0.481961
                                                         0.148931       0.008518

                          2       7    4px               4.395399      -0.295522
                                                         1.335408      -0.042535
                                                         0.454433      -0.034294
                                                         0.148931       0.138320
                          2       7    4py               4.395399      -0.295522
                                                         1.335408      -0.042535
                                                         0.454433      -0.034294
                                                         0.148931       0.138320
                          2       7    4pz               4.395399      -0.295522
                                                         1.335408      -0.042535
                                                         0.454433      -0.034294
                                                         0.148931       0.138320

                          2       8    3dx2              4.395399      13.187048
                                                         1.335408       1.177796
                                                         0.454433       0.037044
                                                         0.148931       0.011799
                          2       8    3dxy              4.395399      22.840637
                                                         1.335408       2.040003
                                                         0.454433       0.064161
                                                         0.148931       0.020436
                          2       8    3dxz              4.395399      22.840637
                                                         1.335408       2.040003
                                                         0.454433       0.064161
                                                         0.148931       0.020436
                          2       8    3dy2              4.395399      13.187048
                                                         1.335408       1.177796
                                                         0.454433       0.037044
                                                         0.148931       0.011799
                          2       8    3dyz              4.395399      22.840637
                                                         1.335408       2.040003
                                                         0.454433       0.064161
                                                         0.148931       0.020436
                          2       8    3dz2              4.395399      13.187048
                                                         1.335408       1.177796
                                                         0.454433       0.037044
                                                         0.148931       0.011799

                          2       9    4dx2              4.395399      -7.656182
                                                         1.335408       1.062793
                                                         0.454433       0.341143
                                                         0.148931      -0.006399
                          2       9    4dxy              4.395399     -13.260897
                                                         1.335408       1.840811
                                                         0.454433       0.590877
                                                         0.148931      -0.011084
                          2       9    4dxz              4.395399     -13.260897
                                                         1.335408       1.840811
                                                         0.454433       0.590877
                                                         0.148931      -0.011084
                          2       9    4dy2              4.395399      -7.656182
                                                         1.335408       1.062793
                                                         0.454433       0.341143
                                                         0.148931      -0.006399
                          2       9    4dyz              4.395399     -13.260897
                                                         1.335408       1.840811
                                                         0.454433       0.590877
                                                         0.148931      -0.011084
                          2       9    4dz2              4.395399      -7.656182
                                                         1.335408       1.062793
                                                         0.454433       0.341143
                                                         0.148931      -0.006399

                          2      10    4fx3              4.395399      -5.031344
                                                         1.335408       2.406605
                                                         0.454433       0.066745
                                                         0.148931       0.001654
                          2      10    4fx2y             4.395399     -11.250428
                                                         1.335408       5.381333
                                                         0.454433       0.149247
                                                         0.148931       0.003699
                          2      10    4fx2z             4.395399     -11.250428
                                                         1.335408       5.381333
                                                         0.454433       0.149247
                                                         0.148931       0.003699
                          2      10    4fxy2             4.395399     -11.250428
                                                         1.335408       5.381333
                                                         0.454433       0.149247
                                                         0.148931       0.003699
                          2      10    4fxyz             4.395399     -19.486313
                                                         1.335408       9.320743
                                                         0.454433       0.258503
                                                         0.148931       0.006406
                          2      10    4fxz2             4.395399     -11.250428
                                                         1.335408       5.381333
                                                         0.454433       0.149247
                                                         0.148931       0.003699
                          2      10    4fy3              4.395399      -5.031344
                                                         1.335408       2.406605
                                                         0.454433       0.066745
                                                         0.148931       0.001654
                          2      10    4fy2z             4.395399     -11.250428
                                                         1.335408       5.381333
                                                         0.454433       0.149247
                                                         0.148931       0.003699
                          2      10    4fyz2             4.395399     -11.250428
                                                         1.335408       5.381333
                                                         0.454433       0.149247
                                                         0.148931       0.003699
                          2      10    4fz3              4.395399      -5.031344
                                                         1.335408       2.406605
                                                         0.454433       0.066745
                                                         0.148931       0.001654

     AE Potential information for                                            ALL

       Description:                                       All-electron potential
                                          Krack, Parrinello, PCCP 2, 2105 (2000)

       Gaussian exponent of the core charge distribution:               8.154466
       Electronic configuration (s p d ...):                           4   4   0

  4. Atomic kind: H                                     Number of atoms:      19

     Orbital Basis Set                                       TZVPP-MOLOPT-PBE-ae

       Number of orbital shell sets:                                           1
       Number of orbital shells:                                               6
       Number of primitive Cartesian functions:                                5
       Number of Cartesian basis functions:                                   15
       Number of spherical basis functions:                                   14
       Norm type:                                                              2

       Normalised Cartesian orbitals:

                        Set   Shell   Orbital            Exponent    Coefficient

                          1       1    1s               34.177738      -6.423540
                                                         4.947701      -0.270539
                                                         1.065127       0.831136
                                                         0.293823      -0.051765
                                                         0.091371      -0.049397

                          1       2    2s               34.177738       3.211471
                                                         4.947701       0.528758
                                                         1.065127       0.154529
                                                         0.293823       0.227881
                                                         0.091371      -0.041080

                          1       3    3s               34.177738      -1.131577
                                                         4.947701      -0.040048
                                                         1.065127       0.164523
                                                         0.293823       0.077306
                                                         0.091371       0.076395

                          1       4    2px              34.177738     -11.084238
                                                         4.947701       1.341091
                                                         1.065127       1.416453
                                                         0.293823      -0.007684
                                                         0.091371       0.008886
                          1       4    2py              34.177738     -11.084238
                                                         4.947701       1.341091
                                                         1.065127       1.416453
                                                         0.293823      -0.007684
                                                         0.091371       0.008886
                          1       4    2pz              34.177738     -11.084238
                                                         4.947701       1.341091
                                                         1.065127       1.416453
                                                         0.293823      -0.007684
                                                         0.091371       0.008886

                          1       5    3px              34.177738       9.643751
                                                         4.947701      -0.549928
                                                         1.065127       0.106963
                                                         0.293823       0.330130
                                                         0.091371      -0.013062
                          1       5    3py              34.177738       9.643751
                                                         4.947701      -0.549928
                                                         1.065127       0.106963
                                                         0.293823       0.330130
                                                         0.091371      -0.013062
                          1       5    3pz              34.177738       9.643751
                                                         4.947701      -0.549928
                                                         1.065127       0.106963
                                                         0.293823       0.330130
                                                         0.091371      -0.013062

                          1       6    3dx2             34.177738       9.702470
                                                         4.947701      -1.124420
                                                         1.065127       1.617163
                                                         0.293823       0.052231
                                                         0.091371      -0.004737
                          1       6    3dxy             34.177738      16.805171
                                                         4.947701      -1.947552
                                                         1.065127       2.801009
                                                         0.293823       0.090468
                                                         0.091371      -0.008204
                          1       6    3dxz             34.177738      16.805171
                                                         4.947701      -1.947552
                                                         1.065127       2.801009
                                                         0.293823       0.090468
                                                         0.091371      -0.008204
                          1       6    3dy2             34.177738       9.702470
                                                         4.947701      -1.124420
                                                         1.065127       1.617163
                                                         0.293823       0.052231
                                                         0.091371      -0.004737
                          1       6    3dyz             34.177738      16.805171
                                                         4.947701      -1.947552
                                                         1.065127       2.801009
                                                         0.293823       0.090468
                                                         0.091371      -0.008204
                          1       6    3dz2             34.177738       9.702470
                                                         4.947701      -1.124420
                                                         1.065127       1.617163
                                                         0.293823       0.052231
                                                         0.091371      -0.004737

       Atomic covalent radius [Angstrom]:                                  0.320

       Atomic van der Waals radius [Angstrom]:                             1.090

     The atoms of this atomic kind are PAW atoms (GAPW):
       Hard Gaussian function radius:                                      1.000
       Rho0 radius:                                                        1.000
       Maximum GTO radius used for PAW projector construction:            24.566

     GAPW Soft Basis Set                                TZVPP-MOLOPT-PBE-ae_soft

       Number of orbital shell sets:                                           1
       Number of orbital shells:                                               6
       Number of primitive Cartesian functions:                                4
       Number of Cartesian basis functions:                                   15
       Number of spherical basis functions:                                   14
       Norm type:                                                              2

       Normalised Cartesian orbitals:

                        Set   Shell   Orbital            Exponent    Coefficient

                          1       1    1s                4.947701      -0.270539
                                                         1.065127       0.831136
                                                         0.293823      -0.051765
                                                         0.091371      -0.049397

                          1       2    2s                4.947701       0.528758
                                                         1.065127       0.154529
                                                         0.293823       0.227881
                                                         0.091371      -0.041080

                          1       3    3s                4.947701      -0.040048
                                                         1.065127       0.164523
                                                         0.293823       0.077306
                                                         0.091371       0.076395

                          1       4    2px               4.947701       1.341091
                                                         1.065127       1.416453
                                                         0.293823      -0.007684
                                                         0.091371       0.008886
                          1       4    2py               4.947701       1.341091
                                                         1.065127       1.416453
                                                         0.293823      -0.007684
                                                         0.091371       0.008886
                          1       4    2pz               4.947701       1.341091
                                                         1.065127       1.416453
                                                         0.293823      -0.007684
                                                         0.091371       0.008886

                          1       5    3px               4.947701      -0.549928
                                                         1.065127       0.106963
                                                         0.293823       0.330130
                                                         0.091371      -0.013062
                          1       5    3py               4.947701      -0.549928
                                                         1.065127       0.106963
                                                         0.293823       0.330130
                                                         0.091371      -0.013062
                          1       5    3pz               4.947701      -0.549928
                                                         1.065127       0.106963
                                                         0.293823       0.330130
                                                         0.091371      -0.013062

                          1       6    3dx2              4.947701      -1.124420
                                                         1.065127       1.617163
                                                         0.293823       0.052231
                                                         0.091371      -0.004737
                          1       6    3dxy              4.947701      -1.947552
                                                         1.065127       2.801009
                                                         0.293823       0.090468
                                                         0.091371      -0.008204
                          1       6    3dxz              4.947701      -1.947552
                                                         1.065127       2.801009
                                                         0.293823       0.090468
                                                         0.091371      -0.008204
                          1       6    3dy2              4.947701      -1.124420
                                                         1.065127       1.617163
                                                         0.293823       0.052231
                                                         0.091371      -0.004737
                          1       6    3dyz              4.947701      -1.947552
                                                         1.065127       2.801009
                                                         0.293823       0.090468
                                                         0.091371      -0.008204
                          1       6    3dz2              4.947701      -1.124420
                                                         1.065127       1.617163
                                                         0.293823       0.052231
                                                         0.091371      -0.004737

     AE Potential information for                                            ALL

       Description:                                       All-electron potential
                                          Krack, Parrinello, PCCP 2, 2105 (2000)

       Gaussian exponent of the core charge distribution:              12.500000
       Electronic configuration (s p d ...):                           1   0   0


 MOLECULE KIND INFORMATION


 All atoms are their own molecule, skipping detailed information


 TOTAL NUMBERS AND MAXIMUM NUMBERS

  Total number of            - Atomic kinds:                                   4
                             - Atoms:                                         33
                             - Shell sets:                                    47
                             - Shells:                                       268
                             - Primitive Cartesian functions:                263
                             - Cartesian basis functions:                    789
                             - Spherical basis functions:                    700

  Maximum angular momentum of the orbital basis functions:                     3


 MODULE QUICKSTEP: ATOMIC COORDINATES IN ANGSTROM

   Atom Kind Element         X             Y             Z       Z(eff)     Mass
      1    1 N     7     19.200835     14.511930     15.424250   7.0000  14.0067
      2    2 C     6     17.898205     15.134580     15.235900   6.0000  12.0107
      3    2 C     6     18.065095     16.656680     15.278590   6.0000  12.0107
      4    3 O     8     17.871195     17.313830     16.296710   8.0000  15.9994
      5    2 C     6     16.927675     14.642120     16.293740   6.0000  12.0107
      6    2 C     6     15.524965     15.226850     16.144040   6.0000  12.0107
      7    4 H     1     19.499905     14.302090     16.361850   1.0000   1.0079
      8    4 H     1     17.568535     14.839830     14.240410   1.0000   1.0079
      9    4 H     1     16.886915     13.552500     16.226190   1.0000   1.0079
     10    4 H     1     15.556345     16.288450     16.389720   1.0000   1.0079
     11    4 H     1     14.874985     14.751120     16.882040   1.0000   1.0079
     12    1 N     7     18.464835     17.185690     14.098110   7.0000  14.0067
     13    4 H     1     18.818515     16.527030     13.414820   1.0000   1.0079
     14    2 C     6     18.837885     18.582420     14.014240   6.0000  12.0107
     15    4 H     1     19.826185     18.768090     14.436440   1.0000   1.0079
     16    4 H     1     18.116875     19.171040     14.573360   1.0000   1.0079
     17    4 H     1     18.829875     18.892270     12.973500   1.0000   1.0079
     18    2 C     6     20.073195     14.360740     14.397070   6.0000  12.0107
     19    3 O     8     19.808605     14.724730     13.251010   8.0000  15.9994
     20    2 C     6     21.385935     13.703980     14.739280   6.0000  12.0107
     21    4 H     1     22.191355     14.395820     14.504210   1.0000   1.0079
     22    4 H     1     21.507405     12.828960     14.105550   1.0000   1.0079
     23    4 H     1     21.458815     13.406180     15.782110   1.0000   1.0079
     24    4 H     1     17.322515     14.906030     17.276880   1.0000   1.0079
     25    2 C     6     14.921295     15.039130     14.756800   6.0000  12.0107
     26    4 H     1     14.996065     13.989530     14.453510   1.0000   1.0079
     27    4 H     1     15.480025     15.621580     14.019230   1.0000   1.0079
     28    2 C     6     13.459395     15.470890     14.702640   6.0000  12.0107
     29    4 H     1     12.882445     14.878590     15.415340   1.0000   1.0079
     30    4 H     1     13.380465     16.508480     15.032000   1.0000   1.0079
     31    1 N     7     12.808645     15.362830     13.398640   7.0000  14.0067
     32    4 H     1     13.316475     15.921460     12.723120   1.0000   1.0079
     33    4 H     1     12.874835     14.407430     13.068200   1.0000   1.0079



 SCF PARAMETERS         Density guess:                                    ATOMIC
                        --------------------------------------------------------
                        max_scf:                                             200
                        max_scf_history:                                       0
                        max_diis:                                              4
                        --------------------------------------------------------
                        eps_scf:                                        1.00E-07
                        eps_scf_history:                                0.00E+00
                        eps_diis:                                       0.00E+00
                        eps_eigval:                                     1.00E-05
                        --------------------------------------------------------
                        level_shift [a.u.]:                             0.000000
                        --------------------------------------------------------
                        Outer loop SCF in use 
                        No variables optimised in outer loop
                        eps_scf                                         1.00E-07
                        max_scf                                               20
                        No outer loop optimization
                        step_size                                       5.00E-01

 PW_GRID| Information for grid number                                          1
 PW_GRID| Cutoff [a.u.]                                                    320.0
 PW_GRID| spherical cutoff:                                                   NO
 PW_GRID|   Bounds   1           -270     269                Points:         540
 PW_GRID|   Bounds   2           -250     249                Points:         500
 PW_GRID|   Bounds   3           -240     239                Points:         480
 PW_GRID| Volume element (a.u.^3)  0.1750E-02     Volume (a.u.^3)    226744.0420
 PW_GRID| Grid span                                                    FULLSPACE

 PW_GRID| Information for grid number                                          2
 PW_GRID| Number of the reference grid                                         1
 PW_GRID| Cutoff [a.u.]                                                    106.7
 PW_GRID| spherical cutoff:                                                   NO
 PW_GRID|   Bounds   1           -160     159                Points:         320
 PW_GRID|   Bounds   2           -144     143                Points:         288
 PW_GRID|   Bounds   3           -135     134                Points:         270
 PW_GRID| Volume element (a.u.^3)  0.9112E-02     Volume (a.u.^3)    226744.0420
 PW_GRID| Grid span                                                    FULLSPACE

 PW_GRID| Information for grid number                                          3
 PW_GRID| Number of the reference grid                                         1
 PW_GRID| Cutoff [a.u.]                                                     35.6
 PW_GRID| spherical cutoff:                                                   NO
 PW_GRID|   Bounds   1            -90      89                Points:         180
 PW_GRID|   Bounds   2            -90      89                Points:         180
 PW_GRID|   Bounds   3            -80      79                Points:         160
 PW_GRID| Volume element (a.u.^3)  0.4374E-01     Volume (a.u.^3)    226744.0420
 PW_GRID| Grid span                                                    FULLSPACE

 PW_GRID| Information for grid number                                          4
 PW_GRID| Number of the reference grid                                         1
 PW_GRID| Cutoff [a.u.]                                                     11.9
 PW_GRID| spherical cutoff:                                                   NO
 PW_GRID|   Bounds   1            -54      53                Points:         108
 PW_GRID|   Bounds   2            -48      47                Points:          96
 PW_GRID|   Bounds   3            -45      44                Points:          90
 PW_GRID| Volume element (a.u.^3)  0.2430         Volume (a.u.^3)    226744.0420
 PW_GRID| Grid span                                                    FULLSPACE

 PW_GRID| Information for grid number                                          5
 PW_GRID| Number of the reference grid                                         1
 PW_GRID| Cutoff [a.u.]                                                      4.0
 PW_GRID| spherical cutoff:                                                   NO
 PW_GRID|   Bounds   1            -30      29                Points:          60
 PW_GRID|   Bounds   2            -30      29                Points:          60
 PW_GRID|   Bounds   3            -27      26                Points:          54
 PW_GRID| Volume element (a.u.^3)   1.166         Volume (a.u.^3)    226744.0420
 PW_GRID| Grid span                                                    FULLSPACE

 POISSON| Solver                                                        ANALYTIC
 POISSON| Periodicity                                                       NONE

 RS_GRID| Information for grid number                                          1
 RS_GRID|   Bounds   1           -270     269                Points:         540
 RS_GRID|   Bounds   2           -250     249                Points:         500
 RS_GRID|   Bounds   3           -240     239                Points:         480

 RS_GRID| Information for grid number                                          2
 RS_GRID|   Bounds   1           -160     159                Points:         320
 RS_GRID|   Bounds   2           -144     143                Points:         288
 RS_GRID|   Bounds   3           -135     134                Points:         270

 RS_GRID| Information for grid number                                          3
 RS_GRID|   Bounds   1            -90      89                Points:         180
 RS_GRID|   Bounds   2            -90      89                Points:         180
 RS_GRID|   Bounds   3            -80      79                Points:         160

 RS_GRID| Information for grid number                                          4
 RS_GRID|   Bounds   1            -54      53                Points:         108
 RS_GRID|   Bounds   2            -48      47                Points:          96
 RS_GRID|   Bounds   3            -45      44                Points:          90

 RS_GRID| Information for grid number                                          5
 RS_GRID|   Bounds   1            -30      29                Points:          60
 RS_GRID|   Bounds   2            -30      29                Points:          60
 RS_GRID|   Bounds   3            -27      26                Points:          54

 Extrapolation method: initial_guess

 Atomic guess: The first density matrix is obtained in terms of atomic orbitals
               and electronic configurations assigned to each atomic kind

 Guess for atomic kind: N

 Electronic structure
    Total number of core electrons                                          0.00
    Total number of valence electrons                                       7.00
    Total number of electrons                                               7.00
    Multiplicity                                                   not specified
    S      2.00  2.00
    P      3.00


 *******************************************************************************
                  Iteration          Convergence                     Energy [au]
 *******************************************************************************
                          1        0.388374                     -53.972199509139
                          2        0.353293                     -53.976990897687
                          3        0.163616E-01                 -54.014551313244
                          4        0.500667E-03                 -54.014632721368
                          5        0.432519E-04                 -54.014632788190
                          6        0.221961E-06                 -54.014632788722

 Energy components [Hartree]           Total Energy ::          -54.014632788722
                                        Band Energy ::          -30.202432646837
                                     Kinetic Energy ::           53.701411266150
                                   Potential Energy ::         -107.716044054872
                                      Virial (-V/T) ::            2.005832649742
                                        Core Energy ::          -73.642211071888
                                          XC Energy ::           -6.131041439843
                                     Coulomb Energy ::           25.758619723010

 Orbital energies  State     L     Occupation   Energy[a.u.]          Energy[eV]

                       1     0          2.000     -14.018319         -381.457848
                       2     0          2.000      -0.679727          -18.496319

                       1     1          3.000      -0.268780           -7.313885


 Total Electron Density at R=0:                                       197.125592

 Guess for atomic kind: C

 Electronic structure
    Total number of core electrons                                          0.00
    Total number of valence electrons                                       6.00
    Total number of electrons                                               6.00
    Multiplicity                                                   not specified
    S      2.00  2.00
    P      2.00


 *******************************************************************************
                  Iteration          Convergence                     Energy [au]
 *******************************************************************************
                          1        0.173655E-01                 -37.376787438959
                          2        0.676160E-02                 -37.376929801325
                          3        0.811969E-03                 -37.376951023995
                          4        0.160224E-04                 -37.376951339065
                          5        0.242098E-06                 -37.376951339187

 Energy components [Hartree]           Total Energy ::          -37.376951339187
                                        Band Energy ::          -20.702774312096
                                     Kinetic Energy ::           37.976803393369
                                   Potential Energy ::          -75.353754732556
                                      Virial (-V/T) ::            1.984204777638
                                        Core Energy ::          -50.754367308545
                                          XC Energy ::           -4.825764056545
                                     Coulomb Energy ::           18.203180025904

 Orbital energies  State     L     Occupation   Energy[a.u.]          Energy[eV]

                       1     0          2.000      -9.788461         -266.357558
                       2     0          2.000      -0.425735          -11.584833

                       1     1          2.000      -0.137192           -3.733179


 Total Electron Density at R=0:                                       119.617441

 Guess for atomic kind: O

 Electronic structure
    Total number of core electrons                                          0.00
    Total number of valence electrons                                       8.00
    Total number of electrons                                               8.00
    Multiplicity                                                   not specified
    S      2.00  2.00
    P      4.00


 *******************************************************************************
                  Iteration          Convergence                     Energy [au]
 *******************************************************************************
                          1        0.852480                     -74.332672756082
                          2        0.822104                     -74.327611038196
                          3        0.503433E-01                 -74.437825052376
                          4        0.180131E-02                 -74.438232362009
                          5        0.615789E-04                 -74.438232811716
                          6        0.162343E-05                 -74.438232812301
                          7        0.619766E-06                 -74.438232812301

 Energy components [Hartree]           Total Energy ::          -74.438232812301
                                        Band Energy ::          -40.686258539782
                                     Kinetic Energy ::           74.021280552073
                                   Potential Energy ::         -148.459513364374
                                      Virial (-V/T) ::            2.005632870130
                                        Core Energy ::         -102.906048127742
                                          XC Energy ::           -7.749500989531
                                     Coulomb Energy ::           36.217316304972

 Orbital energies  State     L     Occupation   Energy[a.u.]          Energy[eV]

                       1     0          2.000     -18.777544         -510.962961
                       2     0          2.000      -0.872213          -23.734118

                       1     1          4.000      -0.346686           -9.433811


 Total Electron Density at R=0:                                       296.401580

 Guess for atomic kind: H

 Electronic structure
    Total number of core electrons                                          0.00
    Total number of valence electrons                                       1.00
    Total number of electrons                                               1.00
    Multiplicity                                                   not specified
    S      1.00


 *******************************************************************************
                  Iteration          Convergence                     Energy [au]
 *******************************************************************************
                          1        0.842545E-02                  -0.445100128715
                          2        0.129529E-02                  -0.445186551903
                          3        0.161091E-05                  -0.445188626016
                          4        0.290776E-07                  -0.445188626019

 Energy components [Hartree]           Total Energy ::           -0.445188626019
                                        Band Energy ::           -0.232306922112
                                     Kinetic Energy ::            0.426044212024
                                   Potential Energy ::           -0.871232838043
                                      Virial (-V/T) ::            2.044935275390
                                        Core Energy ::           -0.495846412394
                                          XC Energy ::           -0.232824427171
                                     Coulomb Energy ::            0.283482213547

 Orbital energies  State     L     Occupation   Energy[a.u.]          Energy[eV]

                       1     0          1.000      -0.232307           -6.321393


 Total Electron Density at R=0:                                         0.247530
 Re-scaling the density matrix to get the right number of electrons
                  # Electrons              Trace(P)               Scaling factor
                          110               110.000                        1.000

 Number of electrons:                                                        110
 Number of occupied orbitals:                                                 55
 Number of molecular orbitals:                                                55

 Number of orbital functions:                                                700
 Number of independent orbital functions:                                    700


 SCF WAVEFUNCTION OPTIMIZATION

  ----------------------------------- OT ---------------------------------------
  Minimizer      : DIIS                : direct inversion
                                         in the iterative subspace
                                         using   7 DIIS vectors
                                         safer DIIS on
  Preconditioner : FULL_ALL            : diagonalization, state selective
  Precond_solver : DEFAULT
  stepsize       :    0.10000000                  energy_gap     :    0.00100000
  eps_taylor     :   0.10000E-15                  max_taylor     :             4
  ----------------------------------- OT ---------------------------------------

  Step     Update method      Time    Convergence         Total energy    Change
  ------------------------------------------------------------------------------
 SKALA_GPW| Atom-composite cross support/maxima   2.315927033471E+00   4.754260898336E+01   4.744562650412E+02   9.384171472414E+02
 SKALA_GPW| Active atom-composite XC energy  -8.7113421728340640E+01
 SKALA_GPW| Active atom-composite electrons   1.0999997124019289E+02
 SKALA_GPW| Active atom-composite density range  -3.3374831878977654E-09   1.3715323538139762E+02
 SKALA_GPW| Active atom-composite tau range  -5.8197596649772652E-08   4.1160602650732544E+03
 SKALA_GPW| Active atom-composite tau integral   6.3218280893236840E+02
 SKALA_GPW| Active atom-composite max gradient   2.0352069448241325E+03
     1 OT DIIS     0.10E+00  324.7     0.10243128      -631.1553340982 -6.31E+02
 SKALA_GPW| Atom-composite cross support/maxima   2.315927033471E+00   4.884146092382E+01   5.163109901219E+02   9.955681721700E+02
 SKALA_GPW| Active atom-composite XC energy  -9.1721695037913761E+01
 SKALA_GPW| Active atom-composite electrons   1.0999996758162696E+02
 SKALA_GPW| Active atom-composite density range  -2.8641403002201133E-09   1.4919336082372740E+02
 SKALA_GPW| Active atom-composite tau range  -5.5297828305176046E-08   4.5578014787081165E+03
 SKALA_GPW| Active atom-composite tau integral   6.6995054770415300E+02
 SKALA_GPW| Active atom-composite max gradient   2.2341120970896777E+03
     2 OT DIIS     0.10E+00  261.9     0.04934504      -656.2170827896 -2.51E+01
 SKALA_GPW| Atom-composite cross support/maxima   2.315927033471E+00   4.909817840918E+01   5.230325230964E+02   1.015444289314E+03
 SKALA_GPW| Active atom-composite XC energy  -9.2463264410098233E+01
 SKALA_GPW| Active atom-composite electrons   1.0999996446112776E+02
 SKALA_GPW| Active atom-composite density range  -2.6358897101133852E-09   1.4904258733608157E+02
 SKALA_GPW| Active atom-composite tau range  -5.1016252313107694E-08   4.5520595100704777E+03
 SKALA_GPW| Active atom-composite tau integral   6.7169698667333182E+02
 SKALA_GPW| Active atom-composite max gradient   2.2328423383234335E+03
     3 OT DIIS     0.10E+00  262.5     0.03028944      -662.0142497212 -5.80E+00
 SKALA_GPW| Atom-composite cross support/maxima   2.315927033471E+00   4.899163360084E+01   5.252320746144E+02   1.033237630748E+03
 SKALA_GPW| Active atom-composite XC energy  -9.2967872220440228E+01
 SKALA_GPW| Active atom-composite electrons   1.0999996021578586E+02
 SKALA_GPW| Active atom-composite density range  -2.2548417576968653E-09   1.4982394671610768E+02
 SKALA_GPW| Active atom-composite tau range  -4.4652838381564345E-08   4.5717145341775249E+03
 SKALA_GPW| Active atom-composite tau integral   6.6987360325186933E+02
 SKALA_GPW| Active atom-composite max gradient   2.2447911423018609E+03
     4 OT DIIS     0.10E+00  266.4     0.01544338      -665.5740003824 -3.56E+00
 SKALA_GPW| Atom-composite cross support/maxima   2.315927033471E+00   4.903879912090E+01   5.245200149328E+02   1.036321656262E+03
 SKALA_GPW| Active atom-composite XC energy  -9.3117785864007345E+01
 SKALA_GPW| Active atom-composite electrons   1.0999995883792175E+02
 SKALA_GPW| Active atom-composite density range  -2.0066086451583770E-09   1.4967154151607437E+02
 SKALA_GPW| Active atom-composite tau range  -4.1308880789092027E-08   4.5700718702553659E+03
 SKALA_GPW| Active atom-composite tau integral   6.6870181470814600E+02
 SKALA_GPW| Active atom-composite max gradient   2.2429743575502575E+03
     5 OT DIIS     0.10E+00  265.4     0.01199035      -666.3837214830 -8.10E-01
 SKALA_GPW| Atom-composite cross support/maxima   2.315927033471E+00   4.903860827579E+01   5.240277218145E+02   1.039153021508E+03
 SKALA_GPW| Active atom-composite XC energy  -9.3297667122598043E+01
 SKALA_GPW| Active atom-composite electrons   1.0999995749067833E+02
 SKALA_GPW| Active atom-composite density range  -1.8287393423534252E-09   1.4962404796207142E+02
 SKALA_GPW| Active atom-composite tau range  -3.8250070098472217E-08   4.5662903399659881E+03
 SKALA_GPW| Active atom-composite tau integral   6.6770237614180814E+02
 SKALA_GPW| Active atom-composite max gradient   2.2423633837704274E+03
     6 OT DIIS     0.10E+00  262.8     0.00890426      -667.1522500667 -7.69E-01
 SKALA_GPW| Atom-composite cross support/maxima   2.315927033471E+00   4.903051134725E+01   5.237550940584E+02   1.039543632396E+03
 SKALA_GPW| Active atom-composite XC energy  -9.3486898095942863E+01
 SKALA_GPW| Active atom-composite electrons   1.0999995620998855E+02
 SKALA_GPW| Active atom-composite density range  -1.9411467546702178E-09   1.4961456953070638E+02
 SKALA_GPW| Active atom-composite tau range  -3.6337872524048514E-08   4.5651579574894758E+03
 SKALA_GPW| Active atom-composite tau integral   6.6705657331261193E+02
 SKALA_GPW| Active atom-composite max gradient   2.2421313625549278E+03
     7 OT DIIS     0.10E+00  263.7     0.00654697      -667.8718158656 -7.20E-01
 SKALA_GPW| Atom-composite cross support/maxima   2.315927033471E+00   4.900761501972E+01   5.236999130026E+02   1.037589605332E+03
 SKALA_GPW| Active atom-composite XC energy  -9.3590751165686683E+01
 SKALA_GPW| Active atom-composite electrons   1.0999995511087111E+02
 SKALA_GPW| Active atom-composite density range  -2.2022655182995710E-09   1.4965533374098226E+02
 SKALA_GPW| Active atom-composite tau range  -3.5958483021803411E-08   4.5680874498293288E+03
 SKALA_GPW| Active atom-composite tau integral   6.6674453570592334E+02
 SKALA_GPW| Active atom-composite max gradient   2.2425763298550928E+03
     8 OT DIIS     0.10E+00  262.6     0.00503209      -668.3515589554 -4.80E-01
 SKALA_GPW| Atom-composite cross support/maxima   2.315927033471E+00   4.897601300722E+01   5.231678193489E+02   1.037342688080E+03
 SKALA_GPW| Active atom-composite XC energy  -9.3670739214095946E+01
 SKALA_GPW| Active atom-composite electrons   1.0999995308911608E+02
 SKALA_GPW| Active atom-composite density range  -2.3705466212165830E-09   1.4960199018884870E+02
 SKALA_GPW| Active atom-composite tau range  -3.6345073128215198E-08   4.5679591589870515E+03
 SKALA_GPW| Active atom-composite tau integral   6.6618284348405814E+02
 SKALA_GPW| Active atom-composite max gradient   2.2422143097790549E+03
     9 OT DIIS     0.10E+00  263.6     0.00395534      -668.6958682792 -3.44E-01
 SKALA_GPW| Atom-composite cross support/maxima   2.315927033471E+00   4.899588151815E+01   5.235269871379E+02   1.037935364561E+03
 SKALA_GPW| Active atom-composite XC energy  -9.3656875915068952E+01
 SKALA_GPW| Active atom-composite electrons   1.0999995307205184E+02
 SKALA_GPW| Active atom-composite density range  -2.2704711145041933E-09   1.4958790349471354E+02
 SKALA_GPW| Active atom-composite tau range  -3.5942056108959813E-08   4.5674584475766687E+03
 SKALA_GPW| Active atom-composite tau integral   6.6625170539856265E+02
 SKALA_GPW| Active atom-composite max gradient   2.2423987353407715E+03
    10 OT DIIS     0.10E+00  263.3     0.00520276      -668.6834257238  1.24E-02
 SKALA_GPW| Atom-composite cross support/maxima   2.315927033471E+00   4.898077741082E+01   5.232693754189E+02   1.038110857382E+03
 SKALA_GPW| Active atom-composite XC energy  -9.3695407374995426E+01
 SKALA_GPW| Active atom-composite electrons   1.0999995181425716E+02
 SKALA_GPW| Active atom-composite density range  -2.3214133975445863E-09   1.4957191230447151E+02
 SKALA_GPW| Active atom-composite tau range  -3.7207248965044611E-08   4.5677628745783140E+03
 SKALA_GPW| Active atom-composite tau integral   6.6597059502969148E+02
 SKALA_GPW| Active atom-composite max gradient   2.2425067070748078E+03
    11 OT DIIS     0.10E+00  260.5     0.00267860      -668.8624481039 -1.79E-01
 SKALA_GPW| Atom-composite cross support/maxima   2.315927033471E+00   4.898278828476E+01   5.232004816567E+02   1.038363946622E+03
 SKALA_GPW| Active atom-composite XC energy  -9.3717217166094102E+01
 SKALA_GPW| Active atom-composite electrons   1.0999995111762043E+02
 SKALA_GPW| Active atom-composite density range  -2.3175651503761811E-09   1.4957219427458551E+02
 SKALA_GPW| Active atom-composite tau range  -3.7709374171467616E-08   4.5680963169047745E+03
 SKALA_GPW| Active atom-composite tau integral   6.6589709210109288E+02
 SKALA_GPW| Active atom-composite max gradient   2.2426333343160341E+03
    12 OT DIIS     0.10E+00  263.0     0.00204491      -668.9307484625 -6.83E-02
 SKALA_GPW| Atom-composite cross support/maxima   2.315927033471E+00   4.899147529705E+01   5.230444848558E+02   1.038566714213E+03
 SKALA_GPW| Active atom-composite XC energy  -9.3744909730281648E+01
 SKALA_GPW| Active atom-composite electrons   1.0999995002716247E+02
 SKALA_GPW| Active atom-composite density range  -2.3089569520250189E-09   1.4957554174433884E+02
 SKALA_GPW| Active atom-composite tau range  -3.8226917568214734E-08   4.5684293630631373E+03
 SKALA_GPW| Active atom-composite tau integral   6.6581141106127563E+02
 SKALA_GPW| Active atom-composite max gradient   2.2427300538908498E+03
    13 OT DIIS     0.10E+00  262.9     0.00161731      -669.0116210186 -8.09E-02
 SKALA_GPW| Atom-composite cross support/maxima   2.315927033471E+00   4.899213020737E+01   5.229883100317E+02   1.038287315247E+03
 SKALA_GPW| Active atom-composite XC energy  -9.3764206982081177E+01
 SKALA_GPW| Active atom-composite electrons   1.0999994986497805E+02
 SKALA_GPW| Active atom-composite density range  -2.3418571287794394E-09   1.4955873077532678E+02
 SKALA_GPW| Active atom-composite tau range  -3.8132291481992317E-08   4.5678409690342778E+03
 SKALA_GPW| Active atom-composite tau integral   6.6585730936854736E+02
 SKALA_GPW| Active atom-composite max gradient   2.2424555314951276E+03
    14 OT DIIS     0.10E+00  259.5     0.00111712      -669.0288354051 -1.72E-02
 SKALA_GPW| Atom-composite cross support/maxima   2.315927033471E+00   4.899095358517E+01   5.229421079003E+02   1.038186754975E+03
 SKALA_GPW| Active atom-composite XC energy  -9.3769034495247993E+01
 SKALA_GPW| Active atom-composite electrons   1.0999994964841370E+02
 SKALA_GPW| Active atom-composite density range  -2.3540225933899320E-09   1.4955934617872796E+02
 SKALA_GPW| Active atom-composite tau range  -3.8202886642113567E-08   4.5678141812974472E+03
 SKALA_GPW| Active atom-composite tau integral   6.6584297136761427E+02
 SKALA_GPW| Active atom-composite max gradient   2.2424410505983628E+03
    15 OT DIIS     0.10E+00  261.9     0.00085555      -669.0424950230 -1.37E-02
 SKALA_GPW| Atom-composite cross support/maxima   2.315927033471E+00   4.898619500134E+01   5.229575555835E+02   1.037964622125E+03
 SKALA_GPW| Active atom-composite XC energy  -9.3780083107791427E+01
 SKALA_GPW| Active atom-composite electrons   1.0999994964291017E+02
 SKALA_GPW| Active atom-composite density range  -2.3942207275154561E-09   1.4954806165688362E+02
 SKALA_GPW| Active atom-composite tau range  -3.8149548012962306E-08   4.5677505859709527E+03
 SKALA_GPW| Active atom-composite tau integral   6.6586526944743423E+02
 SKALA_GPW| Active atom-composite max gradient   2.2422314309882167E+03
    16 OT DIIS     0.10E+00  262.9     0.00084306      -669.0546101737 -1.21E-02
 SKALA_GPW| Atom-composite cross support/maxima   2.315927033471E+00   4.898557179759E+01   5.229447273858E+02   1.037980611553E+03
 SKALA_GPW| Active atom-composite XC energy  -9.3780183103460033E+01
 SKALA_GPW| Active atom-composite electrons   1.0999994962804566E+02
 SKALA_GPW| Active atom-composite density range  -2.4043076771608572E-09   1.4954634582972290E+02
 SKALA_GPW| Active atom-composite tau range  -3.8179590370494762E-08   4.5679409735657091E+03
 SKALA_GPW| Active atom-composite tau integral   6.6585147546491032E+02
 SKALA_GPW| Active atom-composite max gradient   2.2422732121975428E+03
    17 OT DIIS     0.10E+00  264.7     0.00053359      -669.0600165889 -5.41E-03
 SKALA_GPW| Atom-composite cross support/maxima   2.315927033471E+00   4.898906909259E+01   5.229403167415E+02   1.038219593032E+03
 SKALA_GPW| Active atom-composite XC energy  -9.3780308927915002E+01
 SKALA_GPW| Active atom-composite electrons   1.0999994980539040E+02
 SKALA_GPW| Active atom-composite density range  -2.4106667026492718E-09   1.4955092781569638E+02
 SKALA_GPW| Active atom-composite tau range  -3.8230882773650978E-08   4.5681386610451791E+03
 SKALA_GPW| Active atom-composite tau integral   6.6583489986061909E+02
 SKALA_GPW| Active atom-composite max gradient   2.2423420426563966E+03
    18 OT DIIS     0.10E+00  265.0     0.00049552      -669.0655142438 -5.50E-03
 SKALA_GPW| Atom-composite cross support/maxima   2.315927033471E+00   4.898952504616E+01   5.229283694448E+02   1.038236320430E+03
 SKALA_GPW| Active atom-composite XC energy  -9.3779971346632905E+01
 SKALA_GPW| Active atom-composite electrons   1.0999994985372217E+02
 SKALA_GPW| Active atom-composite density range  -2.4153029152573483E-09   1.4954940880520769E+02
 SKALA_GPW| Active atom-composite tau range  -3.8261548084435292E-08   4.5681850291536648E+03
 SKALA_GPW| Active atom-composite tau integral   6.6582669270066981E+02
 SKALA_GPW| Active atom-composite max gradient   2.2423627170791901E+03
    19 OT DIIS     0.10E+00  264.4     0.00031148      -669.0674972713 -1.98E-03
 SKALA_GPW| Atom-composite cross support/maxima   2.315927033471E+00   4.898982818785E+01   5.229231122748E+02   1.038240788283E+03
 SKALA_GPW| Active atom-composite XC energy  -9.3780656581334185E+01
 SKALA_GPW| Active atom-composite electrons   1.0999994993903609E+02
 SKALA_GPW| Active atom-composite density range  -2.4145744613392789E-09   1.4955030274900969E+02
 SKALA_GPW| Active atom-composite tau range  -3.8305489164835171E-08   4.5681499236079108E+03
 SKALA_GPW| Active atom-composite tau integral   6.6582611726417110E+02
 SKALA_GPW| Active atom-composite max gradient   2.2423404691002261E+03
    20 OT DIIS     0.10E+00  263.2     0.00027378      -669.0688928224 -1.40E-03
 SKALA_GPW| Atom-composite cross support/maxima   2.315927033471E+00   4.898864583124E+01   5.229238370000E+02   1.038179178471E+03
 SKALA_GPW| Active atom-composite XC energy  -9.3781431689810915E+01
 SKALA_GPW| Active atom-composite electrons   1.0999994999739201E+02
 SKALA_GPW| Active atom-composite density range  -2.4155439644208047E-09   1.4955140409588608E+02
 SKALA_GPW| Active atom-composite tau range  -3.8344284230796990E-08   4.5681079692638914E+03
 SKALA_GPW| Active atom-composite tau integral   6.6582683292703018E+02
 SKALA_GPW| Active atom-composite max gradient   2.2423003217534433E+03
    21 OT DIIS     0.10E+00  264.4     0.00020656      -669.0700180713 -1.13E-03
 SKALA_GPW| Atom-composite cross support/maxima   2.315927033471E+00   4.898809350842E+01   5.229341885814E+02   1.038165818008E+03
 SKALA_GPW| Active atom-composite XC energy  -9.3781957383357863E+01
 SKALA_GPW| Active atom-composite electrons   1.0999995003711776E+02
 SKALA_GPW| Active atom-composite density range  -2.4156107129211992E-09   1.4955143327557363E+02
 SKALA_GPW| Active atom-composite tau range  -3.8378810316519869E-08   4.5681002056249290E+03
 SKALA_GPW| Active atom-composite tau integral   6.6582748080498607E+02
 SKALA_GPW| Active atom-composite max gradient   2.2422934681423712E+03
    22 OT DIIS     0.10E+00  264.0     0.00016992      -669.0707947010 -7.77E-04
 SKALA_GPW| Atom-composite cross support/maxima   2.315927033471E+00   4.898851746808E+01   5.229403492363E+02   1.038197439164E+03
 SKALA_GPW| Active atom-composite XC energy  -9.3782460491970028E+01
 SKALA_GPW| Active atom-composite electrons   1.0999995005865678E+02
 SKALA_GPW| Active atom-composite density range  -2.4153011143206914E-09   1.4955213926986204E+02
 SKALA_GPW| Active atom-composite tau range  -3.8407208698776831E-08   4.5681049030966396E+03
 SKALA_GPW| Active atom-composite tau integral   6.6582927089555392E+02
 SKALA_GPW| Active atom-composite max gradient   2.2423032799174462E+03
    23 OT DIIS     0.10E+00  265.2     0.00015087      -669.0712400649 -4.45E-04
 SKALA_GPW| Atom-composite cross support/maxima   2.315927033471E+00   4.898899586871E+01   5.229397911076E+02   1.038224802248E+03
 SKALA_GPW| Active atom-composite XC energy  -9.3782629847268680E+01
 SKALA_GPW| Active atom-composite electrons   1.0999995007838548E+02
 SKALA_GPW| Active atom-composite density range  -2.4161511287545618E-09   1.4955059310582502E+02
 SKALA_GPW| Active atom-composite tau range  -3.8435221219789116E-08   4.5681011010467018E+03
 SKALA_GPW| Active atom-composite tau integral   6.6582813415875262E+02
 SKALA_GPW| Active atom-composite max gradient   2.2423146479169063E+03
    24 OT DIIS     0.10E+00  263.7     0.00012409      -669.0717222788 -4.82E-04
 SKALA_GPW| Atom-composite cross support/maxima   2.315927033471E+00   4.898914892603E+01   5.229368111079E+02   1.038230006204E+03
 SKALA_GPW| Active atom-composite XC energy  -9.3782858796800397E+01
 SKALA_GPW| Active atom-composite electrons   1.0999995009259024E+02
 SKALA_GPW| Active atom-composite density range  -2.4159516355920749E-09   1.4955015987048967E+02
 SKALA_GPW| Active atom-composite tau range  -3.8451655790487825E-08   4.5680574075518298E+03
 SKALA_GPW| Active atom-composite tau integral   6.6582783201658924E+02
 SKALA_GPW| Active atom-composite max gradient   2.2423060090820813E+03
    25 OT DIIS     0.10E+00  265.3     0.00010740      -669.0720215536 -2.99E-04
 SKALA_GPW| Atom-composite cross support/maxima   2.315927033471E+00   4.898865143572E+01   5.229344112232E+02   1.038210544158E+03
 SKALA_GPW| Active atom-composite XC energy  -9.3782790110549911E+01
 SKALA_GPW| Active atom-composite electrons   1.0999995011072235E+02
 SKALA_GPW| Active atom-composite density range  -2.4158341867780651E-09   1.4954957727787206E+02
 SKALA_GPW| Active atom-composite tau range  -3.8458753777907658E-08   4.5680365846244877E+03
 SKALA_GPW| Active atom-composite tau integral   6.6582567406732221E+02
 SKALA_GPW| Active atom-composite max gradient   2.2422923727028005E+03
    26 OT DIIS     0.10E+00  265.3     0.00009051      -669.0722738306 -2.52E-04
 SKALA_GPW| Atom-composite cross support/maxima   2.315927033471E+00   4.898818593103E+01   5.229357236223E+02   1.038192604493E+03
 SKALA_GPW| Active atom-composite XC energy  -9.3782887326606115E+01
 SKALA_GPW| Active atom-composite electrons   1.0999995013355010E+02
 SKALA_GPW| Active atom-composite density range  -2.4152928184046850E-09   1.4954955487595467E+02
 SKALA_GPW| Active atom-composite tau range  -3.8458266336563067E-08   4.5680325956067818E+03
 SKALA_GPW| Active atom-composite tau integral   6.6582520193731273E+02
 SKALA_GPW| Active atom-composite max gradient   2.2422847983036836E+03
    27 OT DIIS     0.10E+00  264.6     0.00007631      -669.0724856996 -2.12E-04
 SKALA_GPW| Atom-composite cross support/maxima   2.315927033471E+00   4.898807032860E+01   5.229359763177E+02   1.038194684434E+03
 SKALA_GPW| Active atom-composite XC energy  -9.3783047397466873E+01
 SKALA_GPW| Active atom-composite electrons   1.0999995015795446E+02
 SKALA_GPW| Active atom-composite density range  -2.4152620519990387E-09   1.4954990348283596E+02
 SKALA_GPW| Active atom-composite tau range  -3.8457672434436092E-08   4.5680599302709315E+03
 SKALA_GPW| Active atom-composite tau integral   6.6582556177045728E+02
 SKALA_GPW| Active atom-composite max gradient   2.2422888523519832E+03
    28 OT DIIS     0.10E+00  265.5     0.00006412      -669.0726436047 -1.58E-04
 SKALA_GPW| Atom-composite cross support/maxima   2.315927033471E+00   4.898835479751E+01   5.229350801636E+02   1.038209256255E+03
 SKALA_GPW| Active atom-composite XC energy  -9.3783238984881109E+01
 SKALA_GPW| Active atom-composite electrons   1.0999995017718642E+02
 SKALA_GPW| Active atom-composite density range  -2.4154834964866896E-09   1.4954981302113907E+02
 SKALA_GPW| Active atom-composite tau range  -3.8456447618659256E-08   4.5680778741764507E+03
 SKALA_GPW| Active atom-composite tau integral   6.6582639453271599E+02
 SKALA_GPW| Active atom-composite max gradient   2.2422972753412905E+03
    29 OT DIIS     0.10E+00  263.7     0.00005641      -669.0727321605 -8.86E-05
 SKALA_GPW| Atom-composite cross support/maxima   2.315927033471E+00   4.898855959577E+01   5.229317422272E+02   1.038217282766E+03
 SKALA_GPW| Active atom-composite XC energy  -9.3783337146976265E+01
 SKALA_GPW| Active atom-composite electrons   1.0999995019716080E+02
 SKALA_GPW| Active atom-composite density range  -2.4155454352346666E-09   1.4954967014308988E+02
 SKALA_GPW| Active atom-composite tau range  -3.8452310676048738E-08   4.5680793107258141E+03
 SKALA_GPW| Active atom-composite tau integral   6.6582627044002879E+02
 SKALA_GPW| Active atom-composite max gradient   2.2422984775864079E+03
    30 OT DIIS     0.10E+00  264.4     0.00004872      -669.0728080544 -7.59E-05
 SKALA_GPW| Atom-composite cross support/maxima   2.315927033471E+00   4.898848288004E+01   5.229302898010E+02   1.038212340451E+03
 SKALA_GPW| Active atom-composite XC energy  -9.3783363839684355E+01
 SKALA_GPW| Active atom-composite electrons   1.0999995020900975E+02
 SKALA_GPW| Active atom-composite density range  -2.4151956693205551E-09   1.4954952643934365E+02
 SKALA_GPW| Active atom-composite tau range  -3.8446028914821968E-08   4.5680770986225152E+03
 SKALA_GPW| Active atom-composite tau integral   6.6582591399508237E+02
 SKALA_GPW| Active atom-composite max gradient   2.2422948157671412E+03
    31 OT DIIS     0.10E+00  267.1     0.00004387      -669.0728515093 -4.35E-05
 SKALA_GPW| Atom-composite cross support/maxima   2.315927033471E+00   4.898836337868E+01   5.229299411525E+02   1.038207032584E+03
 SKALA_GPW| Active atom-composite XC energy  -9.3783418229635643E+01
 SKALA_GPW| Active atom-composite electrons   1.0999995021663212E+02
 SKALA_GPW| Active atom-composite density range  -2.4147505662035926E-09   1.4954989944119137E+02
 SKALA_GPW| Active atom-composite tau range  -3.8440245608212942E-08   4.5680774408810830E+03
 SKALA_GPW| Active atom-composite tau integral   6.6582596665189851E+02
 SKALA_GPW| Active atom-composite max gradient   2.2422911283340736E+03
    32 OT DIIS     0.10E+00  267.4     0.00003996      -669.0728831130 -3.16E-05
 SKALA_GPW| Atom-composite cross support/maxima   2.315927033471E+00   4.898831547315E+01   5.229303071619E+02   1.038206295344E+03
 SKALA_GPW| Active atom-composite XC energy  -9.3783533373851981E+01
 SKALA_GPW| Active atom-composite electrons   1.0999995022383682E+02
 SKALA_GPW| Active atom-composite density range  -2.4144251863661044E-09   1.4954999842784102E+02
 SKALA_GPW| Active atom-composite tau range  -3.8435740162892341E-08   4.5680890697250015E+03
 SKALA_GPW| Active atom-composite tau integral   6.6582662818942322E+02
 SKALA_GPW| Active atom-composite max gradient   2.2422916127869848E+03
    33 OT DIIS     0.10E+00  267.1     0.00003637      -669.0729120826 -2.90E-05
 SKALA_GPW| Atom-composite cross support/maxima   2.315927033471E+00   4.898843398664E+01   5.229306233600E+02   1.038212396248E+03
 SKALA_GPW| Active atom-composite XC energy  -9.3783650850999237E+01
 SKALA_GPW| Active atom-composite electrons   1.0999995022961129E+02
 SKALA_GPW| Active atom-composite density range  -2.4143228466781982E-09   1.4955013556916481E+02
 SKALA_GPW| Active atom-composite tau range  -3.8434148099056109E-08   4.5680943244437440E+03
 SKALA_GPW| Active atom-composite tau integral   6.6582723774744636E+02
 SKALA_GPW| Active atom-composite max gradient   2.2422941306901125E+03
    34 OT DIIS     0.10E+00  264.2     0.00003287      -669.0729358809 -2.38E-05
 SKALA_GPW| Atom-composite cross support/maxima   2.315927033471E+00   4.898855529350E+01   5.229300891183E+02   1.038218497765E+03
 SKALA_GPW| Active atom-composite XC energy  -9.3783736038613554E+01
 SKALA_GPW| Active atom-composite electrons   1.0999995023649018E+02
 SKALA_GPW| Active atom-composite density range  -2.4142767034332018E-09   1.4955004184367627E+02
 SKALA_GPW| Active atom-composite tau range  -3.8434038438951304E-08   4.5680965505046825E+03
 SKALA_GPW| Active atom-composite tau integral   6.6582744728733337E+02
 SKALA_GPW| Active atom-composite max gradient   2.2422960127157353E+03
    35 OT DIIS     0.10E+00  266.9     0.00002953      -669.0729591513 -2.33E-05
 SKALA_GPW| Atom-composite cross support/maxima   2.315927033471E+00   4.898857777353E+01   5.229297823950E+02   1.038219064145E+03
 SKALA_GPW| Active atom-composite XC energy  -9.3783764593054187E+01
 SKALA_GPW| Active atom-composite electrons   1.0999995024239630E+02
 SKALA_GPW| Active atom-composite density range  -2.4141238283109218E-09   1.4954988940954854E+02
 SKALA_GPW| Active atom-composite tau range  -3.8433598763596922E-08   4.5680889539740601E+03
 SKALA_GPW| Active atom-composite tau integral   6.6582711952956856E+02
 SKALA_GPW| Active atom-composite max gradient   2.2422951306972836E+03
    36 OT DIIS     0.10E+00  265.0     0.00002702      -669.0729770864 -1.79E-05
 SKALA_GPW| Atom-composite cross support/maxima   2.315927033471E+00   4.898846277507E+01   5.229296523827E+02   1.038214363132E+03
 SKALA_GPW| Active atom-composite XC energy  -9.3783798571418330E+01
 SKALA_GPW| Active atom-composite electrons   1.0999995024764915E+02
 SKALA_GPW| Active atom-composite density range  -2.4138649308249129E-09   1.4954990000726326E+02
 SKALA_GPW| Active atom-composite tau range  -3.8432738818412094E-08   4.5680817893683407E+03
 SKALA_GPW| Active atom-composite tau integral   6.6582687573188696E+02
 SKALA_GPW| Active atom-composite max gradient   2.2422922742322330E+03
    37 OT DIIS     0.10E+00  266.9     0.00002480      -669.0729923735 -1.53E-05
 SKALA_GPW| Atom-composite cross support/maxima   2.315927033471E+00   4.898836356269E+01   5.229301601007E+02   1.038210920173E+03
 SKALA_GPW| Active atom-composite XC energy  -9.3783883707670569E+01
 SKALA_GPW| Active atom-composite electrons   1.0999995025255022E+02
 SKALA_GPW| Active atom-composite density range  -2.4136451312182851E-09   1.4954992730718484E+02
 SKALA_GPW| Active atom-composite tau range  -3.8431807764410651E-08   4.5680790938641985E+03
 SKALA_GPW| Active atom-composite tau integral   6.6582712645751667E+02
 SKALA_GPW| Active atom-composite max gradient   2.2422910670083215E+03
    38 OT DIIS     0.10E+00  267.5     0.00002283      -669.0730058653 -1.35E-05
 SKALA_GPW| Atom-composite cross support/maxima   2.315927033471E+00   4.898838349323E+01   5.229304532129E+02   1.038212628864E+03
 SKALA_GPW| Active atom-composite XC energy  -9.3783970657337093E+01
 SKALA_GPW| Active atom-composite electrons   1.0999995025735943E+02
 SKALA_GPW| Active atom-composite density range  -2.4135511535545847E-09   1.4954996513799824E+02
 SKALA_GPW| Active atom-composite tau range  -3.8431660631088833E-08   4.5680786630848570E+03
 SKALA_GPW| Active atom-composite tau integral   6.6582748522455358E+02
 SKALA_GPW| Active atom-composite max gradient   2.2422919910050177E+03
    39 OT DIIS     0.10E+00  266.2     0.00002117      -669.0730170365 -1.12E-05
 SKALA_GPW| Atom-composite cross support/maxima   2.315927033471E+00   4.898845326408E+01   5.229305373286E+02   1.038216157228E+03
 SKALA_GPW| Active atom-composite XC energy  -9.3784018489317504E+01
 SKALA_GPW| Active atom-composite electrons   1.0999995026228967E+02
 SKALA_GPW| Active atom-composite density range  -2.4134673309118527E-09   1.4954977738493554E+02
 SKALA_GPW| Active atom-composite tau range  -3.8431604907935353E-08   4.5680781500840203E+03
 SKALA_GPW| Active atom-composite tau integral   6.6582756462024611E+02
 SKALA_GPW| Active atom-composite max gradient   2.2422937900456814E+03
    40 OT DIIS     0.10E+00  266.9     0.00001960      -669.0730270394 -1.00E-05
 SKALA_GPW| Atom-composite cross support/maxima   2.315927033471E+00   4.898848488379E+01   5.229303706178E+02   1.038217622555E+03
 SKALA_GPW| Active atom-composite XC energy  -9.3784014199864743E+01
 SKALA_GPW| Active atom-composite electrons   1.0999995026577575E+02
 SKALA_GPW| Active atom-composite density range  -2.4133332935984751E-09   1.4954972679121423E+02
 SKALA_GPW| Active atom-composite tau range  -3.8431085212336018E-08   4.5680741717315195E+03
 SKALA_GPW| Active atom-composite tau integral   6.6582731204460856E+02
 SKALA_GPW| Active atom-composite max gradient   2.2422939409156997E+03
    41 OT DIIS     0.10E+00  266.3     0.00001846      -669.0730341722 -7.13E-06
 SKALA_GPW| Atom-composite cross support/maxima   2.315927033471E+00   4.898843536793E+01   5.229301223531E+02   1.038215900783E+03
 SKALA_GPW| Active atom-composite XC energy  -9.3783992522136899E+01
 SKALA_GPW| Active atom-composite electrons   1.0999995026876799E+02
 SKALA_GPW| Active atom-composite density range  -2.4130704322490436E-09   1.4954962685950528E+02
 SKALA_GPW| Active atom-composite tau range  -3.8429387294290891E-08   4.5680717922410722E+03
 SKALA_GPW| Active atom-composite tau integral   6.6582700169052566E+02
 SKALA_GPW| Active atom-composite max gradient   2.2422929604562469E+03
    42 OT DIIS     0.10E+00  265.1     0.00001709      -669.0730419561 -7.78E-06
 SKALA_GPW| Atom-composite cross support/maxima   2.315927033471E+00   4.898836974916E+01   5.229301308372E+02   1.038213362062E+03
 SKALA_GPW| Active atom-composite XC energy  -9.3783993757007948E+01
 SKALA_GPW| Active atom-composite electrons   1.0999995027058802E+02
 SKALA_GPW| Active atom-composite density range  -2.4128005881570694E-09   1.4954964057679706E+02
 SKALA_GPW| Active atom-composite tau range  -3.8426812013904969E-08   4.5680709681420258E+03
 SKALA_GPW| Active atom-composite tau integral   6.6582693961959933E+02
 SKALA_GPW| Active atom-composite max gradient   2.2422917741073097E+03
    43 OT DIIS     0.10E+00  264.0     0.00001573      -669.0730491478 -7.19E-06
 SKALA_GPW| Atom-composite cross support/maxima   2.315927033471E+00   4.898834567329E+01   5.229301262215E+02   1.038212725696E+03
 SKALA_GPW| Active atom-composite XC energy  -9.3784026377868415E+01
 SKALA_GPW| Active atom-composite electrons   1.0999995027165127E+02
 SKALA_GPW| Active atom-composite density range  -2.4126061654341100E-09   1.4954970126127884E+02
 SKALA_GPW| Active atom-composite tau range  -3.8424372809104923E-08   4.5680748919592515E+03
 SKALA_GPW| Active atom-composite tau integral   6.6582720153088030E+02
 SKALA_GPW| Active atom-composite max gradient   2.2422916851690620E+03
    44 OT DIIS     0.10E+00  263.6     0.00001456      -669.0730556013 -6.45E-06
 SKALA_GPW| Atom-composite cross support/maxima   2.315927033471E+00   4.898840080746E+01   5.229301716576E+02   1.038215132551E+03
 SKALA_GPW| Active atom-composite XC energy  -9.3784057856265932E+01
 SKALA_GPW| Active atom-composite electrons   1.0999995027259627E+02
 SKALA_GPW| Active atom-composite density range  -2.4125019795184049E-09   1.4954969931294457E+02
 SKALA_GPW| Active atom-composite tau range  -3.8422324337001371E-08   4.5680790365167977E+03
 SKALA_GPW| Active atom-composite tau integral   6.6582741075317699E+02
 SKALA_GPW| Active atom-composite max gradient   2.2422928997297504E+03
    45 OT DIIS     0.10E+00  264.8     0.00001326      -669.0730619878 -6.39E-06
 SKALA_GPW| Atom-composite cross support/maxima   2.315927033471E+00   4.898845241695E+01   5.229299397276E+02   1.038217487211E+03
 SKALA_GPW| Active atom-composite XC energy  -9.3784057786878577E+01
 SKALA_GPW| Active atom-composite electrons   1.0999995027359412E+02
 SKALA_GPW| Active atom-composite density range  -2.4124541384982876E-09   1.4954967508227176E+02
 SKALA_GPW| Active atom-composite tau range  -3.8421230266116739E-08   4.5680802528859576E+03
 SKALA_GPW| Active atom-composite tau integral   6.6582731656775593E+02
 SKALA_GPW| Active atom-composite max gradient   2.2422937226590675E+03
    46 OT DIIS     0.10E+00  264.0     0.00001209      -669.0730673879 -5.40E-06
 SKALA_GPW| Atom-composite cross support/maxima   2.315927033471E+00   4.898842447857E+01   5.229296730183E+02   1.038216735623E+03
 SKALA_GPW| Active atom-composite XC energy  -9.3784048606426950E+01
 SKALA_GPW| Active atom-composite electrons   1.0999995027442974E+02
 SKALA_GPW| Active atom-composite density range  -2.4124271557161117E-09   1.4954963244886181E+02
 SKALA_GPW| Active atom-composite tau range  -3.8420408707420590E-08   4.5680794889754516E+03
 SKALA_GPW| Active atom-composite tau integral   6.6582713220689618E+02
 SKALA_GPW| Active atom-composite max gradient   2.2422932135654232E+03
    47 OT DIIS     0.10E+00  262.4     0.00001109      -669.0730716455 -4.26E-06
 SKALA_GPW| Atom-composite cross support/maxima   2.315927033471E+00   4.898837346654E+01   5.229294892005E+02   1.038214933067E+03
 SKALA_GPW| Active atom-composite XC energy  -9.3784058363271015E+01
 SKALA_GPW| Active atom-composite electrons   1.0999995027503718E+02
 SKALA_GPW| Active atom-composite density range  -2.4124390677492901E-09   1.4954970714335465E+02
 SKALA_GPW| Active atom-composite tau range  -3.8419781948262294E-08   4.5680787039700735E+03
 SKALA_GPW| Active atom-composite tau integral   6.6582713297983526E+02
 SKALA_GPW| Active atom-composite max gradient   2.2422921879773698E+03
    48 OT DIIS     0.10E+00  262.9     0.00001036      -669.0730746042 -2.96E-06
 SKALA_GPW| Atom-composite cross support/maxima   2.315927033471E+00   4.898834635939E+01   5.229294784600E+02   1.038214007976E+03
 SKALA_GPW| Active atom-composite XC energy  -9.3784081472636871E+01
 SKALA_GPW| Active atom-composite electrons   1.0999995027560766E+02
 SKALA_GPW| Active atom-composite density range  -2.4124770637094291E-09   1.4954971568136799E+02
 SKALA_GPW| Active atom-composite tau range  -3.8419397608522186E-08   4.5680798485594469E+03
 SKALA_GPW| Active atom-composite tau integral   6.6582727001186061E+02
 SKALA_GPW| Active atom-composite max gradient   2.2422918894707136E+03
    49 OT DIIS     0.10E+00  261.1     0.00000986      -669.0730764693 -1.87E-06
 SKALA_GPW| Atom-composite cross support/maxima   2.315927033471E+00   4.898836116800E+01   5.229295661192E+02   1.038214635507E+03
 SKALA_GPW| Active atom-composite XC energy  -9.3784111744672686E+01
 SKALA_GPW| Active atom-composite electrons   1.0999995027661856E+02
 SKALA_GPW| Active atom-composite density range  -2.4125624535110382E-09   1.4954975498143017E+02
 SKALA_GPW| Active atom-composite tau range  -3.8419329719532781E-08   4.5680799860060706E+03
 SKALA_GPW| Active atom-composite tau integral   6.6582741524530979E+02
 SKALA_GPW| Active atom-composite max gradient   2.2422920991791671E+03
    50 OT DIIS     0.10E+00  263.0     0.00000926      -669.0730785478 -2.08E-06
 SKALA_GPW| Atom-composite cross support/maxima   2.315927033471E+00   4.898838980841E+01   5.229295739375E+02   1.038216043965E+03
 SKALA_GPW| Active atom-composite XC energy  -9.3784130969791889E+01
 SKALA_GPW| Active atom-composite electrons   1.0999995027794546E+02
 SKALA_GPW| Active atom-composite density range  -2.4126346593414040E-09   1.4954972844068442E+02
 SKALA_GPW| Active atom-composite tau range  -3.8419728893984991E-08   4.5680792987365885E+03
 SKALA_GPW| Active atom-composite tau integral   6.6582744448709889E+02
 SKALA_GPW| Active atom-composite max gradient   2.2422926504839020E+03
    51 OT DIIS     0.10E+00  262.1     0.00000867      -669.0730805019 -1.95E-06
 SKALA_GPW| Atom-composite cross support/maxima   2.315927033471E+00   4.898839637815E+01   5.229295484717E+02   1.038216678457E+03
 SKALA_GPW| Active atom-composite XC energy  -9.3784134448653248E+01
 SKALA_GPW| Active atom-composite electrons   1.0999995027928252E+02
 SKALA_GPW| Active atom-composite density range  -2.4126590247505218E-09   1.4954967734243365E+02
 SKALA_GPW| Active atom-composite tau range  -3.8420105595829087E-08   4.5680764723325265E+03
 SKALA_GPW| Active atom-composite tau integral   6.6582732293729998E+02
 SKALA_GPW| Active atom-composite max gradient   2.2422927456413568E+03
    52 OT DIIS     0.10E+00  262.1     0.00000814      -669.0730823471 -1.85E-06
 SKALA_GPW| Atom-composite cross support/maxima   2.315927033471E+00   4.898836261930E+01   5.229294566630E+02   1.038215806110E+03
 SKALA_GPW| Active atom-composite XC energy  -9.3784137788769854E+01
 SKALA_GPW| Active atom-composite electrons   1.0999995028042034E+02
 SKALA_GPW| Active atom-composite density range  -2.4126126133679054E-09   1.4954965363149572E+02
 SKALA_GPW| Active atom-composite tau range  -3.8420098900808628E-08   4.5680738929077652E+03
 SKALA_GPW| Active atom-composite tau integral   6.6582723756122448E+02
 SKALA_GPW| Active atom-composite max gradient   2.2422921679862930E+03
    53 OT DIIS     0.10E+00  263.5     0.00000759      -669.0730841458 -1.80E-06
 SKALA_GPW| Atom-composite cross support/maxima   2.315927033471E+00   4.898832996572E+01   5.229295353522E+02   1.038214658747E+03
 SKALA_GPW| Active atom-composite XC energy  -9.3784148088262242E+01
 SKALA_GPW| Active atom-composite electrons   1.0999995028102963E+02
 SKALA_GPW| Active atom-composite density range  -2.4125170766973326E-09   1.4954964919013906E+02
 SKALA_GPW| Active atom-composite tau range  -3.8419392260979057E-08   4.5680731061102242E+03
 SKALA_GPW| Active atom-composite tau integral   6.6582726971604563E+02
 SKALA_GPW| Active atom-composite max gradient   2.2422915942840068E+03
    54 OT DIIS     0.10E+00  263.7     0.00000712      -669.0730856144 -1.47E-06
 SKALA_GPW| Atom-composite cross support/maxima   2.315927033471E+00   4.898833689505E+01   5.229297295591E+02   1.038214846245E+03
 SKALA_GPW| Active atom-composite XC energy  -9.3784160123457795E+01
 SKALA_GPW| Active atom-composite electrons   1.0999995028118560E+02
 SKALA_GPW| Active atom-composite density range  -2.4124073834509072E-09   1.4954966246767830E+02
 SKALA_GPW| Active atom-composite tau range  -3.8418531355203419E-08   4.5680732862237192E+03
 SKALA_GPW| Active atom-composite tau integral   6.6582734656367586E+02
 SKALA_GPW| Active atom-composite max gradient   2.2422916601182433E+03
    55 OT DIIS     0.10E+00  265.4     0.00000674      -669.0730868588 -1.24E-06
 SKALA_GPW| Atom-composite cross support/maxima   2.315927033471E+00   4.898835582205E+01   5.229298889753E+02   1.038215617086E+03
 SKALA_GPW| Active atom-composite XC energy  -9.3784164898539871E+01
 SKALA_GPW| Active atom-composite electrons   1.0999995028108596E+02
 SKALA_GPW| Active atom-composite density range  -2.4123188607772074E-09   1.4954962739965563E+02
 SKALA_GPW| Active atom-composite tau range  -3.8417930988292841E-08   4.5680734438445725E+03
 SKALA_GPW| Active atom-composite tau integral   6.6582735994489690E+02
 SKALA_GPW| Active atom-composite max gradient   2.2422921113511734E+03
    56 OT DIIS     0.10E+00  262.6     0.00000646      -669.0730877644 -9.06E-07
 SKALA_GPW| Atom-composite cross support/maxima   2.315927033471E+00   4.898836847888E+01   5.229299575556E+02   1.038216224274E+03
 SKALA_GPW| Active atom-composite XC energy  -9.3784162315027814E+01
 SKALA_GPW| Active atom-composite electrons   1.0999995028080885E+02
 SKALA_GPW| Active atom-composite density range  -2.4122397130036819E-09   1.4954962052742619E+02
 SKALA_GPW| Active atom-composite tau range  -3.8417497998131001E-08   4.5680726201625039E+03
 SKALA_GPW| Active atom-composite tau integral   6.6582731150560096E+02
 SKALA_GPW| Active atom-composite max gradient   2.2422923884191373E+03
    57 OT DIIS     0.10E+00  266.9     0.00000621      -669.0730885595 -7.95E-07
 SKALA_GPW| Atom-composite cross support/maxima   2.315927033471E+00   4.898835671429E+01   5.229299649719E+02   1.038216027031E+03
 SKALA_GPW| Active atom-composite XC energy  -9.3784158759756536E+01
 SKALA_GPW| Active atom-composite electrons   1.0999995028034127E+02
 SKALA_GPW| Active atom-composite density range  -2.4121446493109058E-09   1.4954959665305239E+02
 SKALA_GPW| Active atom-composite tau range  -3.8416851825997170E-08   4.5680723798372092E+03
 SKALA_GPW| Active atom-composite tau integral   6.6582726902052707E+02
 SKALA_GPW| Active atom-composite max gradient   2.2422924155298379E+03
    58 OT DIIS     0.10E+00  266.2     0.00000588      -669.0730895173 -9.58E-07
 SKALA_GPW| Atom-composite cross support/maxima   2.315927033471E+00   4.898833299869E+01   5.229300255973E+02   1.038215162912E+03
 SKALA_GPW| Active atom-composite XC energy  -9.3784154629079126E+01
 SKALA_GPW| Active atom-composite electrons   1.0999995027974893E+02
 SKALA_GPW| Active atom-composite density range  -2.4120577098192052E-09   1.4954961043728281E+02
 SKALA_GPW| Active atom-composite tau range  -3.8415890056736804E-08   4.5680724701811696E+03
 SKALA_GPW| Active atom-composite tau integral   6.6582725060305052E+02
 SKALA_GPW| Active atom-composite max gradient   2.2422920821337320E+03
    59 OT DIIS     0.10E+00  264.4     0.00000554      -669.0730904897 -9.72E-07
 SKALA_GPW| Atom-composite cross support/maxima   2.315927033471E+00   4.898832280432E+01   5.229301344772E+02   1.038214662814E+03
 SKALA_GPW| Active atom-composite XC energy  -9.3784156861011766E+01
 SKALA_GPW| Active atom-composite electrons   1.0999995027929829E+02
 SKALA_GPW| Active atom-composite density range  -2.4120088920573996E-09   1.4954963682219318E+02
 SKALA_GPW| Active atom-composite tau range  -3.8414999295693193E-08   4.5680735690335878E+03
 SKALA_GPW| Active atom-composite tau integral   6.6582730592022585E+02
 SKALA_GPW| Active atom-composite max gradient   2.2422919518527915E+03
    60 OT DIIS     0.10E+00  264.5     0.00000523      -669.0730913845 -8.95E-07
 SKALA_GPW| Atom-composite cross support/maxima   2.315927033471E+00   4.898833631744E+01   5.229303047264E+02   1.038215015424E+03
 SKALA_GPW| Active atom-composite XC energy  -9.3784160117183816E+01
 SKALA_GPW| Active atom-composite electrons   1.0999995027901684E+02
 SKALA_GPW| Active atom-composite density range  -2.4120108107287220E-09   1.4954964771752432E+02
 SKALA_GPW| Active atom-composite tau range  -3.8414364813148651E-08   4.5680743165629483E+03
 SKALA_GPW| Active atom-composite tau integral   6.6582735053884539E+02
 SKALA_GPW| Active atom-composite max gradient   2.2422922478437567E+03
    61 OT DIIS     0.10E+00  265.8     0.00000491      -669.0730922412 -8.57E-07
 SKALA_GPW| Atom-composite cross support/maxima   2.315927033471E+00   4.898835207867E+01   5.229303367779E+02   1.038215731033E+03
 SKALA_GPW| Active atom-composite XC energy  -9.3784162830977877E+01
 SKALA_GPW| Active atom-composite electrons   1.0999995027899777E+02
 SKALA_GPW| Active atom-composite density range  -2.4120566809454345E-09   1.4954964640831642E+02
 SKALA_GPW| Active atom-composite tau range  -3.8414320456330125E-08   4.5680741398744149E+03
 SKALA_GPW| Active atom-composite tau integral   6.6582735457275953E+02
 SKALA_GPW| Active atom-composite max gradient   2.2422926971596430E+03
    62 OT DIIS     0.10E+00  266.7     0.00000461      -669.0730929675 -7.26E-07
 SKALA_GPW| Atom-composite cross support/maxima   2.315927033471E+00   4.898834434852E+01   5.229302515554E+02   1.038215745805E+03
 SKALA_GPW| Active atom-composite XC energy  -9.3784162434118613E+01
 SKALA_GPW| Active atom-composite electrons   1.0999995027921220E+02
 SKALA_GPW| Active atom-composite density range  -2.4121171472093454E-09   1.4954963181621602E+02
 SKALA_GPW| Active atom-composite tau range  -3.8414509447244973E-08   4.5680735383253750E+03
 SKALA_GPW| Active atom-composite tau integral   6.6582731702851959E+02
 SKALA_GPW| Active atom-composite max gradient   2.2422927542128382E+03
    63 OT DIIS     0.10E+00  265.1     0.00000432      -669.0730936784 -7.11E-07
 SKALA_GPW| Atom-composite cross support/maxima   2.315927033471E+00   4.898832832668E+01   5.229301848349E+02   1.038215296002E+03
 SKALA_GPW| Active atom-composite XC energy  -9.3784161800235367E+01
 SKALA_GPW| Active atom-composite electrons   1.0999995027952505E+02
 SKALA_GPW| Active atom-composite density range  -2.4121539095870409E-09   1.4954964837891580E+02
 SKALA_GPW| Active atom-composite tau range  -3.8414580917481196E-08   4.5680730681023733E+03
 SKALA_GPW| Active atom-composite tau integral   6.6582729780716375E+02
 SKALA_GPW| Active atom-composite max gradient   2.2422924209066050E+03
    64 OT DIIS     0.10E+00  266.6     0.00000409      -669.0730942059 -5.27E-07
 SKALA_GPW| Atom-composite cross support/maxima   2.315927033471E+00   4.898831418539E+01   5.229301834713E+02   1.038214809436E+03
 SKALA_GPW| Active atom-composite XC energy  -9.3784163873734968E+01
 SKALA_GPW| Active atom-composite electrons   1.0999995027993917E+02
 SKALA_GPW| Active atom-composite density range  -2.4121807255221975E-09   1.4954964464610933E+02
 SKALA_GPW| Active atom-composite tau range  -3.8414546561246729E-08   4.5680733009479618E+03
 SKALA_GPW| Active atom-composite tau integral   6.6582731286764442E+02
 SKALA_GPW| Active atom-composite max gradient   2.2422920985329661E+03
    65 OT DIIS     0.10E+00  266.5     0.00000385      -669.0730946625 -4.57E-07
 SKALA_GPW| Atom-composite cross support/maxima   2.315927033471E+00   4.898831719982E+01   5.229302468395E+02   1.038214877405E+03
 SKALA_GPW| Active atom-composite XC energy  -9.3784167795520588E+01
 SKALA_GPW| Active atom-composite electrons   1.0999995028037414E+02
 SKALA_GPW| Active atom-composite density range  -2.4121945296446600E-09   1.4954965327793110E+02
 SKALA_GPW| Active atom-composite tau range  -3.8414504619234439E-08   4.5680729960263334E+03
 SKALA_GPW| Active atom-composite tau integral   6.6582733063017736E+02
 SKALA_GPW| Active atom-composite max gradient   2.2422919823411826E+03
    66 OT DIIS     0.10E+00  266.8     0.00000359      -669.0730951493 -4.87E-07
 SKALA_GPW| Atom-composite cross support/maxima   2.315927033471E+00   4.898832845926E+01   5.229302626528E+02   1.038215410263E+03
 SKALA_GPW| Active atom-composite XC energy  -9.3784174818032412E+01
 SKALA_GPW| Active atom-composite electrons   1.0999995028076351E+02
 SKALA_GPW| Active atom-composite density range  -2.4121980164495757E-09   1.4954963890241055E+02
 SKALA_GPW| Active atom-composite tau range  -3.8414619279239953E-08   4.5680726576324541E+03
 SKALA_GPW| Active atom-composite tau integral   6.6582735367445287E+02
 SKALA_GPW| Active atom-composite max gradient   2.2422922129772082E+03
    67 OT DIIS     0.10E+00  265.7     0.00000335      -669.0730955345 -3.85E-07
 SKALA_GPW| Atom-composite cross support/maxima   2.315927033471E+00   4.898833162036E+01   5.229302340113E+02   1.038215743093E+03
 SKALA_GPW| Active atom-composite XC energy  -9.3784177863803095E+01
 SKALA_GPW| Active atom-composite electrons   1.0999995028094989E+02
 SKALA_GPW| Active atom-composite density range  -2.4121838833020349E-09   1.4954962159319328E+02
 SKALA_GPW| Active atom-composite tau range  -3.8414700228191894E-08   4.5680719106063070E+03
 SKALA_GPW| Active atom-composite tau integral   6.6582733201432291E+02
 SKALA_GPW| Active atom-composite max gradient   2.2422923480789391E+03
    68 OT DIIS     0.10E+00  266.5     0.00000316      -669.0730958253 -2.91E-07
 SKALA_GPW| Atom-composite cross support/maxima   2.315927033471E+00   4.898832139449E+01   5.229301734409E+02   1.038215625918E+03
 SKALA_GPW| Active atom-composite XC energy  -9.3784179487191949E+01
 SKALA_GPW| Active atom-composite electrons   1.0999995028099633E+02
 SKALA_GPW| Active atom-composite density range  -2.4121434142936249E-09   1.4954961433399501E+02
 SKALA_GPW| Active atom-composite tau range  -3.8414623878315203E-08   4.5680713980997398E+03
 SKALA_GPW| Active atom-composite tau integral   6.6582730832570940E+02
 SKALA_GPW| Active atom-composite max gradient   2.2422922151567341E+03
    69 OT DIIS     0.10E+00  266.1     0.00000297      -669.0730961068 -2.81E-07
 SKALA_GPW| Atom-composite cross support/maxima   2.315927033471E+00   4.898830830223E+01   5.229302122548E+02   1.038215213277E+03
 SKALA_GPW| Active atom-composite XC energy  -9.3784179566104243E+01
 SKALA_GPW| Active atom-composite electrons   1.0999995028088757E+02
 SKALA_GPW| Active atom-composite density range  -2.4120830583840867E-09   1.4954961379524951E+02
 SKALA_GPW| Active atom-composite tau range  -3.8414217903630486E-08   4.5680712589034129E+03
 SKALA_GPW| Active atom-composite tau integral   6.6582729709908324E+02
 SKALA_GPW| Active atom-composite max gradient   2.2422919075273089E+03
    70 OT DIIS     0.10E+00  266.6     0.00000278      -669.0730963573 -2.50E-07
 SKALA_GPW| Atom-composite cross support/maxima   2.315927033471E+00   4.898830774400E+01   5.229303291487E+02   1.038215109747E+03
 SKALA_GPW| Active atom-composite XC energy  -9.3784181827562747E+01
 SKALA_GPW| Active atom-composite electrons   1.0999995028065105E+02
 SKALA_GPW| Active atom-composite density range  -2.4120228077764848E-09   1.4954962244760173E+02
 SKALA_GPW| Active atom-composite tau range  -3.8413697901730327E-08   4.5680712751499195E+03
 SKALA_GPW| Active atom-composite tau integral   6.6582731780669349E+02
 SKALA_GPW| Active atom-composite max gradient   2.2422918380219494E+03
    71 OT DIIS     0.10E+00  267.8     0.00000261      -669.0730965776 -2.20E-07
 SKALA_GPW| Atom-composite cross support/maxima   2.315927033471E+00   4.898831370115E+01   5.229304157686E+02   1.038215302070E+03
 SKALA_GPW| Active atom-composite XC energy  -9.3784184540479657E+01
 SKALA_GPW| Active atom-composite electrons   1.0999995028039878E+02
 SKALA_GPW| Active atom-composite density range  -2.4119887730563730E-09   1.4954961412715116E+02
 SKALA_GPW| Active atom-composite tau range  -3.8413360840912582E-08   4.5680713129903543E+03
 SKALA_GPW| Active atom-composite tau integral   6.6582733435358739E+02
 SKALA_GPW| Active atom-composite max gradient   2.2422920683749699E+03
    72 OT DIIS     0.10E+00  265.6     0.00000249      -669.0730967209 -1.43E-07
 SKALA_GPW| Atom-composite cross support/maxima   2.315927033471E+00   4.898831958742E+01   5.229304568910E+02   1.038215552151E+03
 SKALA_GPW| Active atom-composite XC energy  -9.3784185943968808E+01
 SKALA_GPW| Active atom-composite electrons   1.0999995028011180E+02
 SKALA_GPW| Active atom-composite density range  -2.4119677736720401E-09   1.4954961847450056E+02
 SKALA_GPW| Active atom-composite tau range  -3.8413150262286746E-08   4.5680710074523950E+03
 SKALA_GPW| Active atom-composite tau integral   6.6582733330210601E+02
 SKALA_GPW| Active atom-composite max gradient   2.2422923132993124E+03
    73 OT DIIS     0.10E+00  265.9     0.00000237      -669.0730968548 -1.34E-07
 SKALA_GPW| Atom-composite cross support/maxima   2.315927033471E+00   4.898831714765E+01   5.229304634416E+02   1.038215559925E+03
 SKALA_GPW| Active atom-composite XC energy  -9.3784185864409807E+01
 SKALA_GPW| Active atom-composite electrons   1.0999995027984491E+02
 SKALA_GPW| Active atom-composite density range  -2.4119578675080248E-09   1.4954961444201734E+02
 SKALA_GPW| Active atom-composite tau range  -3.8413003330313890E-08   4.5680709842456017E+03
 SKALA_GPW| Active atom-composite tau integral   6.6582732583626296E+02
 SKALA_GPW| Active atom-composite max gradient   2.2422924268088841E+03
    74 OT DIIS     0.10E+00  267.2     0.00000226      -669.0730969832 -1.28E-07
 SKALA_GPW| Atom-composite cross support/maxima   2.315927033471E+00   4.898831033690E+01   5.229304971023E+02   1.038215338039E+03
 SKALA_GPW| Active atom-composite XC energy  -9.3784183516419574E+01
 SKALA_GPW| Active atom-composite electrons   1.0999995027960480E+02
 SKALA_GPW| Active atom-composite density range  -2.4119542065062816E-09   1.4954962023923096E+02
 SKALA_GPW| Active atom-composite tau range  -3.8412845682287840E-08   4.5680708940260402E+03
 SKALA_GPW| Active atom-composite tau integral   6.6582731173869956E+02
 SKALA_GPW| Active atom-composite max gradient   2.2422923127917816E+03
    75 OT DIIS     0.10E+00  267.4     0.00000217      -669.0730970914 -1.08E-07
 SKALA_GPW| Atom-composite cross support/maxima   2.315927033471E+00   4.898830616134E+01   5.229305535928E+02   1.038215133390E+03
 SKALA_GPW| Active atom-composite XC energy  -9.3784182433428526E+01
 SKALA_GPW| Active atom-composite electrons   1.0999995027946142E+02
 SKALA_GPW| Active atom-composite density range  -2.4119572285457121E-09   1.4954962769027622E+02
 SKALA_GPW| Active atom-composite tau range  -3.8412731035214242E-08   4.5680710433324030E+03
 SKALA_GPW| Active atom-composite tau integral   6.6582732129522196E+02
 SKALA_GPW| Active atom-composite max gradient   2.2422922078959700E+03
    76 OT DIIS     0.10E+00  266.1     0.00000208      -669.0730971938 -1.02E-07
 SKALA_GPW| Atom-composite cross support/maxima   2.315927033471E+00   4.898830859325E+01   5.229306345204E+02   1.038215124576E+03
 SKALA_GPW| Active atom-composite XC energy  -9.3784181911815722E+01
 SKALA_GPW| Active atom-composite electrons   1.0999995027936343E+02
 SKALA_GPW| Active atom-composite density range  -2.4119698030571489E-09   1.4954963027899450E+02
 SKALA_GPW| Active atom-composite tau range  -3.8412695842439501E-08   4.5680710920478105E+03
 SKALA_GPW| Active atom-composite tau integral   6.6582733490641067E+02
 SKALA_GPW| Active atom-composite max gradient   2.2422922580841209E+03
    77 OT DIIS     0.10E+00  265.2     0.00000198      -669.0730972998 -1.06E-07
 SKALA_GPW| Atom-composite cross support/maxima   2.315927033471E+00   4.898831441281E+01   5.229306579886E+02   1.038215331640E+03
 SKALA_GPW| Active atom-composite XC energy  -9.3784182212641497E+01
 SKALA_GPW| Active atom-composite electrons   1.0999995027933072E+02
 SKALA_GPW| Active atom-composite density range  -2.4119898368381623E-09   1.4954963019524257E+02
 SKALA_GPW| Active atom-composite tau range  -3.8412835374958601E-08   4.5680710387806248E+03
 SKALA_GPW| Active atom-composite tau integral   6.6582734418055918E+02
 SKALA_GPW| Active atom-composite max gradient   2.2422924613903242E+03
    78 OT DIIS     0.10E+00  264.1     0.00000188      -669.0730974069 -1.07E-07
 SKALA_GPW| Atom-composite cross support/maxima   2.315927033471E+00   4.898831449503E+01   5.229306328615E+02   1.038215442876E+03
 SKALA_GPW| Active atom-composite XC energy  -9.3784181052456958E+01
 SKALA_GPW| Active atom-composite electrons   1.0999995027937591E+02
 SKALA_GPW| Active atom-composite density range  -2.4120085210500064E-09   1.4954962426796675E+02
 SKALA_GPW| Active atom-composite tau range  -3.8413041467679988E-08   4.5680709183271802E+03
 SKALA_GPW| Active atom-composite tau integral   6.6582733282326797E+02
 SKALA_GPW| Active atom-composite max gradient   2.2422925317729228E+03
    79 OT DIIS     0.10E+00  261.8     0.00000178      -669.0730975180 -1.11E-07
 SKALA_GPW| Atom-composite cross support/maxima   2.315927033471E+00   4.898831007050E+01   5.229306156413E+02   1.038215363320E+03
 SKALA_GPW| Active atom-composite XC energy  -9.3784179515643274E+01
 SKALA_GPW| Active atom-composite electrons   1.0999995027944753E+02
 SKALA_GPW| Active atom-composite density range  -2.4120149673836544E-09   1.4954962835713511E+02
 SKALA_GPW| Active atom-composite tau range  -3.8413149641540576E-08   4.5680707766432206E+03
 SKALA_GPW| Active atom-composite tau integral   6.6582732294287030E+02
 SKALA_GPW| Active atom-composite max gradient   2.2422923842252203E+03
    80 OT DIIS     0.10E+00  262.0     0.00000171      -669.0730975912 -7.31E-08
 SKALA_GPW| Atom-composite cross support/maxima   2.315927033471E+00   4.898830500945E+01   5.229306237867E+02   1.038215221050E+03
 SKALA_GPW| Active atom-composite XC energy  -9.3784178648936873E+01
 SKALA_GPW| Active atom-composite electrons   1.0999995027953589E+02
 SKALA_GPW| Active atom-composite density range  -2.4120143514335945E-09   1.4954962512638380E+02
 SKALA_GPW| Active atom-composite tau range  -3.8413172845125737E-08   4.5680708273759201E+03
 SKALA_GPW| Active atom-composite tau integral   6.6582732290457432E+02
 SKALA_GPW| Active atom-composite max gradient   2.2422922204173278E+03
    81 OT DIIS     0.10E+00  262.5     0.00000165      -669.0730976611 -6.99E-08
 SKALA_GPW| Atom-composite cross support/maxima   2.315927033471E+00   4.898830419913E+01   5.229306526308E+02   1.038215174243E+03
 SKALA_GPW| Active atom-composite XC energy  -9.3784178584263969E+01
 SKALA_GPW| Active atom-composite electrons   1.0999995027962902E+02
 SKALA_GPW| Active atom-composite density range  -2.4120073081786679E-09   1.4954962870236372E+02
 SKALA_GPW| Active atom-composite tau range  -3.8413135835555341E-08   4.5680707199918334E+03
 SKALA_GPW| Active atom-composite tau integral   6.6582732777871172E+02
 SKALA_GPW| Active atom-composite max gradient   2.2422921310842348E+03
    82 OT DIIS     0.10E+00  265.1     0.00000158      -669.0730976973 -3.62E-08
 SKALA_GPW| Atom-composite cross support/maxima   2.315927033471E+00   4.898830700377E+01   5.229306628183E+02   1.038215278621E+03
 SKALA_GPW| Active atom-composite XC energy  -9.3784179952241743E+01
 SKALA_GPW| Active atom-composite electrons   1.0999995027970942E+02
 SKALA_GPW| Active atom-composite density range  -2.4119969981534589E-09   1.4954962694557184E+02
 SKALA_GPW| Active atom-composite tau range  -3.8413075267053489E-08   4.5680706968148406E+03
 SKALA_GPW| Active atom-composite tau integral   6.6582733702862538E+02
 SKALA_GPW| Active atom-composite max gradient   2.2422922267045656E+03
    83 OT DIIS     0.10E+00  265.3     0.00000151      -669.0730977846 -8.73E-08
 SKALA_GPW| Atom-composite cross support/maxima   2.315927033471E+00   4.898830982867E+01   5.229306526454E+02   1.038215440339E+03
 SKALA_GPW| Active atom-composite XC energy  -9.3784180902624826E+01
 SKALA_GPW| Active atom-composite electrons   1.0999995027975902E+02
 SKALA_GPW| Active atom-composite density range  -2.4119828424184462E-09   1.4954962356390337E+02
 SKALA_GPW| Active atom-composite tau range  -3.8412971165134998E-08   4.5680704918862084E+03
 SKALA_GPW| Active atom-composite tau integral   6.6582733061746012E+02
 SKALA_GPW| Active atom-composite max gradient   2.2422923552449665E+03
    84 OT DIIS     0.10E+00  265.4     0.00000142      -669.0730978497 -6.51E-08
 SKALA_GPW| Atom-composite cross support/maxima   2.315927033471E+00   4.898830759573E+01   5.229306275511E+02   1.038215476172E+03
 SKALA_GPW| Active atom-composite XC energy  -9.3784181781692894E+01
 SKALA_GPW| Active atom-composite electrons   1.0999995027975085E+02
 SKALA_GPW| Active atom-composite density range  -2.4119643092540622E-09   1.4954962350202757E+02
 SKALA_GPW| Active atom-composite tau range  -3.8412797043708924E-08   4.5680703218075187E+03
 SKALA_GPW| Active atom-composite tau integral   6.6582732198933331E+02
 SKALA_GPW| Active atom-composite max gradient   2.2422923532404457E+03
    85 OT DIIS     0.10E+00  263.2     0.00000134      -669.0730979189 -6.92E-08
 SKALA_GPW| Atom-composite cross support/maxima   2.315927033471E+00   4.898830191467E+01   5.229306427676E+02   1.038215336673E+03
 SKALA_GPW| Active atom-composite XC energy  -9.3784182230500775E+01
 SKALA_GPW| Active atom-composite electrons   1.0999995027968490E+02
 SKALA_GPW| Active atom-composite density range  -2.4119458284790200E-09   1.4954962471346957E+02
 SKALA_GPW| Active atom-composite tau range  -3.8412550146057428E-08   4.5680701979284995E+03
 SKALA_GPW| Active atom-composite tau integral   6.6582731632966193E+02
 SKALA_GPW| Active atom-composite max gradient   2.2422922135779095E+03
    86 OT DIIS     0.10E+00  264.8     0.00000126      -669.0730979538 -3.49E-08
 SKALA_GPW| Atom-composite cross support/maxima   2.315927033471E+00   4.898829943894E+01   5.229306906101E+02   1.038215222307E+03
 SKALA_GPW| Active atom-composite XC energy  -9.3784183577874430E+01
 SKALA_GPW| Active atom-composite electrons   1.0999995027959402E+02
 SKALA_GPW| Active atom-composite density range  -2.4119296506847412E-09   1.4954963030628292E+02
 SKALA_GPW| Active atom-composite tau range  -3.8412295877697312E-08   4.5680701339810785E+03
 SKALA_GPW| Active atom-composite tau integral   6.6582732421408139E+02
 SKALA_GPW| Active atom-composite max gradient   2.2422921615147752E+03
    87 OT DIIS     0.10E+00  263.1     0.00000119      -669.0730979989 -4.51E-08
 SKALA_GPW| Atom-composite cross support/maxima   2.315927033471E+00   4.898830142972E+01   5.229307283664E+02   1.038215253240E+03
 SKALA_GPW| Active atom-composite XC energy  -9.3784184986952596E+01
 SKALA_GPW| Active atom-composite electrons   1.0999995027948637E+02
 SKALA_GPW| Active atom-composite density range  -2.4119217558287528E-09   1.4954962843760521E+02
 SKALA_GPW| Active atom-composite tau range  -3.8412153269836704E-08   4.5680701398382689E+03
 SKALA_GPW| Active atom-composite tau integral   6.6582733161102180E+02
 SKALA_GPW| Active atom-composite max gradient   2.2422922820712006E+03
    88 OT DIIS     0.10E+00  264.0     0.00000113      -669.0730980473 -4.84E-08
 SKALA_GPW| Atom-composite cross support/maxima   2.315927033471E+00   4.898830421852E+01   5.229307453415E+02   1.038215335038E+03
 SKALA_GPW| Active atom-composite XC energy  -9.3784185817116565E+01
 SKALA_GPW| Active atom-composite electrons   1.0999995027937749E+02
 SKALA_GPW| Active atom-composite density range  -2.4119186235063501E-09   1.4954963133047193E+02
 SKALA_GPW| Active atom-composite tau range  -3.8412098314201642E-08   4.5680700282960061E+03
 SKALA_GPW| Active atom-composite tau integral   6.6582733290557007E+02
 SKALA_GPW| Active atom-composite max gradient   2.2422924041972742E+03
    89 OT DIIS     0.10E+00  263.9     0.00000109      -669.0730980903 -4.30E-08
 SKALA_GPW| Atom-composite cross support/maxima   2.315927033471E+00   4.898830455815E+01   5.229307492467E+02   1.038215381200E+03
 SKALA_GPW| Active atom-composite XC energy  -9.3784186266392410E+01
 SKALA_GPW| Active atom-composite electrons   1.0999995027925087E+02
 SKALA_GPW| Active atom-composite density range  -2.4119191832210005E-09   1.4954962854482889E+02
 SKALA_GPW| Active atom-composite tau range  -3.8412101227647366E-08   4.5680700149366739E+03
 SKALA_GPW| Active atom-composite tau integral   6.6582733177990190E+02
 SKALA_GPW| Active atom-composite max gradient   2.2422924809460296E+03
    90 OT DIIS     0.10E+00  263.5     0.00000103      -669.0730981352 -4.49E-08
 SKALA_GPW| Atom-composite cross support/maxima   2.315927033471E+00   4.898830181918E+01   5.229307642751E+02   1.038215321935E+03
 SKALA_GPW| Active atom-composite XC energy  -9.3784185721034078E+01
 SKALA_GPW| Active atom-composite electrons   1.0999995027913764E+02
 SKALA_GPW| Active atom-composite density range  -2.4119213411415476E-09   1.4954962946302518E+02
 SKALA_GPW| Active atom-composite tau range  -3.8412136004073875E-08   4.5680699381271224E+03
 SKALA_GPW| Active atom-composite tau integral   6.6582732717816009E+02
 SKALA_GPW| Active atom-composite max gradient   2.2422924112357096E+03
    91 OT DIIS     0.10E+00  263.8     0.00000098      -669.0730981555 -2.03E-08
 SKALA_GPW| Atom-composite cross support/maxima   2.315927033471E+00   4.898829819068E+01   5.229307956904E+02   1.038215205333E+03
 SKALA_GPW| Active atom-composite XC energy  -9.3784185211539736E+01
 SKALA_GPW| Active atom-composite electrons   1.0999995027904245E+02
 SKALA_GPW| Active atom-composite density range  -2.4119247172484859E-09   1.4954963176878974E+02
 SKALA_GPW| Active atom-composite tau range  -3.8412207871082505E-08   4.5680699799827726E+03
 SKALA_GPW| Active atom-composite tau integral   6.6582733173441795E+02
 SKALA_GPW| Active atom-composite max gradient   2.2422923086563301E+03
    92 OT DIIS     0.10E+00  261.8     0.00000093      -669.0730981564 -9.08E-10
 SKALA_GPW| Atom-composite cross support/maxima   2.315927033471E+00   4.898829801195E+01   5.229308362152E+02   1.038215167271E+03
 SKALA_GPW| Active atom-composite XC energy  -9.3784184577235038E+01
 SKALA_GPW| Active atom-composite electrons   1.0999995027898950E+02
 SKALA_GPW| Active atom-composite density range  -2.4119281226569999E-09   1.4954963220933561E+02
 SKALA_GPW| Active atom-composite tau range  -3.8412299373455966E-08   4.5680699888019253E+03
 SKALA_GPW| Active atom-composite tau integral   6.6582733609906677E+02
 SKALA_GPW| Active atom-composite max gradient   2.2422923029334606E+03
    93 OT DIIS     0.10E+00  262.2     0.00000088      -669.0730981959 -3.95E-08
 SKALA_GPW| Atom-composite cross support/maxima   2.315927033471E+00   4.898830071575E+01   5.229308516720E+02   1.038215240550E+03
 SKALA_GPW| Active atom-composite XC energy  -9.3784184115829163E+01
 SKALA_GPW| Active atom-composite electrons   1.0999995027896610E+02
 SKALA_GPW| Active atom-composite density range  -2.4119309195236568E-09   1.4954963214960307E+02
 SKALA_GPW| Active atom-composite tau range  -3.8412408930525644E-08   4.5680699847358946E+03
 SKALA_GPW| Active atom-composite tau integral   6.6582733995231820E+02
 SKALA_GPW| Active atom-composite max gradient   2.2422923894626065E+03
    94 OT DIIS     0.10E+00  265.2     0.00000084      -669.0730982150 -1.91E-08
 SKALA_GPW| Atom-composite cross support/maxima   2.315927033471E+00   4.898830205426E+01   5.229308468900E+02   1.038215319022E+03
 SKALA_GPW| Active atom-composite XC energy  -9.3784183261841974E+01
 SKALA_GPW| Active atom-composite electrons   1.0999995027898753E+02
 SKALA_GPW| Active atom-composite density range  -2.4119326911653934E-09   1.4954962943085553E+02
 SKALA_GPW| Active atom-composite tau range  -3.8412506504568066E-08   4.5680699429866645E+03
 SKALA_GPW| Active atom-composite tau integral   6.6582733717636393E+02
 SKALA_GPW| Active atom-composite max gradient   2.2422924327523820E+03
    95 OT DIIS     0.10E+00  265.9     0.00000080      -669.0730982377 -2.27E-08
 SKALA_GPW| Atom-composite cross support/maxima   2.315927033471E+00   4.898830045810E+01   5.229308396054E+02   1.038215313028E+03
 SKALA_GPW| Active atom-composite XC energy  -9.3784182363740655E+01
 SKALA_GPW| Active atom-composite electrons   1.0999995027902791E+02
 SKALA_GPW| Active atom-composite density range  -2.4119322810849406E-09   1.4954963119406793E+02
 SKALA_GPW| Active atom-composite tau range  -3.8412544776466753E-08   4.5680698780255461E+03
 SKALA_GPW| Active atom-composite tau integral   6.6582733331549377E+02
 SKALA_GPW| Active atom-composite max gradient   2.2422923678334091E+03
    96 OT DIIS     0.10E+00  266.6     0.00000076      -669.0730982451 -7.39E-09
 SKALA_GPW| Atom-composite cross support/maxima   2.315927033471E+00   4.898829828037E+01   5.229308418758E+02   1.038215270778E+03
 SKALA_GPW| Active atom-composite XC energy  -9.3784181838211438E+01
 SKALA_GPW| Active atom-composite electrons   1.0999995027905844E+02
 SKALA_GPW| Active atom-composite density range  -2.4119304161483453E-09   1.4954963011494533E+02
 SKALA_GPW| Active atom-composite tau range  -3.8412532083147167E-08   4.5680698931052375E+03
 SKALA_GPW| Active atom-composite tau integral   6.6582733221825163E+02
 SKALA_GPW| Active atom-composite max gradient   2.2422923033255638E+03
    97 OT DIIS     0.10E+00  266.4     0.00000074      -669.0730982664 -2.13E-08
 SKALA_GPW| Atom-composite cross support/maxima   2.315927033471E+00   4.898829738115E+01   5.229308530879E+02   1.038215237933E+03
 SKALA_GPW| Active atom-composite XC energy  -9.3784181419439861E+01
 SKALA_GPW| Active atom-composite electrons   1.0999995027911119E+02
 SKALA_GPW| Active atom-composite density range  -2.4119265559350309E-09   1.4954963292556531E+02
 SKALA_GPW| Active atom-composite tau range  -3.8412476656662471E-08   4.5680698429234617E+03
 SKALA_GPW| Active atom-composite tau integral   6.6582733191298985E+02
 SKALA_GPW| Active atom-composite max gradient   2.2422922635895779E+03
    98 OT DIIS     0.10E+00  264.7     0.00000071      -669.0730982783 -1.19E-08
 SKALA_GPW| Atom-composite cross support/maxima   2.315927033471E+00   4.898829865216E+01   5.229308572165E+02   1.038215265956E+03
 SKALA_GPW| Active atom-composite XC energy  -9.3784181672196397E+01
 SKALA_GPW| Active atom-composite electrons   1.0999995027915645E+02
 SKALA_GPW| Active atom-composite density range  -2.4119222985880362E-09   1.4954963330269405E+02
 SKALA_GPW| Active atom-composite tau range  -3.8412407283493954E-08   4.5680698337935419E+03
 SKALA_GPW| Active atom-composite tau integral   6.6582733477864895E+02
 SKALA_GPW| Active atom-composite max gradient   2.2422923098583810E+03
    99 OT DIIS     0.10E+00  265.5     0.00000068      -669.0730982901 -1.17E-08
 SKALA_GPW| Atom-composite cross support/maxima   2.315927033471E+00   4.898830077688E+01   5.229308530067E+02   1.038215333743E+03
 SKALA_GPW| Active atom-composite XC energy  -9.3784182033951012E+01
 SKALA_GPW| Active atom-composite electrons   1.0999995027918976E+02
 SKALA_GPW| Active atom-composite density range  -2.4119168790994330E-09   1.4954963288872486E+02
 SKALA_GPW| Active atom-composite tau range  -3.8412309047893363E-08   4.5680697456773860E+03
 SKALA_GPW| Active atom-composite tau integral   6.6582733383087350E+02
 SKALA_GPW| Active atom-composite max gradient   2.2422923828498115E+03
   100 OT DIIS     0.10E+00  265.4     0.00000065      -669.0730982945 -4.43E-09
 SKALA_GPW| Atom-composite cross support/maxima   2.315927033471E+00   4.898830074410E+01   5.229308409886E+02   1.038215360225E+03
 SKALA_GPW| Active atom-composite XC energy  -9.3784182584455564E+01
 SKALA_GPW| Active atom-composite electrons   1.0999995027919849E+02
 SKALA_GPW| Active atom-composite density range  -2.4119119689536915E-09   1.4954963335767769E+02
 SKALA_GPW| Active atom-composite tau range  -3.8412213141262648E-08   4.5680696869735484E+03
 SKALA_GPW| Active atom-composite tau integral   6.6582733307217120E+02
 SKALA_GPW| Active atom-composite max gradient   2.2422923987347240E+03
   101 OT DIIS     0.10E+00  266.3     0.00000062      -669.0730982931  1.37E-09
 SKALA_GPW| Atom-composite cross support/maxima   2.315927033471E+00   4.898829853413E+01   5.229308411749E+02   1.038215316800E+03
 SKALA_GPW| Active atom-composite XC energy  -9.3784183000454391E+01
 SKALA_GPW| Active atom-composite electrons   1.0999995027918871E+02
 SKALA_GPW| Active atom-composite density range  -2.4119078381731084E-09   1.4954963396458373E+02
 SKALA_GPW| Active atom-composite tau range  -3.8412118236619863E-08   4.5680696440562260E+03
 SKALA_GPW| Active atom-composite tau integral   6.6582733093105310E+02
 SKALA_GPW| Active atom-composite max gradient   2.2422923519980041E+03
   102 OT DIIS     0.10E+00  264.2     0.00000059      -669.0730983079 -1.48E-08
 SKALA_GPW| Atom-composite cross support/maxima   2.315927033471E+00   4.898829695524E+01   5.229308569514E+02   1.038215260184E+03
 SKALA_GPW| Active atom-composite XC energy  -9.3784183606164589E+01
 SKALA_GPW| Active atom-composite electrons   1.0999995027916130E+02
 SKALA_GPW| Active atom-composite density range  -2.4119040831686881E-09   1.4954963656102589E+02
 SKALA_GPW| Active atom-composite tau range  -3.8412039250680846E-08   4.5680696253922006E+03
 SKALA_GPW| Active atom-composite tau integral   6.6582733261338365E+02
 SKALA_GPW| Active atom-composite max gradient   2.2422923255488931E+03
   103 OT DIIS     0.10E+00  265.2     0.00000057      -669.0730983251 -1.72E-08
 SKALA_GPW| Atom-composite cross support/maxima   2.315927033471E+00   4.898829759962E+01   5.229308760219E+02   1.038215257681E+03
 SKALA_GPW| Active atom-composite XC energy  -9.3784184253645165E+01
 SKALA_GPW| Active atom-composite electrons   1.0999995027911217E+02
 SKALA_GPW| Active atom-composite density range  -2.4119015121113324E-09   1.4954963598473509E+02
 SKALA_GPW| Active atom-composite tau range  -3.8412005534610898E-08   4.5680696264957132E+03
 SKALA_GPW| Active atom-composite tau integral   6.6582733612300717E+02
 SKALA_GPW| Active atom-composite max gradient   2.2422923692976387E+03
   104 OT DIIS     0.10E+00  264.4     0.00000054      -669.0730983319 -6.73E-09
 SKALA_GPW| Atom-composite cross support/maxima   2.315927033471E+00   4.898829889575E+01   5.229308875150E+02   1.038215284185E+03
 SKALA_GPW| Active atom-composite XC energy  -9.3784184664773633E+01
 SKALA_GPW| Active atom-composite electrons   1.0999995027905290E+02
 SKALA_GPW| Active atom-composite density range  -2.4118999734436683E-09   1.4954963749331083E+02
 SKALA_GPW| Active atom-composite tau range  -3.8412011152367159E-08   4.5680695757499107E+03
 SKALA_GPW| Active atom-composite tau integral   6.6582733827085190E+02
 SKALA_GPW| Active atom-composite max gradient   2.2422924156534405E+03
   105 OT DIIS     0.10E+00  264.5     0.00000052      -669.0730983284  3.50E-09
 SKALA_GPW| Atom-composite cross support/maxima   2.315927033471E+00   4.898829921992E+01   5.229308933929E+02   1.038215305820E+03
 SKALA_GPW| Active atom-composite XC energy  -9.3784184996810737E+01
 SKALA_GPW| Active atom-composite electrons   1.0999995027899242E+02
 SKALA_GPW| Active atom-composite density range  -2.4118991294833413E-09   1.4954963611435781E+02
 SKALA_GPW| Active atom-composite tau range  -3.8412044500129500E-08   4.5680695746172851E+03
 SKALA_GPW| Active atom-composite tau integral   6.6582734009141632E+02
 SKALA_GPW| Active atom-composite max gradient   2.2422924459196356E+03
   106 OT DIIS     0.10E+00  262.0     0.00000050      -669.0730983417 -1.34E-08
 SKALA_GPW| Atom-composite cross support/maxima   2.315927033471E+00   4.898829796053E+01   5.229309011957E+02   1.038215289895E+03
 SKALA_GPW| Active atom-composite XC energy  -9.3784184743247479E+01
 SKALA_GPW| Active atom-composite electrons   1.0999995027894204E+02
 SKALA_GPW| Active atom-composite density range  -2.4118990742717589E-09   1.4954963643772732E+02
 SKALA_GPW| Active atom-composite tau range  -3.8412089313299520E-08   4.5680695505539297E+03
 SKALA_GPW| Active atom-composite tau integral   6.6582733828794198E+02
 SKALA_GPW| Active atom-composite max gradient   2.2422924186746222E+03
   107 OT DIIS     0.10E+00  263.3     0.00000047      -669.0730983413  4.73E-10
 SKALA_GPW| Atom-composite cross support/maxima   2.315927033471E+00   4.898829602812E+01   5.229309159093E+02   1.038215248335E+03
 SKALA_GPW| Active atom-composite XC energy  -9.3784184352029527E+01
 SKALA_GPW| Active atom-composite electrons   1.0999995027888882E+02
 SKALA_GPW| Active atom-composite density range  -2.4118992430505166E-09   1.4954963744024187E+02
 SKALA_GPW| Active atom-composite tau range  -3.8412145266740022E-08   4.5680695762519344E+03
 SKALA_GPW| Active atom-composite tau integral   6.6582733843091228E+02
 SKALA_GPW| Active atom-composite max gradient   2.2422923747633736E+03
   108 OT DIIS     0.10E+00  262.9     0.00000045      -669.0730983677 -2.65E-08
 SKALA_GPW| Atom-composite cross support/maxima   2.315927033471E+00   4.898829561267E+01   5.229309362639E+02   1.038215231452E+03
 SKALA_GPW| Active atom-composite XC energy  -9.3784183787145565E+01
 SKALA_GPW| Active atom-composite electrons   1.0999995027886659E+02
 SKALA_GPW| Active atom-composite density range  -2.4118992740467055E-09   1.4954963783111549E+02
 SKALA_GPW| Active atom-composite tau range  -3.8412193014019248E-08   4.5680695727095435E+03
 SKALA_GPW| Active atom-composite tau integral   6.6582733854171931E+02
 SKALA_GPW| Active atom-composite max gradient   2.2422923648486790E+03
   109 OT DIIS     0.10E+00  262.9     0.00000043      -669.0730983718 -4.13E-09
 SKALA_GPW| Atom-composite cross support/maxima   2.315927033471E+00   4.898829689825E+01   5.229309479554E+02   1.038215260675E+03
 SKALA_GPW| Active atom-composite XC energy  -9.3784183392348069E+01
 SKALA_GPW| Active atom-composite electrons   1.0999995027884633E+02
 SKALA_GPW| Active atom-composite density range  -2.4118988689731058E-09   1.4954963815694140E+02
 SKALA_GPW| Active atom-composite tau range  -3.8412236428468919E-08   4.5680695535986524E+03
 SKALA_GPW| Active atom-composite tau integral   6.6582734065863099E+02
 SKALA_GPW| Active atom-composite max gradient   2.2422923969890144E+03
   110 OT DIIS     0.10E+00  264.6     0.00000040      -669.0730983688  3.06E-09
 SKALA_GPW| Atom-composite cross support/maxima   2.315927033471E+00   4.898829782163E+01   5.229309473735E+02   1.038215297766E+03
 SKALA_GPW| Active atom-composite XC energy  -9.3784182985059942E+01
 SKALA_GPW| Active atom-composite electrons   1.0999995027885463E+02
 SKALA_GPW| Active atom-composite density range  -2.4118982069040689E-09   1.4954963712174012E+02
 SKALA_GPW| Active atom-composite tau range  -3.8412262778174559E-08   4.5680695213021381E+03
 SKALA_GPW| Active atom-composite tau integral   6.6582734040450646E+02
 SKALA_GPW| Active atom-composite max gradient   2.2422924209941530E+03
   111 OT DIIS     0.10E+00  269.2     0.00000038      -669.0730983861 -1.73E-08
 SKALA_GPW| Atom-composite cross support/maxima   2.315927033471E+00   4.898829731328E+01   5.229309417158E+02   1.038215303188E+03
 SKALA_GPW| Active atom-composite XC energy  -9.3784182546537039E+01
 SKALA_GPW| Active atom-composite electrons   1.0999995027886756E+02
 SKALA_GPW| Active atom-composite density range  -2.4118974160974748E-09   1.4954963797613894E+02
 SKALA_GPW| Active atom-composite tau range  -3.8412263026181532E-08   4.5680694833858888E+03
 SKALA_GPW| Active atom-composite tau integral   6.6582733837404726E+02
 SKALA_GPW| Active atom-composite max gradient   2.2422924051158911E+03
   112 OT DIIS     0.10E+00  266.4     0.00000037      -669.0730983891 -3.01E-09
 SKALA_GPW| Atom-composite cross support/maxima   2.315927033471E+00   4.898829630165E+01   5.229309389874E+02   1.038215289388E+03
 SKALA_GPW| Active atom-composite XC energy  -9.3784182244753950E+01
 SKALA_GPW| Active atom-composite electrons   1.0999995027889419E+02
 SKALA_GPW| Active atom-composite density range  -2.4118966435309129E-09   1.4954963729774576E+02
 SKALA_GPW| Active atom-composite tau range  -3.8412242704160834E-08   4.5680694902903315E+03
 SKALA_GPW| Active atom-composite tau integral   6.6582733681670152E+02
 SKALA_GPW| Active atom-composite max gradient   2.2422923827544064E+03
   113 OT DIIS     0.10E+00  268.1     0.00000035      -669.0730983978 -8.73E-09
 SKALA_GPW| Atom-composite cross support/maxima   2.315927033471E+00   4.898829591727E+01   5.229309406614E+02   1.038215278638E+03
 SKALA_GPW| Active atom-composite XC energy  -9.3784182033889081E+01
 SKALA_GPW| Active atom-composite electrons   1.0999995027892064E+02
 SKALA_GPW| Active atom-composite density range  -2.4118956914514285E-09   1.4954963855081587E+02
 SKALA_GPW| Active atom-composite tau range  -3.8412211095796420E-08   4.5680694618561402E+03
 SKALA_GPW| Active atom-composite tau integral   6.6582733568598553E+02
 SKALA_GPW| Active atom-composite max gradient   2.2422923668467020E+03
   114 OT DIIS     0.10E+00  267.7     0.00000034      -669.0730983934  4.40E-09
 SKALA_GPW| Atom-composite cross support/maxima   2.315927033471E+00   4.898829650855E+01   5.229309414470E+02   1.038215286842E+03
 SKALA_GPW| Active atom-composite XC energy  -9.3784182215469158E+01
 SKALA_GPW| Active atom-composite electrons   1.0999995027894565E+02
 SKALA_GPW| Active atom-composite density range  -2.4118943972019141E-09   1.4954963881971571E+02
 SKALA_GPW| Active atom-composite tau range  -3.8412174622003494E-08   4.5680694487353230E+03
 SKALA_GPW| Active atom-composite tau integral   6.6582733744558220E+02
 SKALA_GPW| Active atom-composite max gradient   2.2422923804952452E+03
   115 OT DIIS     0.10E+00  268.7     0.00000033      -669.0730983869  6.53E-09
 SKALA_GPW| Atom-composite cross support/maxima   2.315927033471E+00   4.898829749436E+01   5.229309398138E+02   1.038215307834E+03
 SKALA_GPW| Active atom-composite XC energy  -9.3784182524287459E+01
 SKALA_GPW| Active atom-composite electrons   1.0999995027896061E+02
 SKALA_GPW| Active atom-composite density range  -2.4118927631159533E-09   1.4954963879738614E+02
 SKALA_GPW| Active atom-composite tau range  -3.8412138817799654E-08   4.5680694054900669E+03
 SKALA_GPW| Active atom-composite tau integral   6.6582733844909649E+02
 SKALA_GPW| Active atom-composite max gradient   2.2422924043314370E+03
   116 OT DIIS     0.10E+00  271.4     0.00000031      -669.0730984005 -1.37E-08
 SKALA_GPW| Atom-composite cross support/maxima   2.315927033471E+00   4.898829764495E+01   5.229309339612E+02   1.038215316607E+03
 SKALA_GPW| Active atom-composite XC energy  -9.3784182913168181E+01
 SKALA_GPW| Active atom-composite electrons   1.0999995027897519E+02
 SKALA_GPW| Active atom-composite density range  -2.4118911743407205E-09   1.4954963903924985E+02
 SKALA_GPW| Active atom-composite tau range  -3.8412110221788730E-08   4.5680693854001156E+03
 SKALA_GPW| Active atom-composite tau integral   6.6582733939291256E+02
 SKALA_GPW| Active atom-composite max gradient   2.2422924151024849E+03
   117 OT DIIS     0.10E+00  270.6     0.00000030      -669.0730984028 -2.28E-09
 SKALA_GPW| Atom-composite cross support/maxima   2.315927033471E+00   4.898829677580E+01   5.229309323969E+02   1.038215301767E+03
 SKALA_GPW| Active atom-composite XC energy  -9.3784183150934510E+01
 SKALA_GPW| Active atom-composite electrons   1.0999995027897256E+02
 SKALA_GPW| Active atom-composite density range  -2.4118898744805980E-09   1.4954963921016898E+02
 SKALA_GPW| Active atom-composite tau range  -3.8412083968188692E-08   4.5680693780096663E+03
 SKALA_GPW| Active atom-composite tau integral   6.6582733850721138E+02
 SKALA_GPW| Active atom-composite max gradient   2.2422924051225768E+03
   118 OT DIIS     0.10E+00  272.4     0.00000029      -669.0730984058 -2.95E-09
 SKALA_GPW| Atom-composite cross support/maxima   2.315927033471E+00   4.898829603147E+01   5.229309376291E+02   1.038215282343E+03
 SKALA_GPW| Active atom-composite XC energy  -9.3784183360993140E+01
 SKALA_GPW| Active atom-composite electrons   1.0999995027897317E+02
 SKALA_GPW| Active atom-composite density range  -2.4118888629605711E-09   1.4954964021255395E+02
 SKALA_GPW| Active atom-composite tau range  -3.8412066882912781E-08   4.5680693808542910E+03
 SKALA_GPW| Active atom-composite tau integral   6.6582733868914192E+02
 SKALA_GPW| Active atom-composite max gradient   2.2422923933150446E+03
   119 OT DIIS     0.10E+00  271.9     0.00000028      -669.0730984070 -1.24E-09
 SKALA_GPW| Atom-composite cross support/maxima   2.315927033471E+00   4.898829610918E+01   5.229309469910E+02   1.038215279059E+03
 SKALA_GPW| Active atom-composite XC energy  -9.3784183603075903E+01
 SKALA_GPW| Active atom-composite electrons   1.0999995027895658E+02
 SKALA_GPW| Active atom-composite density range  -2.4118879123171050E-09   1.4954964013375988E+02
 SKALA_GPW| Active atom-composite tau range  -3.8412063533512341E-08   4.5680693848808205E+03
 SKALA_GPW| Active atom-composite tau integral   6.6582734025557875E+02
 SKALA_GPW| Active atom-composite max gradient   2.2422923992491287E+03
   120 OT DIIS     0.10E+00  271.0     0.00000027      -669.0730984100 -2.97E-09
 SKALA_GPW| Atom-composite cross support/maxima   2.315927033471E+00   4.898829662697E+01   5.229309547486E+02   1.038215287928E+03
 SKALA_GPW| Active atom-composite XC energy  -9.3784183789903238E+01
 SKALA_GPW| Active atom-composite electrons   1.0999995027894100E+02
 SKALA_GPW| Active atom-composite density range  -2.4118869147855129E-09   1.4954964112780192E+02
 SKALA_GPW| Active atom-composite tau range  -3.8412072912756288E-08   4.5680693616716680E+03
 SKALA_GPW| Active atom-composite tau integral   6.6582734180714704E+02
 SKALA_GPW| Active atom-composite max gradient   2.2422924115931314E+03
   121 OT DIIS     0.10E+00  268.0     0.00000026      -669.0730984142 -4.16E-09
 SKALA_GPW| Atom-composite cross support/maxima   2.315927033471E+00   4.898829680477E+01   5.229309591338E+02   1.038215295647E+03
 SKALA_GPW| Active atom-composite XC energy  -9.3784183891485057E+01
 SKALA_GPW| Active atom-composite electrons   1.0999995027891873E+02
 SKALA_GPW| Active atom-composite density range  -2.4118859667414519E-09   1.4954964072439617E+02
 SKALA_GPW| Active atom-composite tau range  -3.8412087542537763E-08   4.5680693647685503E+03
 SKALA_GPW| Active atom-composite tau integral   6.6582734298546347E+02
 SKALA_GPW| Active atom-composite max gradient   2.2422924252323483E+03
   122 OT DIIS     0.10E+00  271.1     0.00000025      -669.0730984147 -5.78E-10
 SKALA_GPW| Atom-composite cross support/maxima   2.315927033471E+00   4.898829634505E+01   5.229309634785E+02   1.038215292543E+03
 SKALA_GPW| Active atom-composite XC energy  -9.3784183694594475E+01
 SKALA_GPW| Active atom-composite electrons   1.0999995027888890E+02
 SKALA_GPW| Active atom-composite density range  -2.4118851096785840E-09   1.4954964096167319E+02
 SKALA_GPW| Active atom-composite tau range  -3.8412104233718208E-08   4.5680693590394358E+03
 SKALA_GPW| Active atom-composite tau integral   6.6582734181820149E+02
 SKALA_GPW| Active atom-composite max gradient   2.2422924252198782E+03
   123 OT DIIS     0.10E+00  270.7     0.00000024      -669.0730984090  5.75E-09
 SKALA_GPW| Atom-composite cross support/maxima   2.315927033471E+00   4.898829558236E+01   5.229309687804E+02   1.038215281766E+03
 SKALA_GPW| Active atom-composite XC energy  -9.3784183432344378E+01
 SKALA_GPW| Active atom-composite electrons   1.0999995027886864E+02
 SKALA_GPW| Active atom-composite density range  -2.4118844896666525E-09   1.4954964136839070E+02
 SKALA_GPW| Active atom-composite tau range  -3.8412117091837159E-08   4.5680693725819065E+03
 SKALA_GPW| Active atom-composite tau integral   6.6582734109804096E+02
 SKALA_GPW| Active atom-composite max gradient   2.2422924162586728E+03
   124 OT DIIS     0.10E+00  272.0     0.00000023      -669.0730983993  9.65E-09
 SKALA_GPW| Atom-composite cross support/maxima   2.315927033471E+00   4.898829531909E+01   5.229309770141E+02   1.038215277000E+03
 SKALA_GPW| Active atom-composite XC energy  -9.3784183119637746E+01
 SKALA_GPW| Active atom-composite electrons   1.0999995027884876E+02
 SKALA_GPW| Active atom-composite density range  -2.4118840302476770E-09   1.4954964162109323E+02
 SKALA_GPW| Active atom-composite tau range  -3.8412126706784607E-08   4.5680693676908168E+03
 SKALA_GPW| Active atom-composite tau integral   6.6582734045768177E+02
 SKALA_GPW| Active atom-composite max gradient   2.2422924081769684E+03
   125 OT DIIS     0.10E+00  271.8     0.00000022      -669.0730984007 -1.41E-09
 SKALA_GPW| Atom-composite cross support/maxima   2.315927033471E+00   4.898829582083E+01   5.229309826794E+02   1.038215287344E+03
 SKALA_GPW| Active atom-composite XC energy  -9.3784182926733834E+01
 SKALA_GPW| Active atom-composite electrons   1.0999995027884628E+02
 SKALA_GPW| Active atom-composite density range  -2.4118834597253014E-09   1.4954964195691306E+02
 SKALA_GPW| Active atom-composite tau range  -3.8412137765914171E-08   4.5680693484090916E+03
 SKALA_GPW| Active atom-composite tau integral   6.6582734146180303E+02
 SKALA_GPW| Active atom-composite max gradient   2.2422924116488030E+03
   126 OT DIIS     0.10E+00  271.6     0.00000021      -669.0730983943  6.46E-09
 SKALA_GPW| Atom-composite cross support/maxima   2.315927033471E+00   4.898829634061E+01   5.229309831220E+02   1.038215301298E+03
 SKALA_GPW| Active atom-composite XC energy  -9.3784182764670831E+01
 SKALA_GPW| Active atom-composite electrons   1.0999995027884309E+02
 SKALA_GPW| Active atom-composite density range  -2.4118827283133048E-09   1.4954964161653774E+02
 SKALA_GPW| Active atom-composite tau range  -3.8412145157867251E-08   4.5680693229833732E+03
 SKALA_GPW| Active atom-composite tau integral   6.6582734176597444E+02
 SKALA_GPW| Active atom-composite max gradient   2.2422924230917324E+03
   127 OT DIIS     0.10E+00  269.0     0.00000020      -669.0730983974 -3.12E-09
 SKALA_GPW| Atom-composite cross support/maxima   2.315927033471E+00   4.898829625302E+01   5.229309800484E+02   1.038215303967E+03
 SKALA_GPW| Active atom-composite XC energy  -9.3784182582031292E+01
 SKALA_GPW| Active atom-composite electrons   1.0999995027884083E+02
 SKALA_GPW| Active atom-composite density range  -2.4118819702960393E-09   1.4954964208391434E+02
 SKALA_GPW| Active atom-composite tau range  -3.8412143310069026E-08   4.5680692985588112E+03
 SKALA_GPW| Active atom-composite tau integral   6.6582734098313961E+02
 SKALA_GPW| Active atom-composite max gradient   2.2422924267773888E+03
   128 OT DIIS     0.10E+00  272.0     0.00000019      -669.0730984026 -5.16E-09
 SKALA_GPW| Atom-composite cross support/maxima   2.315927033471E+00   4.898829577211E+01   5.229309777747E+02   1.038215297594E+03
 SKALA_GPW| Active atom-composite XC energy  -9.3784182457588273E+01
 SKALA_GPW| Active atom-composite electrons   1.0999995027885448E+02
 SKALA_GPW| Active atom-composite density range  -2.4118814565944784E-09   1.4954964167014737E+02
 SKALA_GPW| Active atom-composite tau range  -3.8412133157940688E-08   4.5680693026818863E+03
 SKALA_GPW| Active atom-composite tau integral   6.6582734013095740E+02
 SKALA_GPW| Active atom-composite max gradient   2.2422924239057079E+03
   129 OT DIIS     0.10E+00  271.0     0.00000018      -669.0730984087 -6.09E-09
 SKALA_GPW| Atom-composite cross support/maxima   2.315927033471E+00   4.898829550777E+01   5.229309777950E+02   1.038215291724E+03
 SKALA_GPW| Active atom-composite XC energy  -9.3784182387842094E+01
 SKALA_GPW| Active atom-composite electrons   1.0999995027887005E+02
 SKALA_GPW| Active atom-composite density range  -2.4118811745595273E-09   1.4954964237157333E+02
 SKALA_GPW| Active atom-composite tau range  -3.8412121354999458E-08   4.5680692868687684E+03
 SKALA_GPW| Active atom-composite tau integral   6.6582733948527937E+02
 SKALA_GPW| Active atom-composite max gradient   2.2422924141785597E+03
   130 OT DIIS     0.10E+00  272.9     0.00000017      -669.0730984108 -2.11E-09
 SKALA_GPW| Atom-composite cross support/maxima   2.315927033471E+00   4.898829568702E+01   5.229309782989E+02   1.038215293287E+03
 SKALA_GPW| Active atom-composite XC energy  -9.3784182536070418E+01
 SKALA_GPW| Active atom-composite electrons   1.0999995027888626E+02
 SKALA_GPW| Active atom-composite density range  -2.4118808870612248E-09   1.4954964258464986E+02
 SKALA_GPW| Active atom-composite tau range  -3.8412110885554929E-08   4.5680692759617850E+03
 SKALA_GPW| Active atom-composite tau integral   6.6582734069877324E+02
 SKALA_GPW| Active atom-composite max gradient   2.2422924100895725E+03
   131 OT DIIS     0.10E+00  273.5     0.00000016      -669.0730984227 -1.19E-08
 SKALA_GPW| Atom-composite cross support/maxima   2.315927033471E+00   4.898829613514E+01   5.229309785633E+02   1.038215301016E+03
 SKALA_GPW| Active atom-composite XC energy  -9.3784182702914009E+01
 SKALA_GPW| Active atom-composite electrons   1.0999995027889287E+02
 SKALA_GPW| Active atom-composite density range  -2.4118804996989421E-09   1.4954964264291067E+02
 SKALA_GPW| Active atom-composite tau range  -3.8412103931664757E-08   4.5680692498581193E+03
 SKALA_GPW| Active atom-composite tau integral   6.6582734159856307E+02
 SKALA_GPW| Active atom-composite max gradient   2.2422924143724445E+03
   132 OT DIIS     0.10E+00  271.8     0.00000016      -669.0730984257 -3.03E-09
 SKALA_GPW| Atom-composite cross support/maxima   2.315927033471E+00   4.898829627970E+01   5.229309768691E+02   1.038215305215E+03
 SKALA_GPW| Active atom-composite XC energy  -9.3784182887211387E+01
 SKALA_GPW| Active atom-composite electrons   1.0999995027889418E+02
 SKALA_GPW| Active atom-composite density range  -2.4118799914172246E-09   1.4954964277138049E+02
 SKALA_GPW| Active atom-composite tau range  -3.8412098951444361E-08   4.5680692406231665E+03
 SKALA_GPW| Active atom-composite tau integral   6.6582734247701740E+02
 SKALA_GPW| Active atom-composite max gradient   2.2422924224100334E+03
   133 OT DIIS     0.10E+00  271.6     0.00000015      -669.0730984114  1.43E-08
 SKALA_GPW| Atom-composite cross support/maxima   2.315927033471E+00   4.898829590104E+01   5.229309766236E+02   1.038215299860E+03
 SKALA_GPW| Active atom-composite XC energy  -9.3784182988660376E+01
 SKALA_GPW| Active atom-composite electrons   1.0999995027890168E+02
 SKALA_GPW| Active atom-composite density range  -2.4118795072974920E-09   1.4954964286438371E+02
 SKALA_GPW| Active atom-composite tau range  -3.8412091589174009E-08   4.5680692466461305E+03
 SKALA_GPW| Active atom-composite tau integral   6.6582734206553243E+02
 SKALA_GPW| Active atom-composite max gradient   2.2422924260779487E+03
   134 OT DIIS     0.10E+00  273.1     0.00000014      -669.0730984115 -1.63E-10
 SKALA_GPW| Atom-composite cross support/maxima   2.315927033471E+00   4.898829545164E+01   5.229309791615E+02   1.038215291786E+03
 SKALA_GPW| Active atom-composite XC energy  -9.3784183074486151E+01
 SKALA_GPW| Active atom-composite electrons   1.0999995027889852E+02
 SKALA_GPW| Active atom-composite density range  -2.4118791268881116E-09   1.4954964342359028E+02
 SKALA_GPW| Active atom-composite tau range  -3.8412085634328671E-08   4.5680692572786629E+03
 SKALA_GPW| Active atom-composite tau integral   6.6582734195716785E+02
 SKALA_GPW| Active atom-composite max gradient   2.2422924214531868E+03
   135 OT DIIS     0.10E+00  269.4     0.00000014      -669.0730984187 -7.14E-09
 SKALA_GPW| Atom-composite cross support/maxima   2.315927033471E+00   4.898829540425E+01   5.229309841002E+02   1.038215291339E+03
 SKALA_GPW| Active atom-composite XC energy  -9.3784183157676608E+01
 SKALA_GPW| Active atom-composite electrons   1.0999995027890235E+02
 SKALA_GPW| Active atom-composite density range  -2.4118786932203278E-09   1.4954964344706065E+02
 SKALA_GPW| Active atom-composite tau range  -3.8412085167163220E-08   4.5680692617282220E+03
 SKALA_GPW| Active atom-composite tau integral   6.6582734260333689E+02
 SKALA_GPW| Active atom-composite max gradient   2.2422924191449938E+03
   136 OT DIIS     0.10E+00  272.7     0.00000013      -669.0730984142  4.47E-09
 SKALA_GPW| Atom-composite cross support/maxima   2.315927033471E+00   4.898829563232E+01   5.229309878916E+02   1.038215296221E+03
 SKALA_GPW| Active atom-composite XC energy  -9.3784183208507400E+01
 SKALA_GPW| Active atom-composite electrons   1.0999995027888987E+02
 SKALA_GPW| Active atom-composite density range  -2.4118781995923732E-09   1.4954964397346751E+02
 SKALA_GPW| Active atom-composite tau range  -3.8412089227301714E-08   4.5680692482970262E+03
 SKALA_GPW| Active atom-composite tau integral   6.6582734325075216E+02
 SKALA_GPW| Active atom-composite max gradient   2.2422924204236379E+03
   137 OT DIIS     0.10E+00  267.8     0.00000013      -669.0730984151 -9.12E-10
 SKALA_GPW| Atom-composite cross support/maxima   2.315927033471E+00   4.898829579075E+01   5.229309901025E+02   1.038215300620E+03
 SKALA_GPW| Active atom-composite XC energy  -9.3784183227300971E+01
 SKALA_GPW| Active atom-composite electrons   1.0999995027888635E+02
 SKALA_GPW| Active atom-composite density range  -2.4118776215743785E-09   1.4954964374183774E+02
 SKALA_GPW| Active atom-composite tau range  -3.8412094318365767E-08   4.5680692478784631E+03
 SKALA_GPW| Active atom-composite tau integral   6.6582734380673389E+02
 SKALA_GPW| Active atom-composite max gradient   2.2422924277651978E+03
   138 OT DIIS     0.10E+00  270.4     0.00000012      -669.0730984113  3.76E-09
 SKALA_GPW| Atom-composite cross support/maxima   2.315927033471E+00   4.898829569876E+01   5.229309919300E+02   1.038215300406E+03
 SKALA_GPW| Active atom-composite XC energy  -9.3784183145982340E+01
 SKALA_GPW| Active atom-composite electrons   1.0999995027887628E+02
 SKALA_GPW| Active atom-composite density range  -2.4118769378645979E-09   1.4954964381195131E+02
 SKALA_GPW| Active atom-composite tau range  -3.8412097664863333E-08   4.5680692452512831E+03
 SKALA_GPW| Active atom-composite tau integral   6.6582734328031336E+02
 SKALA_GPW| Active atom-composite max gradient   2.2422924338612543E+03
   139 OT DIIS     0.10E+00  265.9     0.00000012      -669.0730984177 -6.41E-09
 SKALA_GPW| Atom-composite cross support/maxima   2.315927033471E+00   4.898829539153E+01   5.229309936296E+02   1.038215295883E+03
 SKALA_GPW| Active atom-composite XC energy  -9.3784183042952122E+01
 SKALA_GPW| Active atom-composite electrons   1.0999995027886891E+02
 SKALA_GPW| Active atom-composite density range  -2.4118763054749172E-09   1.4954964398442200E+02
 SKALA_GPW| Active atom-composite tau range  -3.8412099512915158E-08   4.5680692532156017E+03
 SKALA_GPW| Active atom-composite tau integral   6.6582734285502124E+02
 SKALA_GPW| Active atom-composite max gradient   2.2422924348420784E+03
   140 OT DIIS     0.10E+00  267.7     0.00000011      -669.0730984175  2.05E-10
 SKALA_GPW| Atom-composite cross support/maxima   2.315927033471E+00   4.898829523309E+01   5.229309965046E+02   1.038215293726E+03
 SKALA_GPW| Active atom-composite XC energy  -9.3784182926281190E+01
 SKALA_GPW| Active atom-composite electrons   1.0999995027885794E+02
 SKALA_GPW| Active atom-composite density range  -2.4118758120019366E-09   1.4954964414032656E+02
 SKALA_GPW| Active atom-composite tau range  -3.8412100991106382E-08   4.5680692500433979E+03
 SKALA_GPW| Active atom-composite tau integral   6.6582734247082897E+02
 SKALA_GPW| Active atom-composite max gradient   2.2422924302136553E+03
   141 OT DIIS     0.10E+00  267.8     0.00000011      -669.0730984205 -2.97E-09
 SKALA_GPW| Atom-composite cross support/maxima   2.315927033471E+00   4.898829542610E+01   5.229309985747E+02   1.038215298208E+03
 SKALA_GPW| Active atom-composite XC energy  -9.3784182860995614E+01
 SKALA_GPW| Active atom-composite electrons   1.0999995027885700E+02
 SKALA_GPW| Active atom-composite density range  -2.4118754010261315E-09   1.4954964432719152E+02
 SKALA_GPW| Active atom-composite tau range  -3.8412104994759748E-08   4.5680692362301943E+03
 SKALA_GPW| Active atom-composite tau integral   6.6582734290985115E+02
 SKALA_GPW| Active atom-composite max gradient   2.2422924263896512E+03
   142 OT DIIS     0.10E+00  265.5     0.00000011      -669.0730984253 -4.83E-09
 SKALA_GPW| Atom-composite cross support/maxima   2.315927033471E+00   4.898829571505E+01   5.229309990896E+02   1.038215303870E+03
 SKALA_GPW| Active atom-composite XC energy  -9.3784182800175756E+01
 SKALA_GPW| Active atom-composite electrons   1.0999995027885274E+02
 SKALA_GPW| Active atom-composite density range  -2.4118750299852412E-09   1.4954964420879435E+02
 SKALA_GPW| Active atom-composite tau range  -3.8412108758534205E-08   4.5680692212128106E+03
 SKALA_GPW| Active atom-composite tau integral   6.6582734319642725E+02
 SKALA_GPW| Active atom-composite max gradient   2.2422924294327213E+03
   143 OT DIIS     0.10E+00  266.4     0.00000010      -669.0730984267 -1.33E-09
 SKALA_GPW| Atom-composite cross support/maxima   2.315927033471E+00   4.898829573829E+01   5.229309979039E+02   1.038215303642E+03
 SKALA_GPW| Active atom-composite XC energy  -9.3784182744887076E+01
 SKALA_GPW| Active atom-composite electrons   1.0999995027885819E+02
 SKALA_GPW| Active atom-composite density range  -2.4118746875152903E-09   1.4954964443054320E+02
 SKALA_GPW| Active atom-composite tau range  -3.8412109623280425E-08   4.5680692128247938E+03
 SKALA_GPW| Active atom-composite tau integral   6.6582734307653618E+02
 SKALA_GPW| Active atom-composite max gradient   2.2422924340690774E+03
   144 OT DIIS     0.10E+00  266.5     0.00000010      -669.0730984316 -4.95E-09

  *** SCF run converged in   144 steps ***


  Electronic density on regular grids:        -83.0268439142       26.9731560858
  Core density on regular grids:              110.0000000000        0.0000000000
  Hard and soft densities (Lebedev):         -736.8352250694     -709.8620689707
  Total Rho_soft + Rho1_hard - Rho1_soft     -110.0000000128
  Total charge density (r-space):              -0.0000000128
  Total Rho_soft + Rho0_soft (g-space):        -0.0000000154

  Overlap energy of the core charge distribution:               0.00001729810349
  Self energy of the core charge distribution:               -578.03269547527020
  Core Hamiltonian energy:                                    -89.74626660551411
  Hartree energy:                                             275.49630243358007
  Exchange-correlation energy:                                  0.00000000000000
  Dispersion energy:                                           -0.05462712434435

  GAPW| Exc from hard and soft atomic rho1:                   -93.78418274488708
  GAPW| local Eh = 1 center integrals:                       -182.95164621329008

  Total energy:                                              -669.07309843162227

  outer SCF iter =    1 RMS gradient =   0.99E-07 energy =       -669.0730984316
  outer SCF loop converged in   1 iterations or  144 steps


 !-----------------------------------------------------------------------------!
                     Mulliken Population Analysis

 #  Atom  Element  Kind  Atomic population                           Net charge
       1     N        1          7.222913                             -0.222913
       2     C        2          5.903729                              0.096271
       3     C        2          5.599250                              0.400750
       4     O        3          8.632739                             -0.632739
       5     C        2          5.986086                              0.013914
       6     C        2          5.992660                              0.007340
       7     H        4          0.772382                              0.227618
       8     H        4          0.965541                              0.034459
       9     H        4          0.996009                              0.003991
      10     H        4          0.974876                              0.025124
      11     H        4          0.997819                              0.002181
      12     N        1          7.244410                             -0.244410
      13     H        4          0.694278                              0.305722
      14     C        2          5.951673                              0.048327
      15     H        4          0.973726                              0.026274
      16     H        4          0.952193                              0.047807
      17     H        4          0.971753                              0.028247
      18     C        2          5.598948                              0.401052
      19     O        3          8.656170                             -0.656170
      20     C        2          6.028503                             -0.028503
      21     H        4          0.952800                              0.047200
      22     H        4          0.950287                              0.049713
      23     H        4          0.993559                              0.006441
      24     H        4          0.987432                              0.012568
      25     C        2          5.991840                              0.008160
      26     H        4          1.008235                             -0.008235
      27     H        4          1.006972                             -0.006972
      28     C        2          5.919930                              0.080070
      29     H        4          0.985403                              0.014597
      30     H        4          0.981909                              0.018091
      31     N        1          7.480456                             -0.480456
      32     H        4          0.811640                              0.188360
      33     H        4          0.813877                              0.186123
 # Total charge                            110.000000                 -0.000000

 !-----------------------------------------------------------------------------!

 !-----------------------------------------------------------------------------!
                           Hirshfeld Charges

  #Atom  Element  Kind  Ref Charge     Population                    Net charge
      1       N      1       7.000          7.636                        -0.636
      2       C      2       6.000          6.280                        -0.280
      3       C      2       6.000          5.680                         0.320
      4       O      3       8.000          8.559                        -0.559
      5       C      2       6.000          6.899                        -0.899
      6       C      2       6.000          6.892                        -0.892
      7       H      4       1.000          0.444                         0.556
      8       H      4       1.000          0.521                         0.479
      9       H      4       1.000          0.526                         0.474
     10       H      4       1.000          0.521                         0.479
     11       H      4       1.000          0.527                         0.473
     12       N      1       7.000          7.598                        -0.598
     13       H      4       1.000          0.432                         0.568
     14       C      2       6.000          7.236                        -1.236
     15       H      4       1.000          0.521                         0.479
     16       H      4       1.000          0.513                         0.487
     17       H      4       1.000          0.519                         0.481
     18       C      2       6.000          5.666                         0.334
     19       O      3       8.000          8.589                        -0.589
     20       C      2       6.000          7.359                        -1.359
     21       H      4       1.000          0.509                         0.491
     22       H      4       1.000          0.509                         0.491
     23       H      4       1.000          0.518                         0.482
     24       H      4       1.000          0.522                         0.478
     25       C      2       6.000          6.943                        -0.943
     26       H      4       1.000          0.529                         0.471
     27       H      4       1.000          0.530                         0.470
     28       C      2       6.000          6.815                        -0.815
     29       H      4       1.000          0.528                         0.472
     30       H      4       1.000          0.527                         0.473
     31       N      1       7.000          8.189                        -1.189
     32       H      4       1.000          0.462                         0.538
     33       H      4       1.000          0.462                         0.538

  Total Charge                                                            0.035
 !-----------------------------------------------------------------------------!

 ENERGY| Total FORCE_EVAL ( QS ) energy [hartree]           -669.073098431622270

 -------------------------------------------------------------------------------
 -                                                                             -
 -                                DBCSR STATISTICS                             -
 -                                                                             -
 -------------------------------------------------------------------------------
 COUNTER                                    TOTAL       BLAS       SMM       ACC
 flops    14 x    23 x    23               281428     100.0%      0.0%      0.0%     
 flops    31 x    23 x    23               459172     100.0%      0.0%      0.0%     
 flops    14 x    32 x    32               544768     100.0%      0.0%      0.0%     
 flops    31 x    32 x    32               888832     100.0%      0.0%      0.0%     
 flops    23 x    55 x    55            179503500     100.0%      0.0%      0.0%     
 flops    32 x    55 x    55            249744000     100.0%      0.0%      0.0%     
 flops    14 x    14 x    55            593978000     100.0%      0.0%      0.0%     
 flops    31 x    14 x    55            920665900     100.0%      0.0%      0.0%     
 flops    14 x    31 x    55            920665900     100.0%      0.0%      0.0%     
 flops    28 x    55 x    55            975744000     100.0%      0.0%      0.0%     
 flops    14 x    23 x    14            989451904     100.0%      0.0%      0.0%     
 flops    23 x    55 x   700           1021867000     100.0%      0.0%      0.0%     
 flops    14 x    32 x    14           1376628736     100.0%      0.0%      0.0%     
 flops    32 x    55 x   700           1421728000     100.0%      0.0%      0.0%     
 flops    31 x    31 x    55           1609434750     100.0%      0.0%      0.0%     
 flops    31 x    23 x    14           1614368896     100.0%      0.0%      0.0%     
 flops    14 x    23 x    31           1614368896     100.0%      0.0%      0.0%     
 flops    31 x    55 x    55           1890504000     100.0%      0.0%      0.0%     
 flops    31 x    32 x    14           2246078464     100.0%      0.0%      0.0%     
 flops    14 x    32 x    31           2246078464     100.0%      0.0%      0.0%     
 flops    31 x    23 x    31           2633970304     100.0%      0.0%      0.0%     
 flops    31 x    32 x    31           3664654336     100.0%      0.0%      0.0%     
 flops    28 x    55 x   700           5001920000     100.0%      0.0%      0.0%     
 flops    31 x    55 x   700           9691220000     100.0%      0.0%      0.0%     
 flops inhomo. stacks                  1120812000     100.0%      0.0%      0.0%
 flops total                        41.985561E+09     100.0%      0.0%      0.0%
 flops max/rank                     41.985561E+09     100.0%      0.0%      0.0%
 matmuls inhomo. stacks                      1010     100.0%      0.0%      0.0%
 matmuls total                             770487     100.0%      0.0%      0.0%
 number of processed stacks                 61648     100.0%      0.0%      0.0%
 average stack size                                    12.5       0.0       0.0
 marketing flops                    45.761774E+09
 -------------------------------------------------------------------------------
 # multiplications                           3328
 max memory usage/rank             105.566044E+09
 # max total images/rank                        1
 # max 3D layers                                1
 # MPI messages exchanged                       0
 -------------------------------------------------------------------------------

 -------------------------------------------------------------------------------
 -                                                                             -
 -                                GRID STATISTICS                              -
 -                                                                             -
 -------------------------------------------------------------------------------
 LP    KERNEL             BACKEND                              COUNT     PERCENT
 6     collocate ortho    CPU                                 539835      13.15%
 6     integrate ortho    CPU                                 536112      13.06%
 5     collocate ortho    CPU                                 487490      11.88%
 7     collocate ortho    CPU                                 487490      11.88%
 5     integrate ortho    CPU                                 484128      11.79%
 7     integrate ortho    CPU                                 484128      11.79%
 4     collocate ortho    CPU                                 327120       7.97%
 4     integrate ortho    CPU                                 324864       7.91%
 8     collocate ortho    CPU                                 212715       5.18%
 8     integrate ortho    CPU                                 211248       5.15%
 4     collocate general  CPU                                   4752       0.12%
 4     integrate general  CPU                                   4752       0.12%
 0     collocate general  CPU                                     66       0.00%
 0     integrate general  CPU                                     33       0.00%
 -------------------------------------------------------------------------------

 -------------------------------------------------------------------------------
 -                                                                             -
 -                          OFFLOAD MEMPOOL STATISTICS                         -
 -                                                                             -
 -------------------------------------------------------------------------------
 Memory consumption                Number of allocations  Used [MiB]  Size [MiB]
 Host                                                  8        2219          58
 -------------------------------------------------------------------------------

 MEMORY| Estimated peak process memory [MiB]                               73857

 -------------------------------------------------------------------------------
 ----                             MULTIGRID INFO                            ----
 -------------------------------------------------------------------------------
 count for grid        1:         186695          cutoff [a.u.]          320.00
 count for grid        2:          40197          cutoff [a.u.]          106.67
 count for grid        3:          30551          cutoff [a.u.]           35.56
 count for grid        4:          10593          cutoff [a.u.]           11.85
 count for grid        5:            130          cutoff [a.u.]            3.95
 total gridlevel count  :         268166

 -------------------------------------------------------------------------------
 -                                                                             -
 -                           R E F E R E N C E S                               -
 -                                                                             -
 -------------------------------------------------------------------------------
 
 CP2K version 2026.2 (Development Version), the CP2K developers group (2026).
 CP2K is freely available from https://www.cp2k.org/ .
 
 M. Iannuzzi, J. Wilhelm, F. Stein, A. Bussy, H. Elgabarty, D. Golze, A. Hehn, 
 M. Graml, S. Marek, B. Sertcan Gökmen, C. Schran, H. Forbert, R. Z. 
 Khaliullin, A. Kozhevnikov, M. Taillefumier, R. Meli, V. V. Rybkin, M. Brehm, 
 R. Schade, O. Schütt, J. V. Pototschnig, H. Mirhosseini, A. Knüpfer, D. Marx, 
 M. Krack, J. Hutter, T. D. Kühne.
 J. Phys. Chem. B 130, 1237-1310 (2026).
 The CP2K Program Package Made Simple.
 https://doi.org/10.1021/acs.jpcb.5c05851

 L. Wittmann, I. Gordiy, M. Friede, B. Helmich-Paris, S. Grimme, A. Hansen, M. 
 Bursch.
 Phys. Chem. Chem. Phys. 26, 21379-21394 (2024).
 Extension of the D3 and D4 London dispersion corrections to the full actinides 
 series.
 https://doi.org/10.1039/d4cp01514b

 T. D. Kühne, M. Iannuzzi, M. Del Ben, V. V. Rybkin, P. Seewald, F. Stein, T. 
 Laino, R. Z. Khaliullin, O. Schütt, F. Schiffmann, D. Golze, J. Wilhelm, S. 
 Chulkov, M. H. Bani-Hashemian, V. Weber, U. Borstnik, M. Taillefumier, A. S. 
 Jakobovits, A. Lazzaro, H. Pabst, T. Müller, R. Schade, M. Guidon, S. 
 Andermatt, N. Holmberg, G. K. Schenter, A. Hehn, A. Bussy, F. Belleflamme, G. 
 Tabacchi, A. Glöß, M. Lass, I. Bethune, C. J. Mundy, C. Plessl, M. Watkins, 
 J. VandeVondele, M. Krack, J. Hutter.
 J. Chem. Phys. 152, 194103 (2020).
 CP2K: An electronic structure and molecular dynamics software package - 
 Quickstep: Efficient and accurate electronic structure calculations.
 https://doi.org/10.1063/5.0007045

 L. Goerigk, A. Hansen, C. Bauer, S. Ehrlich, A. Najibi, S. Grimme.
 Phys. Chem. Chem. Phys. 19, 32184-32215 (2017).
 A look at the density functional theory zoo with the advanced GMTKN55 database 
 for general main group thermochemistry, kinetics and noncovalent interactions.
 https://doi.org/10.1039/C7CP04913G

 O. Schuett, P. Messmer, J. Hutter, J. VandeVondele.
 Electronic Structure Calculations on Graphics Processing Units, 173-190 (2016).
 GPU-Accelerated Sparse Matrix-Matrix Multiplication for Linear Scaling Density 
 Functional Theory.
 https://doi.org/10.1002/9781118670712.ch8

 U. Borstnik, J. VandeVondele, V. Weber, J. Hutter.
 Parallel Comput. 40, 47-58 (2014).
 Sparse matrix multiplication: The distributed block-compressed sparse row 
 library.
 https://doi.org/10.1016/j.parco.2014.03.012

 S. Grimme, S. Ehrlich, L. Goerigk.
 J. Comput. Chem. 32, 1456 (2011).
 Effect of the damping function in dispersion corrected density functional 
 theory.
 https://doi.org/10.1002/jcc.21759

 S. Grimme, J. Antony, S. Ehrlich, H. Krieg.
 J. Chem. Phys. 132, 154104 (2010).
 A consistent and accurate ab initio parametrization of density functional 
 dispersion correction (DFT-D) for the 94 elements H-Pu.
 https://doi.org/10.1063/1.3382344

 J. VandeVondele, J. Hutter.
 J. Chem. Phys. 127, 114105 (2007).
 Gaussian basis sets for accurate calculations on molecular systems in gas and 
 condensed phases.
 https://doi.org/10.1063/1.2770708

 M. Frigo, S. G. Johnson.
 Proc. IEEE 93, 216-231 (2005).
 The design and implementation of FFTW3.
 https://doi.org/10.1109/JPROC.2004.840301

 J. VandeVondele, J. Hutter.
 J. Chem. Phys. 118, 4365-4369 (2003).
 An efficient orbital transformation method for electronic structure 
 calculations.
 https://doi.org/10.1063/1.1543154

 M. Krack, M. Parrinello.
 Phys. Chem. Chem. Phys. 2, 2105-2112 (2000).
 All-electron ab-initio molecular dynamics.
 https://doi.org/10.1039/b001167n

 G. Lippert, J. Hutter, M. Parrinello.
 Theor. Chem. Acc. 103, 124-140 (1999).
 The Gaussian and augmented-plane-wave density functional method for ab initio 
 molecular dynamics simulations.
 https://doi.org/10.1007/s002140050523


 -------------------------------------------------------------------------------
 -                                                                             -
 -                                T I M I N G                                  -
 -                                                                             -
 -------------------------------------------------------------------------------
 SUBROUTINE                       CALLS  ASD         SELF TIME        TOTAL TIME
                                MAXIMUM       AVERAGE  MAXIMUM  AVERAGE  MAXIMUM
 CP2K                                 1  1.0     2.63     2.63 38389.78 38389.78
 qs_energies                          1  2.0     0.00     0.00 38360.99 38360.99
 scf_env_do_scf                       1  3.0     0.00     0.00 38349.19 38349.19
 scf_env_do_scf_inner_loop          144  4.0     0.45     0.45 38024.50 38024.50
 qs_ks_update_qs_env                145  5.0     0.00     0.00 36793.10 36793.10
 rebuild_ks_matrix                  144  6.0     0.00     0.00 36792.91 36792.91
 qs_ks_build_kohn_sham_matrix       144  7.0     0.05     0.05 36792.91 36792.91
 calculate_vxc_atom                 144  8.0 18674.50 18674.50 35127.54 35127.54
 skala_atom_torch_backward          576  9.0  5223.58  5223.58  5223.58  5223.58
 fft_wrap_pw1pw2                   4476  9.6     0.12     0.12  3584.20  3584.20
 fft_wrap_pw1pw2_320               2164 10.7  1169.04  1169.04  3368.52  3368.52
 calc_tau_atom                    14256  9.0  3105.91  3105.91  3105.91  3105.91
 skala_atom_torch_forward           576  9.0     0.20     0.20  2790.19  2790.19
 torch_model_forward_mol_tensor     576 10.0  2789.99  2789.99  2789.99  2789.99
 gaVxcgb_GC                        9504  9.0  1932.21  1932.21  1932.21  1932.21
 dgaVtaudgb                        9504  9.0  1563.55  1563.55  1563.55  1563.55
 qs_rho_update_rho_low              145  5.0     0.00     0.00  1560.06  1560.06
 calculate_rho_elec                 290  6.0   123.57   123.57  1553.34  1553.34
 xc_pw_derive                       864  9.5     0.01     0.01  1408.97  1408.97
 fft3d_s                           4477 11.6  1141.41  1141.41  1141.48  1141.48
 density_rs2pw                      290  7.0     0.02     0.02  1090.57  1090.57
 xc_pw_divergence                   144  9.0     0.01     0.01   947.33   947.33
 pw_scatter_s                      2162 12.1   920.13   920.13   920.13   920.13
 -------------------------------------------------------------------------------

 The number of warnings for this run is : 0
 
 -------------------------------------------------------------------------------
  **** **** ******  **  PROGRAM ENDED AT                 2026-08-26 20:07:42.434
 ***** ** ***  *** **   PROGRAM RAN ON                                    cge063
 **    ****   ******    PROGRAM RAN BY                                  kuehne88
 ***** **    ** ** **   PROGRAM PROCESS ID                               1452719
  **** **  *******  **  PROGRAM STOPPED IN /data/home2/kuehne88/cp2k-native-skal
                                           a/validation-uzh/diet-production-p25/
                                           shared-gapw-ae/e416a91deea914db4d2bae
                                           981d58e93623122a8f
