 DBCSR| CPU Multiplication driver                                           BLAS (U)
 DBCSR| Multrec recursion limit                                              512 (U)
 DBCSR| Multiplication stack size                                           1000 (D)
 DBCSR| Maximum elements for images                                    UNLIMITED (U)
 DBCSR| Multiplicative factor virtual images                                   1 (U)
 DBCSR| Use multiplication densification                                       T (D)
 DBCSR| Multiplication size stacks                                             3 (U)
 DBCSR| Use memory pool for CPU allocation                                     F (U)
 DBCSR| Number of 3D layers                                               SINGLE (U)
 DBCSR| Use MPI memory allocation                                              F (U)
 DBCSR| Use RMA algorithm                                                      F (U)
 DBCSR| Use Communication thread                                               T (U)
 DBCSR| Communication thread load                                             15 (D)
 DBCSR| MPI: My process id                                                     0
 DBCSR| MPI: Number of processes                                               1
 DBCSR| OMP: Current number of threads                                        20
 DBCSR| OMP: Max number of threads                                            20
 DBCSR| Split modifier for TAS multiplication algorithm                  1.0E+00 (U)


  **** **** ******  **  PROGRAM STARTED AT               2026-08-31 21:36:30.506
 ***** ** ***  *** **   PROGRAM STARTED ON                                 terok
 **    ****   ******    PROGRAM STARTED BY                              kuehne88
 ***** **    ** ** **   PROGRAM PROCESS ID                                453123
  **** **  *******  **  PROGRAM STARTED IN /home/kuehne88/work/native-skala-tero
                                           k/goldzak12/runs/production/hybrid-di
                                           rect/LiCl/v05

 CP2K| version string:                 CP2K version 2026.2 (Development Version)
 CP2K| source code revision number:                                   c1bff3eeb8
 CP2K| cp2kflags: omp fftw3 gauxc gauxc_mpi gauxc_onedft gauxc_host parallel sca
 CP2K|            lapack mpi_f08 openblas libtorch libtorch_cuda
 CP2K| is freely available from                            https://www.cp2k.org/
 CP2K| Program compiled at                                   2026-08-24 23:53:18
 CP2K| Program compiled on                                                 terok
 CP2K| Program compiled for                                               x86_64
 CP2K| Data directory path    /home/kuehne88/work/native-skala-terok/install-gau
 CP2K| Input file name                                          actual-input.inp

 GLOBAL| Force Environment number                                              1
 GLOBAL| Basis set file name                             BASIS_MOLOPT_UZH_2026.2
 GLOBAL| Potential file name                                POTENTIAL_UZH_2026.2
 GLOBAL| MM Potential file name                                     MM_POTENTIAL
 GLOBAL| Coordinate file name                                      __STD_INPUT__
 GLOBAL| Method name                                                        CP2K
 GLOBAL| Project name                   G12_LiCl_hybrid-direct_v0p9888888889_k55
 GLOBAL| Run type                                                         ENERGY
 GLOBAL| FFT library                                                       FFTW3
 GLOBAL| Diagonalization library                                       ScaLAPACK
 GLOBAL| Cholesky decomposition library                                ScaLAPACK
 GLOBAL| DGEMM library                                                      BLAS
 GLOBAL| Direct generalized diagonalization requested                          F
 GLOBAL| Orthonormality check for eigenvectors                          DISABLED
 GLOBAL| Matrix multiplication library                                 ScaLAPACK
 GLOBAL| All-to-all communication in single precision                          F
 GLOBAL| FFTs using library dependent lengths                                  F
 GLOBAL| Grid backend                                                       AUTO
 GLOBAL| Global print level                                               MEDIUM
 GLOBAL| MPI I/O enabled                                                       T
 GLOBAL| Total number of message passing processes                             1
 GLOBAL| Number of distributed systems (nodes)                                 1
 GLOBAL| Number of threads for this process                                   20
 GLOBAL| This output is from process                                           0
 GLOBAL| OpenMP stack size per thread (OMP_STACKSIZE)                       512M
 GLOBAL| CPU model name                                       AMD EPYC Processor

 MEMORY| system memory details [Kb]
 MEMORY|                        rank 0           min           max       average
 MEMORY| MemTotal            528104844     528104844     528104844     528104844
 MEMORY| MemFree             352889552     352889552     352889552     352889552
 MEMORY| Buffers                   664           664           664           664
 MEMORY| Cached              141507720     141507720     141507720     141507720
 MEMORY| Slab                 26789236      26789236      26789236      26789236
 MEMORY| SReclaimable         22319704      22319704      22319704      22319704
 MEMORY| MemLikelyFree       516717640     516717640     516717640     516717640


 *** Fundamental physical constants (SI units) ***

 *** Literature: B. J. Mohr and B. N. Taylor,
 ***             CODATA recommended values of the fundamental physical
 ***             constants: 2006, Web Version 5.1
 ***             http://physics.nist.gov/constants

 Speed of light in vacuum [m/s]                             2.99792458000000E+08
 Magnetic constant or permeability of vacuum [N/A**2]       1.25663706143592E-06
 Electric constant or permittivity of vacuum [F/m]          8.85418781762039E-12
 Planck constant (h) [J*s]                                  6.62606896000000E-34
 Planck constant (h-bar) [J*s]                              1.05457162825177E-34
 Elementary charge [C]                                      1.60217648700000E-19
 Electron mass [kg]                                         9.10938215000000E-31
 Electron g factor [ ]                                     -2.00231930436220E+00
 Proton mass [kg]                                           1.67262163700000E-27
 Fine-structure constant                                    7.29735253760000E-03
 Rydberg constant [1/m]                                     1.09737315685270E+07
 Avogadro constant [1/mol]                                  6.02214179000000E+23
 Boltzmann constant [J/K]                                   1.38065040000000E-23
 Atomic mass unit [kg]                                      1.66053878200000E-27
 Bohr radius [m]                                            5.29177208590000E-11

 *** Conversion factors ***

 [u] -> [a.u.]                                              1.82288848426455E+03
 [Angstrom] -> [Bohr] = [a.u.]                              1.88972613288564E+00
 [a.u.] = [Bohr] -> [Angstrom]                              5.29177208590000E-01
 [a.u.] -> [s]                                              2.41888432650478E-17
 [a.u.] -> [fs]                                             2.41888432650478E-02
 [a.u.] -> [J]                                              4.35974393937059E-18
 [a.u.] -> [N]                                              8.23872205491840E-08
 [a.u.] -> [K]                                              3.15774647902944E+05
 [a.u.] -> [kJ/mol]                                         2.62549961709828E+03
 [a.u.] -> [kcal/mol]                                       6.27509468713739E+02
 [a.u.] -> [Pa]                                             2.94210107994716E+13
 [a.u.] -> [bar]                                            2.94210107994716E+08
 [a.u.] -> [atm]                                            2.90362800883016E+08
 [a.u.] -> [eV]                                             2.72113838565563E+01
 [a.u.] -> [Hz]                                             6.57968392072181E+15
 [a.u.] -> [1/cm] (wave numbers)                            2.19474631370540E+05
 [a.u./Bohr**2] -> [1/cm]                                   5.14048714338585E+03
 

 CELL| Volume [angstrom^3]:                                           129.028376
 CELL| Vector a [angstrom]:       5.053     0.000     0.000   |a| =     5.053145
 CELL| Vector b [angstrom]:       0.000     5.053     0.000   |b| =     5.053145
 CELL| Vector c [angstrom]:       0.000     0.000     5.053   |c| =     5.053145
 CELL| Angle (b,c), alpha [degree]:                                    90.000000
 CELL| Angle (a,c), beta  [degree]:                                    90.000000
 CELL| Angle (a,b), gamma [degree]:                                    90.000000
 CELL| Numerically orthorhombic:                                             YES
 CELL| Periodicity                                                           XYZ

 CELL_REF| Volume [angstrom^3]:                                       129.028376
 CELL_REF| Vector a [angstrom     5.053     0.000     0.000   |a| =     5.053145
 CELL_REF| Vector b [angstrom     0.000     5.053     0.000   |b| =     5.053145
 CELL_REF| Vector c [angstrom     0.000     0.000     5.053   |c| =     5.053145
 CELL_REF| Angle (b,c), alpha [degree]:                                90.000000
 CELL_REF| Angle (a,c), beta  [degree]:                                90.000000
 CELL_REF| Angle (a,b), gamma [degree]:                                90.000000
 CELL_REF| Numerically orthorhombic:                                         YES
 CELL_REF| Periodicity                                                       XYZ

 GENERATE|  Preliminary Number of Bonds generated:                             0
 GENERATE|  Achieved consistency in connectivity generation.

 *** WARNING in cryssym.F:203 :: Symmetry library SPGLIB not available ***


 *******************************************************************************
 *******************************************************************************
 **                                                                           **
 **     #####                         ##              ##                      **
 **    ##   ##            ##          ##              ##                      **
 **   ##     ##                       ##            ######                    **
 **   ##     ##  ##   ##  ##   #####  ##  ##   ####   ##    #####    #####    **
 **   ##     ##  ##   ##  ##  ##      ## ##   ##      ##   ##   ##  ##   ##   **
 **   ##  ## ##  ##   ##  ##  ##      ####     ###    ##   ######   ######    **
 **    ##  ###   ##   ##  ##  ##      ## ##      ##   ##   ##       ##        **
 **     #######   #####   ##   #####  ##  ##  ####    ##    #####   ##        **
 **           ##                                                    ##        **
 **                                                                           **
 **                                                ... make the atoms dance   **
 **                                                                           **
 **            Copyright (C) by CP2K developers group (2000-2026)             **
 **                      J. Chem. Phys. 152, 194103 (2020)                    **
 **                                                                           **
 *******************************************************************************

 DFT| Spin restricted Kohn-Sham (RKS) calculation                            RKS
 DFT| Multiplicity                                                             1
 DFT| Number of spin states                                                    1
 DFT| Charge                                                                   0
 DFT| Self-interaction correction (SIC)                                       NO
 DFT| Cutoffs: density                                              1.000000E-10
 DFT|          gradient                                             1.000000E-10
 DFT|          tau                                                  1.000000E-10
 DFT|          cutoff_smoothing_range                               0.000000E+00
 DFT| XC density smoothing                                                  NONE
 DFT| XC derivatives                                                          PW

 FUNCTIONAL| GAUXC:
 FUNCTIONAL| Functional computed by GauXC Skala model SKALA                     

 vdW POTENTIAL|                                                   Pair Potential
 vdW POTENTIAL|          DFT-D3 (Version 3.1)
 vdW POTENTIAL|          Potential Form: S. Grimme et al, JCP 132: 154104 (2010)
 vdW POTENTIAL|          BJ Damping: S. Grimme et al, JCC 32: 1456 (2011)
 vdW POTENTIAL|          Cutoff Radius [Bohr]:                             37.79
 vdW POTENTIAL|          s6 Scaling Factor:                               1.0000
 vdW POTENTIAL|          a1 Damping Factor:                               0.3981
 vdW POTENTIAL|          s8 Scaling Factor:                               1.9889
 vdW POTENTIAL|          a2 Damping Factor:                               4.4211
 vdW POTENTIAL|          Cutoff for CN calculation:                   0.1000E-05

 QS| Method:                                                                GAPW
 QS| Density plane wave grid type                        NON-SPHERICAL FULLSPACE
 QS| Number of grid levels:                                                    5
 QS| Density cutoff [a.u.]:                                                400.0
 QS| Multi grid cutoff [a.u.]: 1) grid level                               400.0
 QS|                           2) grid level                               133.3
 QS|                           3) grid level                                44.4
 QS|                           4) grid level                                14.8
 QS|                           5) grid level                                 4.9
 QS| Grid level progression factor:                                          3.0
 QS| Relative density cutoff [a.u.]:                                        30.0
 QS| Interaction thresholds: eps_pgf_orb:                                1.0E-06
 QS|                         eps_filter_matrix:                          0.0E+00
 QS|                         eps_core_charge:                            1.0E-14
 QS|                         eps_rho_gspace:                             1.0E-12
 QS|                         eps_rho_rspace:                             1.0E-12
 QS|                         eps_gvg_rspace:                             1.0E-06
 QS|                         eps_ppl:                                    1.0E-02
 QS|                         eps_ppnl:                                   1.0E-08
 QS| GAPW|      XC integration using accurate scheme: Ref. exponent     6.000000
 QS| GAPW|      One center basis extended with primitives (small:s)
 QS| GAPW|                   eps_fit:                                    1.0E-04
 QS| GAPW|                   eps_iso:                                    1.0E-12
 QS| GAPW|                   eps_svd:                                    1.0E-08
 QS| GAPW|                   eps_cpc:                                    1.0E-12
 QS| GAPW|   atom-r-grid: quadrature:                                     GC_LOG
 QS| GAPW|      atom-s-grid:  max l :                                          6
 QS| GAPW|      max_l_rho0 :                                                   4
 QS| GAPW|      At least one kind is NOT PAW, i.e. it has only soft AO 
 QS| GAPW|      The NOT PAW atoms are treated fully GPW


 ATOMIC KIND INFORMATION

  1. Atomic kind: Li                                    Number of atoms:       4

     Orbital Basis Set                                       TZVPP-MOLOPT-PBE-ae

       Number of orbital shell sets:                                           2
       Number of orbital shells:                                               9
       Number of primitive Cartesian functions:                               11
       Number of Cartesian basis functions:                                   20
       Number of spherical basis functions:                                   19
       Norm type:                                                              2

       Normalised Cartesian orbitals:

                        Set   Shell   Orbital            Exponent    Coefficient

                          1       1    1s             6269.059024       0.195526
                                                       940.419254       0.355467
                                                       214.089215       0.613400
                                                        60.725519       1.001660
                                                        18.086742       1.629632
                                                         5.657040       1.936268

                          2       1    1s                1.933558      -1.060981
                                                         0.680928       0.544799
                                                         0.237636      -0.232469
                                                         0.071007       0.213026
                                                         0.024646      -0.078105

                          2       2    2s                1.933558       0.593777
                                                         0.680928       0.156290
                                                         0.237636       0.022101
                                                         0.071007       0.022458
                                                         0.024646       0.006228

                          2       3    3s                1.933558      -0.462606
                                                         0.680928       0.047064
                                                         0.237636       0.065312
                                                         0.071007       0.033037
                                                         0.024646       0.023237

                          2       4    4s                1.933558       0.448387
                                                         0.680928      -0.668780
                                                         0.237636      -0.047989
                                                         0.071007       0.074011
                                                         0.024646       0.005162

                          2       5    2px               1.933558       5.053657
                                                         0.680928      -1.218050
                                                         0.237636       0.077898
                                                         0.071007      -0.000886
                                                         0.024646       0.000822
                          2       5    2py               1.933558       5.053657
                                                         0.680928      -1.218050
                                                         0.237636       0.077898
                                                         0.071007      -0.000886
                                                         0.024646       0.000822
                          2       5    2pz               1.933558       5.053657
                                                         0.680928      -1.218050
                                                         0.237636       0.077898
                                                         0.071007      -0.000886
                                                         0.024646       0.000822

                          2       6    3px               1.933558       0.147169
                                                         0.680928       0.093238
                                                         0.237636       0.080413
                                                         0.071007      -0.021942
                                                         0.024646      -0.010239
                          2       6    3py               1.933558       0.147169
                                                         0.680928       0.093238
                                                         0.237636       0.080413
                                                         0.071007      -0.021942
                                                         0.024646      -0.010239
                          2       6    3pz               1.933558       0.147169
                                                         0.680928       0.093238
                                                         0.237636       0.080413
                                                         0.071007      -0.021942
                                                         0.024646      -0.010239

                          2       7    4px               1.933558       0.036550
                                                         0.680928       0.121719
                                                         0.237636       0.129113
                                                         0.071007       0.023413
                                                         0.024646       0.000237
                          2       7    4py               1.933558       0.036550
                                                         0.680928       0.121719
                                                         0.237636       0.129113
                                                         0.071007       0.023413
                                                         0.024646       0.000237
                          2       7    4pz               1.933558       0.036550
                                                         0.680928       0.121719
                                                         0.237636       0.129113
                                                         0.071007       0.023413
                                                         0.024646       0.000237

                          2       8    3dx2              1.933558      -0.256537
                                                         0.680928       0.100225
                                                         0.237636       0.091398
                                                         0.071007       0.006388
                                                         0.024646      -0.000157
                          2       8    3dxy              1.933558      -0.444335
                                                         0.680928       0.173596
                                                         0.237636       0.158306
                                                         0.071007       0.011064
                                                         0.024646      -0.000271
                          2       8    3dxz              1.933558      -0.444335
                                                         0.680928       0.173596
                                                         0.237636       0.158306
                                                         0.071007       0.011064
                                                         0.024646      -0.000271
                          2       8    3dy2              1.933558      -0.256537
                                                         0.680928       0.100225
                                                         0.237636       0.091398
                                                         0.071007       0.006388
                                                         0.024646      -0.000157
                          2       8    3dyz              1.933558      -0.444335
                                                         0.680928       0.173596
                                                         0.237636       0.158306
                                                         0.071007       0.011064
                                                         0.024646      -0.000271
                          2       8    3dz2              1.933558      -0.256537
                                                         0.680928       0.100225
                                                         0.237636       0.091398
                                                         0.071007       0.006388
                                                         0.024646      -0.000157

       Atomic covalent radius [Angstrom]:                                  1.230

       Atomic van der Waals radius [Angstrom]:                             1.820

     The atoms of this atomic kind are PAW atoms (GAPW):
       Hard Gaussian function radius:                                      1.520
       Rho0 radius:                                                        1.520
       Maximum GTO radius used for PAW projector construction:            24.566

     GAPW Soft Basis Set                                TZVPP-MOLOPT-PBE-ae_soft

       Number of orbital shell sets:                                           2
       Number of orbital shells:                                               9
       Number of primitive Cartesian functions:                                5
       Number of Cartesian basis functions:                                   20
       Number of spherical basis functions:                                   19
       Norm type:                                                              2

       Normalised Cartesian orbitals:

                        Set   Shell   Orbital            Exponent    Coefficient

                          1       1    1s         

                          2       1    1s                1.933558      -1.060981
                                                         0.680928       0.544799
                                                         0.237636      -0.232469
                                                         0.071007       0.213026
                                                         0.024646      -0.078105

                          2       2    2s                1.933558       0.593777
                                                         0.680928       0.156290
                                                         0.237636       0.022101
                                                         0.071007       0.022458
                                                         0.024646       0.006228

                          2       3    3s                1.933558      -0.462606
                                                         0.680928       0.047064
                                                         0.237636       0.065312
                                                         0.071007       0.033037
                                                         0.024646       0.023237

                          2       4    4s                1.933558       0.448387
                                                         0.680928      -0.668780
                                                         0.237636      -0.047989
                                                         0.071007       0.074011
                                                         0.024646       0.005162

                          2       5    2px               1.933558       5.053657
                                                         0.680928      -1.218050
                                                         0.237636       0.077898
                                                         0.071007      -0.000886
                                                         0.024646       0.000822
                          2       5    2py               1.933558       5.053657
                                                         0.680928      -1.218050
                                                         0.237636       0.077898
                                                         0.071007      -0.000886
                                                         0.024646       0.000822
                          2       5    2pz               1.933558       5.053657
                                                         0.680928      -1.218050
                                                         0.237636       0.077898
                                                         0.071007      -0.000886
                                                         0.024646       0.000822

                          2       6    3px               1.933558       0.147169
                                                         0.680928       0.093238
                                                         0.237636       0.080413
                                                         0.071007      -0.021942
                                                         0.024646      -0.010239
                          2       6    3py               1.933558       0.147169
                                                         0.680928       0.093238
                                                         0.237636       0.080413
                                                         0.071007      -0.021942
                                                         0.024646      -0.010239
                          2       6    3pz               1.933558       0.147169
                                                         0.680928       0.093238
                                                         0.237636       0.080413
                                                         0.071007      -0.021942
                                                         0.024646      -0.010239

                          2       7    4px               1.933558       0.036550
                                                         0.680928       0.121719
                                                         0.237636       0.129113
                                                         0.071007       0.023413
                                                         0.024646       0.000237
                          2       7    4py               1.933558       0.036550
                                                         0.680928       0.121719
                                                         0.237636       0.129113
                                                         0.071007       0.023413
                                                         0.024646       0.000237
                          2       7    4pz               1.933558       0.036550
                                                         0.680928       0.121719
                                                         0.237636       0.129113
                                                         0.071007       0.023413
                                                         0.024646       0.000237

                          2       8    3dx2              1.933558      -0.256537
                                                         0.680928       0.100225
                                                         0.237636       0.091398
                                                         0.071007       0.006388
                                                         0.024646      -0.000157
                          2       8    3dxy              1.933558      -0.444335
                                                         0.680928       0.173596
                                                         0.237636       0.158306
                                                         0.071007       0.011064
                                                         0.024646      -0.000271
                          2       8    3dxz              1.933558      -0.444335
                                                         0.680928       0.173596
                                                         0.237636       0.158306
                                                         0.071007       0.011064
                                                         0.024646      -0.000271
                          2       8    3dy2              1.933558      -0.256537
                                                         0.680928       0.100225
                                                         0.237636       0.091398
                                                         0.071007       0.006388
                                                         0.024646      -0.000157
                          2       8    3dyz              1.933558      -0.444335
                                                         0.680928       0.173596
                                                         0.237636       0.158306
                                                         0.071007       0.011064
                                                         0.024646      -0.000271
                          2       8    3dz2              1.933558      -0.256537
                                                         0.680928       0.100225
                                                         0.237636       0.091398
                                                         0.071007       0.006388
                                                         0.024646      -0.000157

     AE Potential information for                                            ALL

       Description:                                       All-electron potential
                                          Krack, Parrinello, PCCP 2, 2105 (2000)

       Gaussian exponent of the core charge distribution:               3.125000
       Electronic configuration (s p d ...):                           3   0   0

  2. Atomic kind: Cl                                    Number of atoms:       4

     Orbital Basis Set                                   TZV2P-MOLOPT-PBE-GTH-q7

       Number of orbital shell sets:                                           1
       Number of orbital shells:                                               9
       Number of primitive Cartesian functions:                                4
       Number of Cartesian basis functions:                                   34
       Number of spherical basis functions:                                   29
       Norm type:                                                              2

       Normalised Cartesian orbitals:

                        Set   Shell   Orbital            Exponent    Coefficient

                          1       1    2s                1.998248       0.474127
                                                         1.503631      -0.298602
                                                         0.406509      -0.170002
                                                         0.128538      -0.091923

                          1       2    3s                1.998248       0.878043
                                                         1.503631      -0.090105
                                                         0.406509      -0.545023
                                                         0.128538       0.260422

                          1       3    4s                1.998248       0.030172
                                                         1.503631      -1.270839
                                                         0.406509       0.168869
                                                         0.128538       0.050189

                          1       4    3px               1.998248       1.035211
                                                         1.503631      -1.044903
                                                         0.406509      -0.274741
                                                         0.128538      -0.041581
                          1       4    3py               1.998248       1.035211
                                                         1.503631      -1.044903
                                                         0.406509      -0.274741
                                                         0.128538      -0.041581
                          1       4    3pz               1.998248       1.035211
                                                         1.503631      -1.044903
                                                         0.406509      -0.274741
                                                         0.128538      -0.041581

                          1       5    4px               1.998248       0.846287
                                                         1.503631      -0.665007
                                                         0.406509      -0.214639
                                                         0.128538       0.137550
                          1       5    4py               1.998248       0.846287
                                                         1.503631      -0.665007
                                                         0.406509      -0.214639
                                                         0.128538       0.137550
                          1       5    4pz               1.998248       0.846287
                                                         1.503631      -0.665007
                                                         0.406509      -0.214639
                                                         0.128538       0.137550

                          1       6    5px               1.998248      -1.228895
                                                         1.503631      -1.929331
                                                         0.406509       0.181784
                                                         0.128538       0.003953
                          1       6    5py               1.998248      -1.228895
                                                         1.503631      -1.929331
                                                         0.406509       0.181784
                                                         0.128538       0.003953
                          1       6    5pz               1.998248      -1.228895
                                                         1.503631      -1.929331
                                                         0.406509       0.181784
                                                         0.128538       0.003953

                          1       7    4dx2              1.998248       0.400992
                                                         1.503631       0.768662
                                                         0.406509       0.256895
                                                         0.128538       0.005608
                          1       7    4dxy              1.998248       0.694538
                                                         1.503631       1.331361
                                                         0.406509       0.444955
                                                         0.128538       0.009714
                          1       7    4dxz              1.998248       0.694538
                                                         1.503631       1.331361
                                                         0.406509       0.444955
                                                         0.128538       0.009714
                          1       7    4dy2              1.998248       0.400992
                                                         1.503631       0.768662
                                                         0.406509       0.256895
                                                         0.128538       0.005608
                          1       7    4dyz              1.998248       0.694538
                                                         1.503631       1.331361
                                                         0.406509       0.444955
                                                         0.128538       0.009714
                          1       7    4dz2              1.998248       0.400992
                                                         1.503631       0.768662
                                                         0.406509       0.256895
                                                         0.128538       0.005608

                          1       8    5dx2              1.998248      -1.963226
                                                         1.503631       5.042957
                                                         0.406509      -0.158524
                                                         0.128538       0.012321
                          1       8    5dxy              1.998248      -3.400407
                                                         1.503631       8.734658
                                                         0.406509      -0.274571
                                                         0.128538       0.021341
                          1       8    5dxz              1.998248      -3.400407
                                                         1.503631       8.734658
                                                         0.406509      -0.274571
                                                         0.128538       0.021341
                          1       8    5dy2              1.998248      -1.963226
                                                         1.503631       5.042957
                                                         0.406509      -0.158524
                                                         0.128538       0.012321
                          1       8    5dyz              1.998248      -3.400407
                                                         1.503631       8.734658
                                                         0.406509      -0.274571
                                                         0.128538       0.021341
                          1       8    5dz2              1.998248      -1.963226
                                                         1.503631       5.042957
                                                         0.406509      -0.158524
                                                         0.128538       0.012321

                          1       9    5fx3              1.998248      -0.939013
                                                         1.503631       1.405782
                                                         0.406509       0.163556
                                                         0.128538       0.000428
                          1       9    5fx2y             1.998248      -2.099697
                                                         1.503631       3.143425
                                                         0.406509       0.365723
                                                         0.128538       0.000958
                          1       9    5fx2z             1.998248      -2.099697
                                                         1.503631       3.143425
                                                         0.406509       0.365723
                                                         0.128538       0.000958
                          1       9    5fxy2             1.998248      -2.099697
                                                         1.503631       3.143425
                                                         0.406509       0.365723
                                                         0.128538       0.000958
                          1       9    5fxyz             1.998248      -3.636782
                                                         1.503631       5.444571
                                                         0.406509       0.633451
                                                         0.128538       0.001659
                          1       9    5fxz2             1.998248      -2.099697
                                                         1.503631       3.143425
                                                         0.406509       0.365723
                                                         0.128538       0.000958
                          1       9    5fy3              1.998248      -0.939013
                                                         1.503631       1.405782
                                                         0.406509       0.163556
                                                         0.128538       0.000428
                          1       9    5fy2z             1.998248      -2.099697
                                                         1.503631       3.143425
                                                         0.406509       0.365723
                                                         0.128538       0.000958
                          1       9    5fyz2             1.998248      -2.099697
                                                         1.503631       3.143425
                                                         0.406509       0.365723
                                                         0.128538       0.000958
                          1       9    5fz3              1.998248      -0.939013
                                                         1.503631       1.405782
                                                         0.406509       0.163556
                                                         0.128538       0.000428

       Atomic covalent radius [Angstrom]:                                  0.990

       Atomic van der Waals radius [Angstrom]:                             1.750

     GTH Potential information for                                    GTH-PBE-q7

       Description:                       Goedecker-Teter-Hutter pseudopotential
                                           Goedecker et al., PRB 54, 1703 (1996)
                                          Hartwigsen et al., PRB 58, 3641 (1998)
                                                      Krack, TCA 114, 145 (2005)

       Gaussian exponent of the core charge distribution:               2.972287
       Electronic configuration (s p d ...):                       2   5   0   0

       Parameters of the local part of the GTH pseudopotential:

                          rloc        C1          C2          C3          C4
                        0.410147   -6.378521

       Parameters of the non-local part of the GTH pseudopotential:

                   l      r(l)      h(i,j,l)

                   0    0.339553   15.219287   -4.934522
                                   -4.934522    6.370683
                   1    0.378489    4.338598


 MOLECULE KIND INFORMATION


 All atoms are their own molecule, skipping detailed information


 TOTAL NUMBERS AND MAXIMUM NUMBERS

  Total number of            - Atomic kinds:                                   2
                             - Atoms:                                          8
                             - Shell sets:                                    12
                             - Shells:                                        72
                             - Primitive Cartesian functions:                 60
                             - Cartesian basis functions:                    216
                             - Spherical basis functions:                    192

  Maximum angular momentum of- Orbital basis functions:                        3
                             - Local part of the GTH pseudopotential:          0
                             - Non-local part of the GTH pseudopotential:      2


 MODULE QUICKSTEP: ATOMIC COORDINATES IN ANGSTROM

   Atom Kind Element         X             Y             Z       Z(eff)     Mass
      1    1 Li    3      0.000000      0.000000      0.000000   3.0000   6.9410
      2    1 Li    3      0.000000      2.526572      2.526572   3.0000   6.9410
      3    1 Li    3      2.526572      0.000000      2.526572   3.0000   6.9410
      4    1 Li    3      2.526572      2.526572      0.000000   3.0000   6.9410
      5    2 Cl   17      2.526572      0.000000      0.000000   7.0000  35.4530
      6    2 Cl   17      0.000000      2.526572      0.000000   7.0000  35.4530
      7    2 Cl   17      0.000000      0.000000      2.526572   7.0000  35.4530
      8    2 Cl   17      2.526572      2.526572      2.526572   7.0000  35.4530



 SCF PARAMETERS         Density guess:                                    ATOMIC
                        --------------------------------------------------------
                        max_scf:                                             200
                        max_scf_history:                                       0
                        max_diis:                                              4
                        --------------------------------------------------------
                        eps_scf:                                        5.00E-06
                        eps_scf_history:                                0.00E+00
                        eps_diis:                                       1.00E-01
                        eps_eigval:                                     1.00E-05
                        --------------------------------------------------------
                        level_shift [a.u.]:                             0.000000
                        --------------------------------------------------------
                        Mixing method:                           DIRECT_P_MIXING
                        --------------------------------------------------------
                        Outer loop SCF in use 
                        No variables optimised in outer loop
                        eps_scf                                         5.00E-06
                        max_scf                                                5
                        No outer loop optimization
                        step_size                                       5.00E-01

 PW_GRID| Information for grid number                                          1
 PW_GRID| Cutoff [a.u.]                                                    400.0
 PW_GRID| spherical cutoff:                                                   NO
 PW_GRID|   Bounds   1            -45      44                Points:          90
 PW_GRID|   Bounds   2            -45      44                Points:          90
 PW_GRID|   Bounds   3            -45      44                Points:          90
 PW_GRID| Volume element (a.u.^3)  0.1194E-02     Volume (a.u.^3)       870.7267
 PW_GRID| Grid span                                                    FULLSPACE

 PW_GRID| Information for grid number                                          2
 PW_GRID| Number of the reference grid                                         1
 PW_GRID| Cutoff [a.u.]                                                    133.3
 PW_GRID| spherical cutoff:                                                   NO
 PW_GRID|   Bounds   1            -27      26                Points:          54
 PW_GRID|   Bounds   2            -27      26                Points:          54
 PW_GRID|   Bounds   3            -27      26                Points:          54
 PW_GRID| Volume element (a.u.^3)  0.5530E-02     Volume (a.u.^3)       870.7267
 PW_GRID| Grid span                                                    FULLSPACE

 PW_GRID| Information for grid number                                          3
 PW_GRID| Number of the reference grid                                         1
 PW_GRID| Cutoff [a.u.]                                                     44.4
 PW_GRID| spherical cutoff:                                                   NO
 PW_GRID|   Bounds   1            -15      14                Points:          30
 PW_GRID|   Bounds   2            -15      14                Points:          30
 PW_GRID|   Bounds   3            -15      14                Points:          30
 PW_GRID| Volume element (a.u.^3)  0.3225E-01     Volume (a.u.^3)       870.7267
 PW_GRID| Grid span                                                    FULLSPACE

 PW_GRID| Information for grid number                                          4
 PW_GRID| Number of the reference grid                                         1
 PW_GRID| Cutoff [a.u.]                                                     14.8
 PW_GRID| spherical cutoff:                                                   NO
 PW_GRID|   Bounds   1             -9       8                Points:          18
 PW_GRID|   Bounds   2             -9       8                Points:          18
 PW_GRID|   Bounds   3             -9       8                Points:          18
 PW_GRID| Volume element (a.u.^3)  0.1493         Volume (a.u.^3)       870.7267
 PW_GRID| Grid span                                                    FULLSPACE

 PW_GRID| Information for grid number                                          5
 PW_GRID| Number of the reference grid                                         1
 PW_GRID| Cutoff [a.u.]                                                      4.9
 PW_GRID| spherical cutoff:                                                   NO
 PW_GRID|   Bounds   1             -4       4                Points:           9
 PW_GRID|   Bounds   2             -4       4                Points:           9
 PW_GRID|   Bounds   3             -4       4                Points:           9
 PW_GRID| Volume element (a.u.^3)   1.194         Volume (a.u.^3)       870.7267
 PW_GRID| Grid span                                                    FULLSPACE

 POISSON| Solver                                                        PERIODIC
 POISSON| Periodicity                                                        XYZ

 RS_GRID| Information for grid number                                          1
 RS_GRID|   Bounds   1            -45      44                Points:          90
 RS_GRID|   Bounds   2            -45      44                Points:          90
 RS_GRID|   Bounds   3            -45      44                Points:          90

 RS_GRID| Information for grid number                                          2
 RS_GRID|   Bounds   1            -27      26                Points:          54
 RS_GRID|   Bounds   2            -27      26                Points:          54
 RS_GRID|   Bounds   3            -27      26                Points:          54

 RS_GRID| Information for grid number                                          3
 RS_GRID|   Bounds   1            -15      14                Points:          30
 RS_GRID|   Bounds   2            -15      14                Points:          30
 RS_GRID|   Bounds   3            -15      14                Points:          30

 RS_GRID| Information for grid number                                          4
 RS_GRID|   Bounds   1             -9       8                Points:          18
 RS_GRID|   Bounds   2             -9       8                Points:          18
 RS_GRID|   Bounds   3             -9       8                Points:          18

 RS_GRID| Information for grid number                                          5
 RS_GRID|   Bounds   1             -4       4                Points:           9
 RS_GRID|   Bounds   2             -4       4                Points:           9
 RS_GRID|   Bounds   3             -4       4                Points:           9

 *******************************************************************************
                                    Kpoints
 *******************************************************************************
 BRILLOUIN| K-point scheme                                        Monkhorst-Pack
 BRILLOUIN| K-Point grid                                             5    5    5
 BRILLOUIN| Gamma-centered k-point mesh                                     ON
 BRILLOUIN| K-point symmetry accuracy                               0.100000E-07
 BRILLOUIN| K-Point point group symmetrization                                ON
 BRILLOUIN| Symmetry backend                                               K290
 BRILLOUIN| Symmetry reduction method                                      K290
 BRILLOUIN| Wavefunction type                                            COMPLEX
 BRILLOUIN| List of Kpoints [2 Pi/Bohr]                                       10
 BRILLOUIN| Number           Weight            X              Y              Z
 BRILLOUIN|     1           0.06400       -0.40000       -0.40000       -0.40000
 BRILLOUIN|     2           0.19200       -0.40000       -0.40000       -0.20000
 BRILLOUIN|     3           0.09600       -0.40000       -0.40000        0.00000
 BRILLOUIN|     4           0.19200       -0.40000       -0.20000       -0.20000
 BRILLOUIN|     5           0.19200       -0.40000       -0.20000        0.00000
 BRILLOUIN|     6           0.04800       -0.40000        0.00000        0.00000
 BRILLOUIN|     7           0.06400       -0.20000       -0.20000       -0.20000
 BRILLOUIN|     8           0.09600       -0.20000       -0.20000        0.00000
 BRILLOUIN|     9           0.04800       -0.20000        0.00000        0.00000
 BRILLOUIN|    10           0.00800        0.00000        0.00000        0.00000
 *******************************************************************************

 Extrapolation method: initial_guess

 Atomic guess: The first density matrix is obtained in terms of atomic orbitals
               and electronic configurations assigned to each atomic kind

 Guess for atomic kind: Li

 Electronic structure
    Total number of core electrons                                          0.00
    Total number of valence electrons                                       3.00
    Total number of electrons                                               3.00
    Multiplicity                                                   not specified
    S      2.00  1.00


 *******************************************************************************
                  Iteration          Convergence                     Energy [au]
 *******************************************************************************
                          1        0.592964E-01                  -7.331097472699
                          2        0.143971E-01                  -7.331747780484
                          3        0.803097E-04                  -7.331782228116
                          4        0.825456E-05                  -7.331782257445
                          5        0.811740E-06                  -7.331782257491

 Energy components [Hartree]           Total Energy ::           -7.331782257491
                                        Band Energy ::           -3.806367302749
                                     Kinetic Energy ::            7.279362503968
                                   Potential Energy ::          -14.611144761459
                                      Virial (-V/T) ::            2.007201146185
                                        Core Energy ::           -9.716647912630
                                          XC Energy ::           -1.662459907451
                                     Coulomb Energy ::            4.047325562590

 Orbital energies  State     L     Occupation   Energy[a.u.]          Energy[eV]

                       1     0          2.000      -1.855112          -50.480164
                       2     0          1.000      -0.096143           -2.616194


 Total Electron Density at R=0:                                        13.312119

 Guess for atomic kind: Cl

 Electronic structure
    Total number of core electrons                                         10.00
    Total number of valence electrons                                       7.00
    Total number of electrons                                              17.00
    Multiplicity                                                   not specified
    S   [  2.00  2.00] 2.00
    P   [  6.00] 5.00


 *******************************************************************************
                  Iteration          Convergence                     Energy [au]
 *******************************************************************************
                          1        0.221822E-01                 -14.771254732634
                          2        0.254082E-01                 -14.771350251321
                          3        0.626082E-03                 -14.771474988612
                          4        0.348199E-05                 -14.771475091459
                          5        0.279111E-08                 -14.771475091463

 Energy components [Hartree]           Total Energy ::          -14.771475091463
                                        Band Energy ::           -2.980459630123
                                     Kinetic Energy ::            5.565342680316
                                   Potential Energy ::          -20.336817771779
                                      Virial (-V/T) ::            3.654189677072
                                        Core Energy ::          -24.665063559671
                                          XC Energy ::           -2.740744659353
                                     Coulomb Energy ::           12.634333127562
                       Total Pseudopotential Energy ::          -30.289780942398
                       Local Pseudopotential Energy ::          -33.418312085124
                    Nonlocal Pseudopotential Energy ::            3.128531142726
                                        Confinement ::            0.593747024103

 Orbital energies  State     L     Occupation   Energy[a.u.]          Energy[eV]

                       1     0          2.000      -0.742513          -20.204799

                       1     1          5.000      -0.299087           -8.138566


 Total Electron Density at R=0:                                         0.000319
 Re-scaling the density matrix to get the right number of electrons
                  # Electrons              Trace(P)               Scaling factor
                           40                40.000                        1.000

 Number of electrons:                                                         40
 Number of occupied orbitals:                                                 20
 Number of molecular orbitals:                                                20

 Number of orbital functions:                                                192
 Number of independent orbital functions:                                    192


 SCF WAVEFUNCTION OPTIMIZATION

  Step     Update method      Time    Convergence         Total energy    Change
  ------------------------------------------------------------------------------

 *** WARNING in qs_ks_methods.F:773 :: Native SKALA grid evaluation with   ***
 *** k-points is using the CPU TorchScript path. Use a mutually compatible ***
 *** BLAS, ScaLAPACK, OpenMP, and LibTorch runtime stack, or select        ***
 *** NATIVE_GRID_USE_CUDA T.                                               ***

 SKALA_GPW| Atom-composite cross support/maxima   2.298478252382E+00   4.201437156023E+00   2.488490976814E+01   2.032362922132E+01
 SKALA_GPW| Active atom-composite XC energy  -1.9225595830796529E+01
 SKALA_GPW| Active atom-composite electrons   4.0038347787450128E+01
 SKALA_GPW| Active atom-composite density range   1.7660857942709757E-03   6.6570395078085349E+00
 SKALA_GPW| Active atom-composite tau range   3.8413116373805481E-04   3.2512701942163176E+01
 SKALA_GPW| Active atom-composite tau integral   5.1398414789960697E+01
 SKALA_GPW| Active atom-composite max gradient   4.0591479459768962E+01
     1 P_Mix/Diag. 0.10E+00  390.8     0.54833281       -90.9669153336 -9.10E+01
 SKALA_GPW| Atom-composite cross support/maxima   2.298478252382E+00   4.206754460221E+00   2.491458659947E+01   2.034413714955E+01
 SKALA_GPW| Active atom-composite XC energy  -1.9284807237555544E+01
 SKALA_GPW| Active atom-composite electrons   4.0037784139818541E+01
 SKALA_GPW| Active atom-composite density range   1.6115750814803987E-03   6.6655894765335173E+00
 SKALA_GPW| Active atom-composite tau range   7.6430863963265348E-04   3.2543379616813247E+01
 SKALA_GPW| Active atom-composite tau integral   5.1629186491279626E+01
 SKALA_GPW| Active atom-composite max gradient   4.0637149625300360E+01
     2 P_Mix/Diag. 0.10E+00  380.5     0.49227467       -90.9465039753  2.04E-02
 SKALA_GPW| Atom-composite cross support/maxima   2.298478252382E+00   4.211530895929E+00   2.494114188319E+01   2.036228443404E+01
 SKALA_GPW| Active atom-composite XC energy  -1.9334853254190932E+01
 SKALA_GPW| Active atom-composite electrons   4.0037307477853247E+01
 SKALA_GPW| Active atom-composite density range   1.4731493857779027E-03   6.6732817663523987E+00
 SKALA_GPW| Active atom-composite tau range   9.2798425824859728E-04   3.2570457258215527E+01
 SKALA_GPW| Active atom-composite tau integral   5.1822341634091089E+01
 SKALA_GPW| Active atom-composite max gradient   4.0677910103735726E+01
     3 P_Mix/Diag. 0.10E+00  378.5     0.44178395       -90.9275812961  1.89E-02
 SKALA_GPW| Atom-composite cross support/maxima   2.298478252382E+00   4.215821279877E+00   2.496490301764E+01   2.037834020316E+01
 SKALA_GPW| Active atom-composite XC energy  -1.9377128826533998E+01
 SKALA_GPW| Active atom-composite electrons   4.0036904058915908E+01
 SKALA_GPW| Active atom-composite density range   1.3490132363168279E-03   6.6802019346007242E+00
 SKALA_GPW| Active atom-composite tau range   9.3871462939268749E-04   3.2594353180894430E+01
 SKALA_GPW| Active atom-composite tau integral   5.1984257868942024E+01
 SKALA_GPW| Active atom-composite max gradient   4.0714288063030786E+01
     4 P_Mix/Diag. 0.10E+00  380.1     0.39637107       -90.9101785706  1.74E-02
 SKALA_GPW| Atom-composite cross support/maxima   2.298478252382E+00   4.219676155742E+00   2.498617468583E+01   2.039256013054E+01
 SKALA_GPW| Active atom-composite XC energy  -1.9412859459736353E+01
 SKALA_GPW| Active atom-composite electrons   4.0036562240141741E+01
 SKALA_GPW| Active atom-composite density range   1.2375942537071686E-03   6.6864285644443751E+00
 SKALA_GPW| Active atom-composite tau range   9.4975620688522093E-04   3.2615466911293673E+01
 SKALA_GPW| Active atom-composite tau integral   5.2120249987270292E+01
 SKALA_GPW| Active atom-composite max gradient   4.0746776852890179E+01
     5 P_Mix/Diag. 0.10E+00  376.8     0.35558256       -90.8942712565  1.59E-02
 SKALA_GPW| Atom-composite cross support/maxima   2.298478252382E+00   4.223140266540E+00   2.500522622145E+01   2.040516940515E+01
 SKALA_GPW| Active atom-composite XC energy  -1.9443101887311165E+01
 SKALA_GPW| Active atom-composite electrons   4.0036272165667150E+01
 SKALA_GPW| Active atom-composite density range   1.1375140500014241E-03   6.6920312620022191E+00
 SKALA_GPW| Active atom-composite tau range   9.6082249060058258E-04   3.2634149772261161E+01
 SKALA_GPW| Active atom-composite tau integral   5.2234727987083602E+01
 SKALA_GPW| Active atom-composite max gradient   4.0775811868705127E+01
     6 P_Mix/Diag. 0.10E+00  375.6     0.31898726       -90.8797986813  1.45E-02
 SKALA_GPW| Atom-composite cross support/maxima   2.298478252382E+00   4.226252798589E+00   2.502229164243E+01   2.041636010651E+01
 SKALA_GPW| Active atom-composite XC energy  -1.9468753372468228E+01
 SKALA_GPW| Active atom-composite electrons   4.0036025514870595E+01
 SKALA_GPW| Active atom-composite density range   1.0475627353985458E-03   6.6970712043739855E+00
 SKALA_GPW| Active atom-composite tau range   9.7169865190919937E-04   3.2650699780198899E+01
 SKALA_GPW| Active atom-composite tau integral   5.2331339099421847E+01
 SKALA_GPW| Active atom-composite max gradient   4.0801769186486695E+01
     7 P_Mix/Diag. 0.10E+00  387.7     0.28617693       -90.8666774219  1.31E-02
 SKALA_GPW| Atom-composite cross support/maxima   2.298478252382E+00   4.229048191889E+00   2.503757432061E+01   2.042629476460E+01
 SKALA_GPW| Active atom-composite XC energy  -1.9490568415306090E+01
 SKALA_GPW| Active atom-composite electrons   4.0035815285883544E+01
 SKALA_GPW| Active atom-composite density range   9.6667475783620974E-04   6.7016024312136802E+00
 SKALA_GPW| Active atom-composite tau range   9.8222830367778987E-04   3.2665367206014722E+01
 SKALA_GPW| Active atom-composite tau integral   5.2413094109676820E+01
 SKALA_GPW| Active atom-composite max gradient   4.0824973025091836E+01
     8 P_Mix/Diag. 0.10E+00  376.4     0.25677082       -90.8548122414  1.19E-02
 SKALA_GPW| Atom-composite cross support/maxima   2.298478252382E+00   4.231557031284E+00   2.505125276871E+01   2.043511202708E+01
 SKALA_GPW| Active atom-composite XC energy  -1.9509177283666375E+01
 SKALA_GPW| Active atom-composite electrons   4.0035635605229224E+01
 SKALA_GPW| Active atom-composite density range   8.9390619831628633E-04   6.7056731873398183E+00
 SKALA_GPW| Active atom-composite tau range   9.9230235313135036E-04   3.2678363880049503E+01
 SKALA_GPW| Active atom-composite tau integral   5.2482477444589030E+01
 SKALA_GPW| Active atom-composite max gradient   4.0845705656776367E+01
     9 P_Mix/Diag. 0.10E+00  375.7     0.23041900       -90.8441033938  1.07E-02
 SKALA_GPW| Atom-composite cross support/maxima   2.298478252382E+00   4.233806762191E+00   2.506348552793E+01   2.044293185493E+01
 SKALA_GPW| Active atom-composite XC energy  -1.9525104035817879E+01
 SKALA_GPW| Active atom-composite electrons   4.0035481560805607E+01
 SKALA_GPW| Active atom-composite density range   8.2841641063126316E-04   6.7093269702147484E+00
 SKALA_GPW| Active atom-composite tau range   1.0018494208391751E-03   3.2689871825841713E+01
 SKALA_GPW| Active atom-composite tau integral   5.2541539672569272E+01
 SKALA_GPW| Active atom-composite max gradient   4.0864215990429727E+01
    10 P_Mix/Diag. 0.10E+00  372.4     0.20680332       -90.8344513662  9.65E-03
 SKALA_GPW| Atom-composite cross support/maxima   2.298478252382E+00   4.235822212534E+00   2.507441483925E+01   2.044985959453E+01
 SKALA_GPW| Active atom-composite XC energy  -1.9538783089335414E+01
 SKALA_GPW| Active atom-composite electrons   4.0035349057128634E+01
 SKALA_GPW| Active atom-composite density range   7.6945557899710758E-04   6.7126032791007102E+00
 SKALA_GPW| Active atom-composite tau range   1.0108275190047094E-03   3.2700050052559980E+01
 SKALA_GPW| Active atom-composite tau integral   5.2591972916724956E+01
 SKALA_GPW| Active atom-composite max gradient   4.0880726100927738E+01
    11 P_Mix/Diag. 0.10E+00  379.3     0.18563662       -90.8257601820  8.69E-03
 SKALA_GPW| Atom-composite cross support/maxima   2.298478252382E+00   4.237625963728E+00   2.508416926103E+01   2.045598889014E+01
 SKALA_GPW| Active atom-composite XC energy  -1.9550573946039840E+01
 SKALA_GPW| Active atom-composite electrons   4.0035234688514052E+01
 SKALA_GPW| Active atom-composite density range   7.1635548404012960E-04   6.7155381451404992E+00
 SKALA_GPW| Active atom-composite tau range   1.0192170050749314E-03   3.2709039391286581E+01
 SKALA_GPW| Active atom-composite tau integral   5.2635173131171030E+01
 SKALA_GPW| Active atom-composite max gradient   4.0895435878578859E+01
    12 P_Mix/Diag. 0.10E+00  385.6     0.16666089       -90.8179394763  7.82E-03
 SKALA_GPW| Atom-composite cross support/maxima   2.298478252382E+00   4.239238632586E+00   2.509286563596E+01   2.046140383230E+01
 SKALA_GPW| Active atom-composite XC energy  -1.9560773591597084E+01
 SKALA_GPW| Active atom-composite electrons   4.0035135627932689E+01
 SKALA_GPW| Active atom-composite density range   6.6852096411135187E-04   6.7181645364336200E+00
 SKALA_GPW| Active atom-composite tau range   1.0270148936924470E-03   3.2716966030195358E+01
 SKALA_GPW| Active atom-composite tau integral   5.2672292382644969E+01
 SKALA_GPW| Active atom-composite max gradient   4.0908526490499291E+01
    13 P_Mix/Diag. 0.10E+00  383.8     0.14964522       -90.8109051731  7.03E-03
 SKALA_GPW| Atom-composite cross support/maxima   2.298478252382E+00   4.240679057083E+00   2.510061036441E+01   2.046618030873E+01
 SKALA_GPW| Active atom-composite XC energy  -1.9569627773308820E+01
 SKALA_GPW| Active atom-composite electrons   4.0035049529670928E+01
 SKALA_GPW| Active atom-composite density range   6.2542087755484879E-04   6.7205126263748163E+00
 SKALA_GPW| Active atom-composite tau range   1.0342304243394741E-03   3.2723943707189335E+01
 SKALA_GPW| Active atom-composite tau integral   5.2704283084894833E+01
 SKALA_GPW| Active atom-composite max gradient   4.0920162591331426E+01
    14 P_Mix/Diag. 0.10E+00  387.2     0.13438328       -90.8045801195  6.33E-03
 SKALA_GPW| Atom-composite cross support/maxima   2.298478252382E+00   4.241964453736E+00   2.510750045148E+01   2.047038706079E+01
 SKALA_GPW| Active atom-composite XC energy  -1.9577339894774880E+01
 SKALA_GPW| Active atom-composite electrons   4.0034974446167411E+01
 SKALA_GPW| Active atom-composite density range   5.8658029078280003E-04   6.7226100250010701E+00
 SKALA_GPW| Active atom-composite tau range   1.0408816039019738E-03   3.2730075397741388E+01
 SKALA_GPW| Active atom-composite tau integral   5.2731934379661880E+01
 SKALA_GPW| Active atom-composite max gradient   4.0930494105564712E+01
    15 P_Mix/Diag. 0.10E+00  371.2     0.12069095       -90.7988937423  5.69E-03
 SKALA_GPW| Atom-composite cross support/maxima   2.298478252382E+00   4.243110523197E+00   2.511362417338E+01   2.047408629257E+01
 SKALA_GPW| Active atom-composite XC energy  -1.9584078891888531E+01
 SKALA_GPW| Active atom-composite electrons   4.0034908757887727E+01
 SKALA_GPW| Active atom-composite density range   5.5157362129307328E-04   6.7244819375419809E+00
 SKALA_GPW| Active atom-composite tau range   1.0469925101977142E-03   3.2735454254504468E+01
 SKALA_GPW| Active atom-composite tau integral   5.2755901845207894E+01
 SKALA_GPW| Active atom-composite max gradient   4.0939657321899382E+01
    16 P_Mix/Diag. 0.10E+00  383.4     0.10840401       -90.7937820276  5.11E-03
 SKALA_GPW| Atom-composite cross support/maxima   2.298478252382E+00   4.244131555444E+00   2.511906172903E+01   2.047733424488E+01
 SKALA_GPW| Active atom-composite XC energy  -1.9589985315461849E+01
 SKALA_GPW| Active atom-composite electrons   4.0034851114881704E+01
 SKALA_GPW| Active atom-composite density range   5.2001894484187381E-04   6.7261513244823368E+00
 SKALA_GPW| Active atom-composite tau range   1.0525912099823144E-03   3.2740164486419388E+01
 SKALA_GPW| Active atom-composite tau integral   5.2776731653289893E+01
 SKALA_GPW| Active atom-composite max gradient   4.0947775951142908E+01
    17 P_Mix/Diag. 0.10E+00  382.2     0.09737593       -90.7891869536  4.60E-03
 SKALA_GPW| Atom-composite cross support/maxima   2.298478252382E+00   4.245040523776E+00   2.512388579675E+01   2.048018163901E+01
 SKALA_GPW| Active atom-composite XC energy  -1.9595176649972416E+01
 SKALA_GPW| Active atom-composite electrons   4.0034800388391545E+01
 SKALA_GPW| Active atom-composite density range   4.9157312325383675E-04   6.7276390477414596E+00
 SKALA_GPW| Active atom-composite tau range   1.0577081400956758E-03   3.2744282019090697E+01
 SKALA_GPW| Active atom-composite tau integral   5.2794880230140514E+01
 SKALA_GPW| Active atom-composite max gradient   4.0954962003987738E+01
    18 DIIS/Diag.  0.38E-04  379.8     0.08680705       -90.7850562281  4.13E-03
 SKALA_GPW| Atom-composite cross support/maxima   2.298478252382E+00   4.252797272136E+00   2.516432379400E+01   2.050255584540E+01
 SKALA_GPW| Active atom-composite XC energy  -1.9636175742378693E+01
 SKALA_GPW| Active atom-composite electrons   4.0034396930115022E+01
 SKALA_GPW| Active atom-composite density range   2.3359404917646187E-04   6.7404029929021414E+00
 SKALA_GPW| Active atom-composite tau range   1.1073449532181905E-03   3.2776115576527772E+01
 SKALA_GPW| Active atom-composite tau integral   5.2931079556689355E+01
 SKALA_GPW| Active atom-composite max gradient   4.1014473018519276E+01
    19 DIIS/Diag.  0.28E-03  384.9     0.00015244       -90.7481215883  3.69E-02
 SKALA_GPW| Atom-composite cross support/maxima   2.298478252382E+00   4.252833706349E+00   2.516457531289E+01   2.050282367892E+01
 SKALA_GPW| Active atom-composite XC energy  -1.9636544422314930E+01
 SKALA_GPW| Active atom-composite electrons   4.0034393867536849E+01
 SKALA_GPW| Active atom-composite density range   2.3378795317282962E-04   6.7404572394094204E+00
 SKALA_GPW| Active atom-composite tau range   1.1071536435279987E-03   3.2776545505870530E+01
 SKALA_GPW| Active atom-composite tau integral   5.2932699108900024E+01
 SKALA_GPW| Active atom-composite max gradient   4.1014906105540312E+01
    20 DIIS/Diag.  0.31E-03  380.6     0.00042093       -90.7481212579  3.30E-07
 SKALA_GPW| Atom-composite cross support/maxima   2.298478252382E+00   4.252858081577E+00   2.516477065514E+01   2.050307363552E+01
 SKALA_GPW| Active atom-composite XC energy  -1.9637926244171908E+01
 SKALA_GPW| Active atom-composite electrons   4.0034382124400210E+01
 SKALA_GPW| Active atom-composite density range   2.3388389619483934E-04   6.7404905605927823E+00
 SKALA_GPW| Active atom-composite tau range   1.1063857541258079E-03   3.2776949256856263E+01
 SKALA_GPW| Active atom-composite tau integral   5.2937984696993460E+01
 SKALA_GPW| Active atom-composite max gradient   4.1015260860067208E+01
    21 DIIS/Diag.  0.49E-03  394.2     0.00161208       -90.7481201548  1.10E-06
 SKALA_GPW| Atom-composite cross support/maxima   2.298478252382E+00   4.253167186847E+00   2.516692647011E+01   2.050540319998E+01
 SKALA_GPW| Active atom-composite XC energy  -1.9642108529929793E+01
 SKALA_GPW| Active atom-composite electrons   4.0034348055577276E+01
 SKALA_GPW| Active atom-composite density range   2.3533798514407980E-04   6.7409484200687686E+00
 SKALA_GPW| Active atom-composite tau range   1.1040557022069437E-03   3.2780688162862035E+01
 SKALA_GPW| Active atom-composite tau integral   5.2955933464309680E+01
 SKALA_GPW| Active atom-composite max gradient   4.1018986803479173E+01
    22 DIIS/Diag.  0.29E-02  382.0     0.00301908       -90.7480970510  2.31E-05
 SKALA_GPW| Atom-composite cross support/maxima   2.298478252382E+00   4.252075532691E+00   2.515958065162E+01   2.049787455203E+01
 SKALA_GPW| Active atom-composite XC energy  -1.9638619835207336E+01
 SKALA_GPW| Active atom-composite electrons   4.0034372336068181E+01
 SKALA_GPW| Active atom-composite density range   2.2983479697974858E-04   6.7393020504769350E+00
 SKALA_GPW| Active atom-composite tau range   1.1058617433534988E-03   3.2768628597012906E+01
 SKALA_GPW| Active atom-composite tau integral   5.2934474520014696E+01
 SKALA_GPW| Active atom-composite max gradient   4.1006470438656372E+01
    23 DIIS/Diag.  0.56E-04  384.3     0.00024596       -90.7481267733 -2.97E-05
 SKALA_GPW| Atom-composite cross support/maxima   2.298478252382E+00   4.252147116759E+00   2.516003812593E+01   2.049830874325E+01
 SKALA_GPW| Active atom-composite XC energy  -1.9637744835593963E+01
 SKALA_GPW| Active atom-composite electrons   4.0034379936183093E+01
 SKALA_GPW| Active atom-composite density range   2.3007963406730011E-04   6.7394119184353842E+00
 SKALA_GPW| Active atom-composite tau range   1.1063388446124209E-03   3.2769340119098139E+01
 SKALA_GPW| Active atom-composite tau integral   5.2931370384923966E+01
 SKALA_GPW| Active atom-composite max gradient   4.1007244108196311E+01
    24 DIIS/Diag.  0.22E-07  383.7     0.00000939       -90.7481272459 -4.73E-07
 SKALA_GPW| Atom-composite cross support/maxima   2.298478252382E+00   4.252140114106E+00   2.515999350729E+01   2.049826690935E+01
 SKALA_GPW| Active atom-composite XC energy  -1.9637752033312573E+01
 SKALA_GPW| Active atom-composite electrons   4.0034379832881413E+01
 SKALA_GPW| Active atom-composite density range   2.3008558635387162E-04   6.7394011042480031E+00
 SKALA_GPW| Active atom-composite tau range   1.1063287457266904E-03   3.2769273150713772E+01
 SKALA_GPW| Active atom-composite tau integral   5.2931362616746021E+01
 SKALA_GPW| Active atom-composite max gradient   4.1007169538202511E+01
    25 DIIS/Diag.  0.35E-08  379.2     0.00000178       -90.7481272539 -7.93E-09

  *** SCF run converged in    25 steps ***


  Electronic density on regular grids:        -36.6232238483        3.3767761517
  Core density on regular grids:               28.0000000000      -12.0000000000
  Hard and soft densities (Lebedev):          -27.5231306894      -24.1463545381
  Total Rho_soft + Rho1_hard - Rho1_soft      -39.9999999996
  Total charge density (r-space):             -11.9999999997
  Total Rho_soft + Rho0_soft (g-space):        -0.0000000036

  Overlap energy of the core charge distribution:               0.00000000000001
  Self energy of the core charge distribution:               -160.19523693469932
  Core Hamiltonian energy:                                     32.40734079959298
  Hartree energy:                                              61.52917778531138
  Exchange-correlation energy:                                  0.00000000000000
  Dispersion energy:                                           -0.12534296052437

  GAPW| Exc from hard and soft atomic rho1:                   -19.63775203331257
  GAPW| local Eh = 1 center integrals:                         -4.72631391023259

  Total energy:                                               -90.74812725386450

  outer SCF iter =    1 RMS gradient =   0.00E+00 energy =        -90.7481272539
  outer SCF loop converged in   1 iterations or   25 steps


 !-----------------------------------------------------------------------------!
                     Mulliken Population Analysis

 #  Atom  Element  Kind  Atomic population                           Net charge
       1     Li       1          2.214915                              0.785085
       2     Li       1          2.214934                              0.785066
       3     Li       1          2.214934                              0.785066
       4     Li       1          2.214934                              0.785066
       5     Cl       2          7.785068                             -0.785068
       6     Cl       2          7.785068                             -0.785068
       7     Cl       2          7.785068                             -0.785068
       8     Cl       2          7.785080                             -0.785080
 # Total charge                             40.000000                  0.000000

 !-----------------------------------------------------------------------------!

 !-----------------------------------------------------------------------------!
                           Hirshfeld Charges

  #Atom  Element  Kind  Ref Charge     Population                    Net charge
      1       Li     1       3.000          3.158                        -0.158
      2       Li     1       3.000          3.158                        -0.158
      3       Li     1       3.000          3.158                        -0.158
      4       Li     1       3.000          3.158                        -0.158
      5       Cl     2       7.000          6.842                         0.158
      6       Cl     2       7.000          6.842                         0.158
      7       Cl     2       7.000          6.842                         0.158
      8       Cl     2       7.000          6.842                         0.158

  Total Charge                                                            0.000
 !-----------------------------------------------------------------------------!

 ENERGY| Total FORCE_EVAL ( QS ) energy [hartree]            -90.748127253864496

 -------------------------------------------------------------------------------
 -                                                                             -
 -                                DBCSR STATISTICS                             -
 -                                                                             -
 -------------------------------------------------------------------------------
 COUNTER                                    TOTAL       BLAS       SMM       ACC
 flops inhomo. stacks                           0       0.0%      0.0%      0.0%
 flops total                         0.000000E+00       0.0%      0.0%      0.0%
 flops max/rank                      0.000000E+00       0.0%      0.0%      0.0%
 matmuls inhomo. stacks                         0       0.0%      0.0%      0.0%
 matmuls total                                  0       0.0%      0.0%      0.0%
 number of processed stacks                     0       0.0%      0.0%      0.0%
 average stack size                                     0.0       0.0       0.0
 marketing flops                     0.000000E+00
 -------------------------------------------------------------------------------
 -                                                                             -
 -                      DBCSR MESSAGE PASSING PERFORMANCE                      -
 -                                                                             -
 -------------------------------------------------------------------------------
 ROUTINE             CALLS      AVE VOLUME [Bytes]
 MP_Bcast                1                     12.
 MP_Allreduce           19                     21.
 MP_Alltoall         35360                 193187.
 -------------------------------------------------------------------------------

 -------------------------------------------------------------------------------
 -                                                                             -
 -                                GRID STATISTICS                              -
 -                                                                             -
 -------------------------------------------------------------------------------
 LP    KERNEL             BACKEND                              COUNT     PERCENT
 6     collocate ortho    CPU                                 558792      16.34%
 6     integrate ortho    CPU                                 537300      15.71%
 4     collocate ortho    CPU                                 510328      14.92%
 4     integrate ortho    CPU                                 490700      14.35%
 5     collocate ortho    CPU                                 312832       9.15%
 7     collocate ortho    CPU                                 312832       9.15%
 5     integrate ortho    CPU                                 300800       8.80%
 7     integrate ortho    CPU                                 300800       8.80%
 8     collocate ortho    CPU                                  48464       1.42%
 8     integrate ortho    CPU                                  46600       1.36%
 4     collocate general  CPU                                    100       0.00%
 4     integrate general  CPU                                    100       0.00%
 0     collocate general  CPU                                     16       0.00%
 0     integrate general  CPU                                      8       0.00%
 -------------------------------------------------------------------------------

 -------------------------------------------------------------------------------
 -                                                                             -
 -                          OFFLOAD MEMPOOL STATISTICS                         -
 -                                                                             -
 -------------------------------------------------------------------------------
 Memory consumption                Number of allocations  Used [MiB]  Size [MiB]
 Host                                                  8          65    89979883
 -------------------------------------------------------------------------------

 MEMORY| Estimated peak process memory [MiB]                                2433

 -------------------------------------------------------------------------------
 ----                             MULTIGRID INFO                            ----
 -------------------------------------------------------------------------------
 count for grid        1:           4773          cutoff [a.u.]          400.00
 count for grid        2:          23818          cutoff [a.u.]          133.33
 count for grid        3:           9775          cutoff [a.u.]           44.44
 count for grid        4:          13922          cutoff [a.u.]           14.81
 count for grid        5:          15269          cutoff [a.u.]            4.94
 total gridlevel count  :          67557

 -------------------------------------------------------------------------------
 -                                                                             -
 -                         MESSAGE PASSING PERFORMANCE                         -
 -                                                                             -
 -------------------------------------------------------------------------------

 ROUTINE             CALLS      AVE VOLUME [Bytes]
 MP_Group               30
 MP_Bcast             9348                   1293.
 MP_Allreduce        49454                  48986.
 MP_Sync                 5
 MP_Wait              7600
 MP_ISend            10640                  42136.
 MP_IRecv            10640                  42136.
 -------------------------------------------------------------------------------


 -------------------------------------------------------------------------------
 -                                                                             -
 -                           R E F E R E N C E S                               -
 -                                                                             -
 -------------------------------------------------------------------------------
 
 CP2K version 2026.2 (Development Version), the CP2K developers group (2026).
 CP2K is freely available from https://www.cp2k.org/ .
 
 M. Iannuzzi, J. Wilhelm, F. Stein, A. Bussy, H. Elgabarty, D. Golze, A. Hehn, 
 M. Graml, S. Marek, B. Sertcan Gökmen, C. Schran, H. Forbert, R. Z. 
 Khaliullin, A. Kozhevnikov, M. Taillefumier, R. Meli, V. V. Rybkin, M. Brehm, 
 R. Schade, O. Schütt, J. V. Pototschnig, H. Mirhosseini, A. Knüpfer, D. Marx, 
 M. Krack, J. Hutter, T. D. Kühne.
 J. Phys. Chem. B 130, 1237-1310 (2026).
 The CP2K Program Package Made Simple.
 https://doi.org/10.1021/acs.jpcb.5c05851

 L. Wittmann, I. Gordiy, M. Friede, B. Helmich-Paris, S. Grimme, A. Hansen, M. 
 Bursch.
 Phys. Chem. Chem. Phys. 26, 21379-21394 (2024).
 Extension of the D3 and D4 London dispersion corrections to the full actinides 
 series.
 https://doi.org/10.1039/d4cp01514b

 T. D. Kühne, M. Iannuzzi, M. Del Ben, V. V. Rybkin, P. Seewald, F. Stein, T. 
 Laino, R. Z. Khaliullin, O. Schütt, F. Schiffmann, D. Golze, J. Wilhelm, S. 
 Chulkov, M. H. Bani-Hashemian, V. Weber, U. Borstnik, M. Taillefumier, A. S. 
 Jakobovits, A. Lazzaro, H. Pabst, T. Müller, R. Schade, M. Guidon, S. 
 Andermatt, N. Holmberg, G. K. Schenter, A. Hehn, A. Bussy, F. Belleflamme, G. 
 Tabacchi, A. Glöß, M. Lass, I. Bethune, C. J. Mundy, C. Plessl, M. Watkins, 
 J. VandeVondele, M. Krack, J. Hutter.
 J. Chem. Phys. 152, 194103 (2020).
 CP2K: An electronic structure and molecular dynamics software package - 
 Quickstep: Efficient and accurate electronic structure calculations.
 https://doi.org/10.1063/5.0007045

 L. Goerigk, A. Hansen, C. Bauer, S. Ehrlich, A. Najibi, S. Grimme.
 Phys. Chem. Chem. Phys. 19, 32184-32215 (2017).
 A look at the density functional theory zoo with the advanced GMTKN55 database 
 for general main group thermochemistry, kinetics and noncovalent interactions.
 https://doi.org/10.1039/C7CP04913G

 O. Schuett, P. Messmer, J. Hutter, J. VandeVondele.
 Electronic Structure Calculations on Graphics Processing Units, 173-190 (2016).
 GPU-Accelerated Sparse Matrix-Matrix Multiplication for Linear Scaling Density 
 Functional Theory.
 https://doi.org/10.1002/9781118670712.ch8

 U. Borstnik, J. VandeVondele, V. Weber, J. Hutter.
 Parallel Comput. 40, 47-58 (2014).
 Sparse matrix multiplication: The distributed block-compressed sparse row 
 library.
 https://doi.org/10.1016/j.parco.2014.03.012

 S. Grimme, S. Ehrlich, L. Goerigk.
 J. Comput. Chem. 32, 1456 (2011).
 Effect of the damping function in dispersion corrected density functional 
 theory.
 https://doi.org/10.1002/jcc.21759

 S. Grimme, J. Antony, S. Ehrlich, H. Krieg.
 J. Chem. Phys. 132, 154104 (2010).
 A consistent and accurate ab initio parametrization of density functional 
 dispersion correction (DFT-D) for the 94 elements H-Pu.
 https://doi.org/10.1063/1.3382344

 J. VandeVondele, J. Hutter.
 J. Chem. Phys. 127, 114105 (2007).
 Gaussian basis sets for accurate calculations on molecular systems in gas and 
 condensed phases.
 https://doi.org/10.1063/1.2770708

 M. Krack.
 Theor. Chem. Acc. 114, 145-152 (2005).
 Pseudopotentials for H to Kr optimized for gradient-corrected 
 exchange-correlation functionals.
 https://doi.org/10.1007/s00214-005-0655-y

 M. Frigo, S. G. Johnson.
 Proc. IEEE 93, 216-231 (2005).
 The design and implementation of FFTW3.
 https://doi.org/10.1109/JPROC.2004.840301

 M. Krack, M. Parrinello.
 Phys. Chem. Chem. Phys. 2, 2105-2112 (2000).
 All-electron ab-initio molecular dynamics.
 https://doi.org/10.1039/b001167n

 G. Lippert, J. Hutter, M. Parrinello.
 Theor. Chem. Acc. 103, 124-140 (1999).
 The Gaussian and augmented-plane-wave density functional method for ab initio 
 molecular dynamics simulations.
 https://doi.org/10.1007/s002140050523

 C. Hartwigsen, S. Goedecker, J. Hutter.
 Phys. Rev. B 58, 3641-3662 (1998).
 Relativistic separable dual-space Gaussian pseudopotentials from H to Rn.
 https://doi.org/10.1103/PhysRevB.58.3641

 S. Goedecker, M. Teter, J. Hutter.
 Phys. Rev. B 54, 1703-1710 (1996).
 Separable dual-space Gaussian pseudopotentials.
 https://doi.org/10.1103/PhysRevB.54.1703

 C.-L. Fu, K.-M. Ho.
 Phys. Rev. B 28, 5480-5486 (1983).
 First-principles calculation of the equilibrium ground-state properties of 
 transition metals: Applications to Nb and Mo.
 https://doi.org/10.1103/PhysRevB.28.5480

 T. G. Worlton, J. L. Warren.
 Comput. Phys. Commun. 3, 88-117 (1972).
 Group-theoretical analysis of lattice vibrations.
 https://doi.org/10.1016/0010-4655(72)90058-6


 -------------------------------------------------------------------------------
 -                                                                             -
 -                                T I M I N G                                  -
 -                                                                             -
 -------------------------------------------------------------------------------
 SUBROUTINE                       CALLS  ASD         SELF TIME        TOTAL TIME
                                MAXIMUM       AVERAGE  MAXIMUM  AVERAGE  MAXIMUM
 CP2K                                 1  1.0    0.018    0.018 9543.283 9543.283
 qs_energies                          1  2.0    0.002    0.002 9542.933 9542.933
 scf_env_do_scf                       1  3.0    0.000    0.000 9540.241 9540.241
 scf_env_do_scf_inner_loop           25  4.0    0.016    0.016 9540.241 9540.241
 qs_ks_update_qs_env                 25  5.0    0.000    0.000 9408.487 9408.487
 rebuild_ks_matrix                   25  6.0    0.000    0.000 9407.291 9407.291
 qs_ks_build_kohn_sham_matrix        25  7.0    0.027    0.027 9407.290 9407.290
 calculate_vxc_atom                  25  8.0 8098.914 8098.914 9356.760 9356.760
 skala_atom_torch_backward           75  9.0  560.583  560.583  560.583  560.583
 skala_atom_torch_forward            75  9.0    0.101    0.101  369.706  369.706
 torch_model_forward_mol_tensor      75 10.0  369.605  369.605  369.605  369.605
 -------------------------------------------------------------------------------

 The number of warnings for this run is : 2
 
 -------------------------------------------------------------------------------
  **** **** ******  **  PROGRAM ENDED AT                 2026-09-01 00:15:35.619
 ***** ** ***  *** **   PROGRAM RAN ON                                     terok
 **    ****   ******    PROGRAM RAN BY                                  kuehne88
 ***** **    ** ** **   PROGRAM PROCESS ID                                453123
  **** **  *******  **  PROGRAM STOPPED IN /home/kuehne88/work/native-skala-tero
                                           k/goldzak12/runs/production/hybrid-di
                                           rect/LiCl/v05
