 DBCSR| CPU Multiplication driver                                           BLAS (U)
 DBCSR| Multrec recursion limit                                              512 (U)
 DBCSR| Multiplication stack size                                           1000 (D)
 DBCSR| Maximum elements for images                                    UNLIMITED (U)
 DBCSR| Multiplicative factor virtual images                                   1 (U)
 DBCSR| Use multiplication densification                                       T (D)
 DBCSR| Multiplication size stacks                                             3 (U)
 DBCSR| Use memory pool for CPU allocation                                     F (U)
 DBCSR| OMP: Current number of threads                                        16
 DBCSR| OMP: Max number of threads                                            16
 DBCSR| Split modifier for TAS multiplication algorithm                  1.0E+00 (U)


  **** **** ******  **  PROGRAM STARTED AT               2026-09-15 22:31:36.463
 ***** ** ***  *** **   PROGRAM STARTED ON                                cge016
 **    ****   ******    PROGRAM STARTED BY                              kuehne88
 ***** **    ** ** **   PROGRAM PROCESS ID                                698292
  **** **  *******  **  PROGRAM STARTED IN /bigdata/casus/fwuk/shared/kuehne88-n
                                           ative-skala/common70-ae-qzvpp-2026091
                                           5/runs/7787b7b0fd755fad7281db9619befa
                                           7bf6e6e9ca/qzvpp

 CP2K| version string:                 CP2K version 2026.2 (Development Version)
 CP2K| source code revision number:                                   37aedacbb3
 CP2K| cp2kflags: omp fftw3 spglib openblas libtorch libtorch_cuda              
 CP2K| is freely available from                            https://www.cp2k.org/
 CP2K| Program compiled at                                   2026-09-08 17:20:25
 CP2K| Program compiled on                                                ctu003
 CP2K| Program compiled for                                               x86_64
 CP2K| Data directory path            /home/kuehne88/cp2k-native-skala/cp2k/data
 CP2K| Input file name                                          actual-input.inp

 GLOBAL| Force Environment number                                              1
 GLOBAL| Basis set file name                             BASIS_MOLOPT_UZH_2026.2
 GLOBAL| Potential file name                                POTENTIAL_UZH_2026.2
 GLOBAL| MM Potential file name                                     MM_POTENTIAL
 GLOBAL| Coordinate file name                                      __STD_INPUT__
 GLOBAL| Method name                                                        CP2K
 GLOBAL| Project name                                       diet_qz_7787b7b0fd75
 GLOBAL| Run type                                                         ENERGY
 GLOBAL| FFT library                                                       FFTW3
 GLOBAL| Diagonalization library                                       ScaLAPACK
 GLOBAL| Cholesky decomposition library                                ScaLAPACK
 GLOBAL| DGEMM library                                                      BLAS
 GLOBAL| Direct generalized diagonalization requested                          F
 GLOBAL| Orthonormality check for eigenvectors                          DISABLED
 GLOBAL| Matrix multiplication library                                 ScaLAPACK
 GLOBAL| All-to-all communication in single precision                          F
 GLOBAL| Grid backend                                                       AUTO
 GLOBAL| Global print level                                               MEDIUM
 GLOBAL| MPI I/O enabled                                                       T
 GLOBAL| Total number of message passing processes                             1
 GLOBAL| Number of distributed systems (nodes)                                 1
 GLOBAL| Number of threads for this process                                   16
 GLOBAL| This output is from process                                           0
 GLOBAL| OpenMP stack size per thread (OMP_STACKSIZE)                       256M
 GLOBAL| CPU model name                          AMD EPYC 9654 96-Core Processor

 MEMORY| system memory details [Kb]
 MEMORY|                        rank 0           min           max       average
 MEMORY| MemTotal           1584927700    1584927700    1584927700    1584927700
 MEMORY| MemFree            1505004208    1505004208    1505004208    1505004208
 MEMORY| Buffers                     0             0             0             0
 MEMORY| Cached                9752384       9752384       9752384       9752384
 MEMORY| Slab                  2641772       2641772       2641772       2641772
 MEMORY| SReclaimable           474020        474020        474020        474020
 MEMORY| MemLikelyFree      1515230612    1515230612    1515230612    1515230612


 *** Fundamental physical constants (SI units) ***

 *** Literature: B. J. Mohr and B. N. Taylor,
 ***             CODATA recommended values of the fundamental physical
 ***             constants: 2006, Web Version 5.1
 ***             http://physics.nist.gov/constants

 Speed of light in vacuum [m/s]                             2.99792458000000E+08
 Magnetic constant or permeability of vacuum [N/A**2]       1.25663706143592E-06
 Electric constant or permittivity of vacuum [F/m]          8.85418781762039E-12
 Planck constant (h) [J*s]                                  6.62606896000000E-34
 Planck constant (h-bar) [J*s]                              1.05457162825177E-34
 Elementary charge [C]                                      1.60217648700000E-19
 Electron mass [kg]                                         9.10938215000000E-31
 Electron g factor [ ]                                     -2.00231930436220E+00
 Proton mass [kg]                                           1.67262163700000E-27
 Fine-structure constant                                    7.29735253760000E-03
 Rydberg constant [1/m]                                     1.09737315685270E+07
 Avogadro constant [1/mol]                                  6.02214179000000E+23
 Boltzmann constant [J/K]                                   1.38065040000000E-23
 Atomic mass unit [kg]                                      1.66053878200000E-27
 Bohr radius [m]                                            5.29177208590000E-11

 *** Conversion factors ***

 [u] -> [a.u.]                                              1.82288848426455E+03
 [Angstrom] -> [Bohr] = [a.u.]                              1.88972613288564E+00
 [a.u.] = [Bohr] -> [Angstrom]                              5.29177208590000E-01
 [a.u.] -> [s]                                              2.41888432650478E-17
 [a.u.] -> [fs]                                             2.41888432650478E-02
 [a.u.] -> [J]                                              4.35974393937059E-18
 [a.u.] -> [N]                                              8.23872205491840E-08
 [a.u.] -> [K]                                              3.15774647902944E+05
 [a.u.] -> [kJ/mol]                                         2.62549961709828E+03
 [a.u.] -> [kcal/mol]                                       6.27509468713739E+02
 [a.u.] -> [Pa]                                             2.94210107994716E+13
 [a.u.] -> [bar]                                            2.94210107994716E+08
 [a.u.] -> [atm]                                            2.90362800883016E+08
 [a.u.] -> [eV]                                             2.72113838565563E+01
 [a.u.] -> [Hz]                                             6.57968392072181E+15
 [a.u.] -> [1/cm] (wave numbers)                            2.19474631370540E+05
 [a.u./Bohr**2] -> [1/cm]                                   5.14048714338585E+03
 

 CELL| Volume [angstrom^3]:                                         32368.000000
 CELL| Vector a [angstrom]:      34.000     0.000     0.000   |a| =    34.000000
 CELL| Vector b [angstrom]:       0.000    34.000     0.000   |b| =    34.000000
 CELL| Vector c [angstrom]:       0.000     0.000    28.000   |c| =    28.000000
 CELL| Angle (b,c), alpha [degree]:                                    90.000000
 CELL| Angle (a,c), beta  [degree]:                                    90.000000
 CELL| Angle (a,b), gamma [degree]:                                    90.000000
 CELL| Numerically orthorhombic:                                             YES
 CELL| Periodicity                                                          NONE

 CELL_REF| Volume [angstrom^3]:                                     32368.000000
 CELL_REF| Vector a [angstrom    34.000     0.000     0.000   |a| =    34.000000
 CELL_REF| Vector b [angstrom     0.000    34.000     0.000   |b| =    34.000000
 CELL_REF| Vector c [angstrom     0.000     0.000    28.000   |c| =    28.000000
 CELL_REF| Angle (b,c), alpha [degree]:                                90.000000
 CELL_REF| Angle (a,c), beta  [degree]:                                90.000000
 CELL_REF| Angle (a,b), gamma [degree]:                                90.000000
 CELL_REF| Numerically orthorhombic:                                         YES
 CELL_REF| Periodicity                                                      NONE

 GENERATE|  Preliminary Number of Bonds generated:                             0
 GENERATE|  Achieved consistency in connectivity generation.

 *******************************************************************************
 *******************************************************************************
 **                                                                           **
 **     #####                         ##              ##                      **
 **    ##   ##            ##          ##              ##                      **
 **   ##     ##                       ##            ######                    **
 **   ##     ##  ##   ##  ##   #####  ##  ##   ####   ##    #####    #####    **
 **   ##     ##  ##   ##  ##  ##      ## ##   ##      ##   ##   ##  ##   ##   **
 **   ##  ## ##  ##   ##  ##  ##      ####     ###    ##   ######   ######    **
 **    ##  ###   ##   ##  ##  ##      ## ##      ##   ##   ##       ##        **
 **     #######   #####   ##   #####  ##  ##  ####    ##    #####   ##        **
 **           ##                                                    ##        **
 **                                                                           **
 **                                                ... make the atoms dance   **
 **                                                                           **
 **            Copyright (C) by CP2K developers group (2000-2026)             **
 **                      J. Chem. Phys. 152, 194103 (2020)                    **
 **                                                                           **
 *******************************************************************************

 DFT| Spin restricted Kohn-Sham (RKS) calculation                            RKS
 DFT| Multiplicity                                                             1
 DFT| Number of spin states                                                    1
 DFT| Charge                                                                   0
 DFT| Self-interaction correction (SIC)                                       NO
 DFT| Cutoffs: density                                              1.000000E-10
 DFT|          gradient                                             1.000000E-10
 DFT|          tau                                                  1.000000E-10
 DFT|          cutoff_smoothing_range                               0.000000E+00
 DFT| XC density smoothing                                                  NONE
 DFT| XC derivatives                                                          PW

 FUNCTIONAL| GAUXC:
 FUNCTIONAL| Functional computed by GauXC Skala model SKALA                     

 vdW POTENTIAL|                                                   Pair Potential
 vdW POTENTIAL|          DFT-D3 (Version 3.1)
 vdW POTENTIAL|          Potential Form: S. Grimme et al, JCP 132: 154104 (2010)
 vdW POTENTIAL|          BJ Damping: S. Grimme et al, JCC 32: 1456 (2011)
 vdW POTENTIAL|          Cutoff Radius [Bohr]:                             37.79
 vdW POTENTIAL|          s6 Scaling Factor:                               1.0000
 vdW POTENTIAL|          a1 Damping Factor:                               0.3981
 vdW POTENTIAL|          s8 Scaling Factor:                               1.9889
 vdW POTENTIAL|          a2 Damping Factor:                               4.4211
 vdW POTENTIAL|          Cutoff for CN calculation:                   0.1000E-05

 QS| Method:                                                                GAPW
 QS| Density plane wave grid type                        NON-SPHERICAL FULLSPACE
 QS| Number of grid levels:                                                    5
 QS| Density cutoff [a.u.]:                                                320.0
 QS| Multi grid cutoff [a.u.]: 1) grid level                               320.0
 QS|                           2) grid level                               106.7
 QS|                           3) grid level                                35.6
 QS|                           4) grid level                                11.9
 QS|                           5) grid level                                 4.0
 QS| Grid level progression factor:                                          3.0
 QS| Relative density cutoff [a.u.]:                                        30.0
 QS| Interaction thresholds: eps_pgf_orb:                                1.0E-07
 QS|                         eps_filter_matrix:                          0.0E+00
 QS|                         eps_core_charge:                            1.0E-16
 QS|                         eps_rho_gspace:                             1.0E-14
 QS|                         eps_rho_rspace:                             1.0E-14
 QS|                         eps_gvg_rspace:                             1.0E-07
 QS|                         eps_ppl:                                    1.0E-02
 QS|                         eps_ppnl:                                   1.0E-09
 QS| GAPW|      XC integration using accurate scheme: Ref. exponent     6.000000
 QS| GAPW|      One center basis extended with primitives (small:s)
 QS| GAPW|                   eps_fit:                                    1.0E-04
 QS| GAPW|                   eps_iso:                                    1.0E-12
 QS| GAPW|                   eps_svd:                                    1.0E-08
 QS| GAPW|                   eps_cpc:                                    1.0E-14
 QS| GAPW|   atom-r-grid: quadrature:                                     GC_LOG
 QS| GAPW|      atom-s-grid:  max l :                                          8
 QS| GAPW|      max_l_rho0 :                                                   4


 ATOMIC KIND INFORMATION

  1. Atomic kind: C                                     Number of atoms:       3

     Orbital Basis Set                                       QZVPP-MOLOPT-PBE-ae

       Number of orbital shell sets:                                           3
       Number of orbital shells:                                              17
       Number of primitive Cartesian functions:                               17
       Number of Cartesian basis functions:                                   72
       Number of spherical basis functions:                                   57
       Norm type:                                                              2

       Normalised Cartesian orbitals:

                        Set   Shell   Orbital            Exponent    Coefficient

                          1       1    1s            67025.107019       0.301273
                                                     10039.963354       0.840959
                                                      2284.844403       1.414087
                                                       647.155825       1.978250
                                                       211.194000       3.614759
                                                        76.386303       5.885133
                                                        29.429391       1.640818
                                                        12.033162       2.449859

                          2       1    1s              105.226643       2.019983
                                                        24.915833       4.884210
                                                         7.802292       0.922134
                                                         3.210992       0.077285
                                                         1.569670       0.127026

                          2       2    2s              105.226643      -2.503665
                                                        24.915833      -1.789628
                                                         7.802292       1.285480
                                                         3.210992       1.243151
                                                         1.569670       0.060045

                          2       3    2px             105.226643       2.754378
                                                        24.915833       3.821590
                                                         7.802292       3.687249
                                                         3.210992       1.952607
                                                         1.569670       1.401337
                          2       3    2py             105.226643       2.754378
                                                        24.915833       3.821590
                                                         7.802292       3.687249
                                                         3.210992       1.952607
                                                         1.569670       1.401337
                          2       3    2pz             105.226643       2.754378
                                                        24.915833       3.821590
                                                         7.802292       3.687249
                                                         3.210992       1.952607
                                                         1.569670       1.401337

                          3       1    1s                2.478506       1.727996
                                                         0.780870      -0.199624
                                                         0.292233      -0.067737
                                                         0.098416      -0.035850

                          3       2    2s                2.478506       0.315394
                                                         0.780870       0.280386
                                                         0.292233       0.076689
                                                         0.098416       0.022112

                          3       3    3s                2.478506      -0.182490
                                                         0.780870      -0.398499
                                                         0.292233       0.703297
                                                         0.098416      -0.230017

                          3       4    4s                2.478506       0.165589
                                                         0.780870      -0.388414
                                                         0.292233       0.135344
                                                         0.098416       0.109946

                          3       5    2px               2.478506       0.260970
                                                         0.780870       0.517259
                                                         0.292233       0.107296
                                                         0.098416       0.022701
                          3       5    2py               2.478506       0.260970
                                                         0.780870       0.517259
                                                         0.292233       0.107296
                                                         0.098416       0.022701
                          3       5    2pz               2.478506       0.260970
                                                         0.780870       0.517259
                                                         0.292233       0.107296
                                                         0.098416       0.022701

                          3       6    3px               2.478506       2.223364
                                                         0.780870      -0.845189
                                                         0.292233       0.096053
                                                         0.098416       0.070691
                          3       6    3py               2.478506       2.223364
                                                         0.780870      -0.845189
                                                         0.292233       0.096053
                                                         0.098416       0.070691
                          3       6    3pz               2.478506       2.223364
                                                         0.780870      -0.845189
                                                         0.292233       0.096053
                                                         0.098416       0.070691

                          3       7    4px               2.478506      -1.017055
                                                         0.780870       0.605594
                                                         0.292233      -0.564035
                                                         0.098416       0.101323
                          3       7    4py               2.478506      -1.017055
                                                         0.780870       0.605594
                                                         0.292233      -0.564035
                                                         0.098416       0.101323
                          3       7    4pz               2.478506      -1.017055
                                                         0.780870       0.605594
                                                         0.292233      -0.564035
                                                         0.098416       0.101323

                          3       8    3dx2              2.478506       2.448343
                                                         0.780870       0.653790
                                                         0.292233       0.040892
                                                         0.098416       0.003322
                          3       8    3dxy              2.478506       4.240655
                                                         0.780870       1.132397
                                                         0.292233       0.070827
                                                         0.098416       0.005754
                          3       8    3dxz              2.478506       4.240655
                                                         0.780870       1.132397
                                                         0.292233       0.070827
                                                         0.098416       0.005754
                          3       8    3dy2              2.478506       2.448343
                                                         0.780870       0.653790
                                                         0.292233       0.040892
                                                         0.098416       0.003322
                          3       8    3dyz              2.478506       4.240655
                                                         0.780870       1.132397
                                                         0.292233       0.070827
                                                         0.098416       0.005754
                          3       8    3dz2              2.478506       2.448343
                                                         0.780870       0.653790
                                                         0.292233       0.040892
                                                         0.098416       0.003322

                          3       9    4dx2              2.478506      -9.773314
                                                         0.780870       0.819539
                                                         0.292233      -0.068950
                                                         0.098416      -0.005958
                          3       9    4dxy              2.478506     -16.927876
                                                         0.780870       1.419484
                                                         0.292233      -0.119425
                                                         0.098416      -0.010320
                          3       9    4dxz              2.478506     -16.927876
                                                         0.780870       1.419484
                                                         0.292233      -0.119425
                                                         0.098416      -0.010320
                          3       9    4dy2              2.478506      -9.773314
                                                         0.780870       0.819539
                                                         0.292233      -0.068950
                                                         0.098416      -0.005958
                          3       9    4dyz              2.478506     -16.927876
                                                         0.780870       1.419484
                                                         0.292233      -0.119425
                                                         0.098416      -0.010320
                          3       9    4dz2              2.478506      -9.773314
                                                         0.780870       0.819539
                                                         0.292233      -0.068950
                                                         0.098416      -0.005958

                          3      10    5dx2              2.478506      -3.338505
                                                         0.780870      -0.174830
                                                         0.292233       0.240128
                                                         0.098416      -0.010366
                          3      10    5dxy              2.478506      -5.782460
                                                         0.780870      -0.302815
                                                         0.292233       0.415913
                                                         0.098416      -0.017954
                          3      10    5dxz              2.478506      -5.782460
                                                         0.780870      -0.302815
                                                         0.292233       0.415913
                                                         0.098416      -0.017954
                          3      10    5dy2              2.478506      -3.338505
                                                         0.780870      -0.174830
                                                         0.292233       0.240128
                                                         0.098416      -0.010366
                          3      10    5dyz              2.478506      -5.782460
                                                         0.780870      -0.302815
                                                         0.292233       0.415913
                                                         0.098416      -0.017954
                          3      10    5dz2              2.478506      -3.338505
                                                         0.780870      -0.174830
                                                         0.292233       0.240128
                                                         0.098416      -0.010366

                          3      11    4fx3              2.478506       8.481948
                                                         0.780870       0.343839
                                                         0.292233      -0.006792
                                                         0.098416       0.000929
                          3      11    4fx2y             2.478506      18.966213
                                                         0.780870       0.768847
                                                         0.292233      -0.015188
                                                         0.098416       0.002076
                          3      11    4fx2z             2.478506      18.966213
                                                         0.780870       0.768847
                                                         0.292233      -0.015188
                                                         0.098416       0.002076
                          3      11    4fxy2             2.478506      18.966213
                                                         0.780870       0.768847
                                                         0.292233      -0.015188
                                                         0.098416       0.002076
                          3      11    4fxyz             2.478506      32.850445
                                                         0.780870       1.331683
                                                         0.292233      -0.026307
                                                         0.098416       0.003596
                          3      11    4fxz2             2.478506      18.966213
                                                         0.780870       0.768847
                                                         0.292233      -0.015188
                                                         0.098416       0.002076
                          3      11    4fy3              2.478506       8.481948
                                                         0.780870       0.343839
                                                         0.292233      -0.006792
                                                         0.098416       0.000929
                          3      11    4fy2z             2.478506      18.966213
                                                         0.780870       0.768847
                                                         0.292233      -0.015188
                                                         0.098416       0.002076
                          3      11    4fyz2             2.478506      18.966213
                                                         0.780870       0.768847
                                                         0.292233      -0.015188
                                                         0.098416       0.002076
                          3      11    4fz3              2.478506       8.481948
                                                         0.780870       0.343839
                                                         0.292233      -0.006792
                                                         0.098416       0.000929

                          3      12    5fx3              2.478506      -4.423110
                                                         0.780870       0.717072
                                                         0.292233       0.037661
                                                         0.098416      -0.001713
                          3      12    5fx2y             2.478506      -9.890376
                                                         0.780870       1.603421
                                                         0.292233       0.084213
                                                         0.098416      -0.003831
                          3      12    5fx2z             2.478506      -9.890376
                                                         0.780870       1.603421
                                                         0.292233       0.084213
                                                         0.098416      -0.003831
                          3      12    5fxy2             2.478506      -9.890376
                                                         0.780870       1.603421
                                                         0.292233       0.084213
                                                         0.098416      -0.003831
                          3      12    5fxyz             2.478506     -17.130633
                                                         0.780870       2.777207
                                                         0.292233       0.145862
                                                         0.098416      -0.006636
                          3      12    5fxz2             2.478506      -9.890376
                                                         0.780870       1.603421
                                                         0.292233       0.084213
                                                         0.098416      -0.003831
                          3      12    5fy3              2.478506      -4.423110
                                                         0.780870       0.717072
                                                         0.292233       0.037661
                                                         0.098416      -0.001713
                          3      12    5fy2z             2.478506      -9.890376
                                                         0.780870       1.603421
                                                         0.292233       0.084213
                                                         0.098416      -0.003831
                          3      12    5fyz2             2.478506      -9.890376
                                                         0.780870       1.603421
                                                         0.292233       0.084213
                                                         0.098416      -0.003831
                          3      12    5fz3              2.478506      -4.423110
                                                         0.780870       0.717072
                                                         0.292233       0.037661
                                                         0.098416      -0.001713

                          3      13    5gx4              2.478506       5.558350
                                                         0.780870       0.445812
                                                         0.292233      -0.003241
                                                         0.098416      -0.000135
                          3      13    5gx3y             2.478506      14.706012
                                                         0.780870       1.179508
                                                         0.292233      -0.008575
                                                         0.098416      -0.000357
                          3      13    5gx3z             2.478506      14.706012
                                                         0.780870       1.179508
                                                         0.292233      -0.008575
                                                         0.098416      -0.000357
                          3      13    5gx2y2            2.478506      18.985380
                                                         0.780870       1.522738
                                                         0.292233      -0.011071
                                                         0.098416      -0.000460
                          3      13    5gx2yz            2.478506      32.883644
                                                         0.780870       2.637460
                                                         0.292233      -0.019175
                                                         0.098416      -0.000797
                          3      13    5gx2z2            2.478506      18.985380
                                                         0.780870       1.522738
                                                         0.292233      -0.011071
                                                         0.098416      -0.000460
                          3      13    5gxy3             2.478506      14.706012
                                                         0.780870       1.179508
                                                         0.292233      -0.008575
                                                         0.098416      -0.000357
                          3      13    5gxy2z            2.478506      32.883644
                                                         0.780870       2.637460
                                                         0.292233      -0.019175
                                                         0.098416      -0.000797
                          3      13    5gxyz2            2.478506      32.883644
                                                         0.780870       2.637460
                                                         0.292233      -0.019175
                                                         0.098416      -0.000797
                          3      13    5gxz3             2.478506      14.706012
                                                         0.780870       1.179508
                                                         0.292233      -0.008575
                                                         0.098416      -0.000357
                          3      13    5gy4              2.478506       5.558350
                                                         0.780870       0.445812
                                                         0.292233      -0.003241
                                                         0.098416      -0.000135
                          3      13    5gy3z             2.478506      14.706012
                                                         0.780870       1.179508
                                                         0.292233      -0.008575
                                                         0.098416      -0.000357
                          3      13    5gy2z2            2.478506      18.985380
                                                         0.780870       1.522738
                                                         0.292233      -0.011071
                                                         0.098416      -0.000460
                          3      13    5gyz3             2.478506      14.706012
                                                         0.780870       1.179508
                                                         0.292233      -0.008575
                                                         0.098416      -0.000357
                          3      13    5gz4              2.478506       5.558350
                                                         0.780870       0.445812
                                                         0.292233      -0.003241
                                                         0.098416      -0.000135

       Atomic covalent radius [Angstrom]:                                  0.770

       Atomic van der Waals radius [Angstrom]:                             1.700

     The atoms of this atomic kind are PAW atoms (GAPW):
       Hard Gaussian function radius:                                      1.520
       Rho0 radius:                                                        1.520
       Maximum GTO radius used for PAW projector construction:            24.566

     GAPW Soft Basis Set                                QZVPP-MOLOPT-PBE-ae_soft

       Number of orbital shell sets:                                           3
       Number of orbital shells:                                              17
       Number of primitive Cartesian functions:                                6
       Number of Cartesian basis functions:                                   72
       Number of spherical basis functions:                                   57
       Norm type:                                                              2

       Normalised Cartesian orbitals:

                        Set   Shell   Orbital            Exponent    Coefficient

                          1       1    1s         

                          2       1    1s                3.210992       0.077285
                                                         1.569670       0.127026

                          2       2    2s                3.210992       1.243151
                                                         1.569670       0.060045

                          2       3    2px               3.210992       1.952607
                                                         1.569670       1.401337
                          2       3    2py               3.210992       1.952607
                                                         1.569670       1.401337
                          2       3    2pz               3.210992       1.952607
                                                         1.569670       1.401337

                          3       1    1s                2.478506       1.727996
                                                         0.780870      -0.199624
                                                         0.292233      -0.067737
                                                         0.098416      -0.035850

                          3       2    2s                2.478506       0.315394
                                                         0.780870       0.280386
                                                         0.292233       0.076689
                                                         0.098416       0.022112

                          3       3    3s                2.478506      -0.182490
                                                         0.780870      -0.398499
                                                         0.292233       0.703297
                                                         0.098416      -0.230017

                          3       4    4s                2.478506       0.165589
                                                         0.780870      -0.388414
                                                         0.292233       0.135344
                                                         0.098416       0.109946

                          3       5    2px               2.478506       0.260970
                                                         0.780870       0.517259
                                                         0.292233       0.107296
                                                         0.098416       0.022701
                          3       5    2py               2.478506       0.260970
                                                         0.780870       0.517259
                                                         0.292233       0.107296
                                                         0.098416       0.022701
                          3       5    2pz               2.478506       0.260970
                                                         0.780870       0.517259
                                                         0.292233       0.107296
                                                         0.098416       0.022701

                          3       6    3px               2.478506       2.223364
                                                         0.780870      -0.845189
                                                         0.292233       0.096053
                                                         0.098416       0.070691
                          3       6    3py               2.478506       2.223364
                                                         0.780870      -0.845189
                                                         0.292233       0.096053
                                                         0.098416       0.070691
                          3       6    3pz               2.478506       2.223364
                                                         0.780870      -0.845189
                                                         0.292233       0.096053
                                                         0.098416       0.070691

                          3       7    4px               2.478506      -1.017055
                                                         0.780870       0.605594
                                                         0.292233      -0.564035
                                                         0.098416       0.101323
                          3       7    4py               2.478506      -1.017055
                                                         0.780870       0.605594
                                                         0.292233      -0.564035
                                                         0.098416       0.101323
                          3       7    4pz               2.478506      -1.017055
                                                         0.780870       0.605594
                                                         0.292233      -0.564035
                                                         0.098416       0.101323

                          3       8    3dx2              2.478506       2.448343
                                                         0.780870       0.653790
                                                         0.292233       0.040892
                                                         0.098416       0.003322
                          3       8    3dxy              2.478506       4.240655
                                                         0.780870       1.132397
                                                         0.292233       0.070827
                                                         0.098416       0.005754
                          3       8    3dxz              2.478506       4.240655
                                                         0.780870       1.132397
                                                         0.292233       0.070827
                                                         0.098416       0.005754
                          3       8    3dy2              2.478506       2.448343
                                                         0.780870       0.653790
                                                         0.292233       0.040892
                                                         0.098416       0.003322
                          3       8    3dyz              2.478506       4.240655
                                                         0.780870       1.132397
                                                         0.292233       0.070827
                                                         0.098416       0.005754
                          3       8    3dz2              2.478506       2.448343
                                                         0.780870       0.653790
                                                         0.292233       0.040892
                                                         0.098416       0.003322

                          3       9    4dx2              2.478506      -9.773314
                                                         0.780870       0.819539
                                                         0.292233      -0.068950
                                                         0.098416      -0.005958
                          3       9    4dxy              2.478506     -16.927876
                                                         0.780870       1.419484
                                                         0.292233      -0.119425
                                                         0.098416      -0.010320
                          3       9    4dxz              2.478506     -16.927876
                                                         0.780870       1.419484
                                                         0.292233      -0.119425
                                                         0.098416      -0.010320
                          3       9    4dy2              2.478506      -9.773314
                                                         0.780870       0.819539
                                                         0.292233      -0.068950
                                                         0.098416      -0.005958
                          3       9    4dyz              2.478506     -16.927876
                                                         0.780870       1.419484
                                                         0.292233      -0.119425
                                                         0.098416      -0.010320
                          3       9    4dz2              2.478506      -9.773314
                                                         0.780870       0.819539
                                                         0.292233      -0.068950
                                                         0.098416      -0.005958

                          3      10    5dx2              2.478506      -3.338505
                                                         0.780870      -0.174830
                                                         0.292233       0.240128
                                                         0.098416      -0.010366
                          3      10    5dxy              2.478506      -5.782460
                                                         0.780870      -0.302815
                                                         0.292233       0.415913
                                                         0.098416      -0.017954
                          3      10    5dxz              2.478506      -5.782460
                                                         0.780870      -0.302815
                                                         0.292233       0.415913
                                                         0.098416      -0.017954
                          3      10    5dy2              2.478506      -3.338505
                                                         0.780870      -0.174830
                                                         0.292233       0.240128
                                                         0.098416      -0.010366
                          3      10    5dyz              2.478506      -5.782460
                                                         0.780870      -0.302815
                                                         0.292233       0.415913
                                                         0.098416      -0.017954
                          3      10    5dz2              2.478506      -3.338505
                                                         0.780870      -0.174830
                                                         0.292233       0.240128
                                                         0.098416      -0.010366

                          3      11    4fx3              2.478506       8.481948
                                                         0.780870       0.343839
                                                         0.292233      -0.006792
                                                         0.098416       0.000929
                          3      11    4fx2y             2.478506      18.966213
                                                         0.780870       0.768847
                                                         0.292233      -0.015188
                                                         0.098416       0.002076
                          3      11    4fx2z             2.478506      18.966213
                                                         0.780870       0.768847
                                                         0.292233      -0.015188
                                                         0.098416       0.002076
                          3      11    4fxy2             2.478506      18.966213
                                                         0.780870       0.768847
                                                         0.292233      -0.015188
                                                         0.098416       0.002076
                          3      11    4fxyz             2.478506      32.850445
                                                         0.780870       1.331683
                                                         0.292233      -0.026307
                                                         0.098416       0.003596
                          3      11    4fxz2             2.478506      18.966213
                                                         0.780870       0.768847
                                                         0.292233      -0.015188
                                                         0.098416       0.002076
                          3      11    4fy3              2.478506       8.481948
                                                         0.780870       0.343839
                                                         0.292233      -0.006792
                                                         0.098416       0.000929
                          3      11    4fy2z             2.478506      18.966213
                                                         0.780870       0.768847
                                                         0.292233      -0.015188
                                                         0.098416       0.002076
                          3      11    4fyz2             2.478506      18.966213
                                                         0.780870       0.768847
                                                         0.292233      -0.015188
                                                         0.098416       0.002076
                          3      11    4fz3              2.478506       8.481948
                                                         0.780870       0.343839
                                                         0.292233      -0.006792
                                                         0.098416       0.000929

                          3      12    5fx3              2.478506      -4.423110
                                                         0.780870       0.717072
                                                         0.292233       0.037661
                                                         0.098416      -0.001713
                          3      12    5fx2y             2.478506      -9.890376
                                                         0.780870       1.603421
                                                         0.292233       0.084213
                                                         0.098416      -0.003831
                          3      12    5fx2z             2.478506      -9.890376
                                                         0.780870       1.603421
                                                         0.292233       0.084213
                                                         0.098416      -0.003831
                          3      12    5fxy2             2.478506      -9.890376
                                                         0.780870       1.603421
                                                         0.292233       0.084213
                                                         0.098416      -0.003831
                          3      12    5fxyz             2.478506     -17.130633
                                                         0.780870       2.777207
                                                         0.292233       0.145862
                                                         0.098416      -0.006636
                          3      12    5fxz2             2.478506      -9.890376
                                                         0.780870       1.603421
                                                         0.292233       0.084213
                                                         0.098416      -0.003831
                          3      12    5fy3              2.478506      -4.423110
                                                         0.780870       0.717072
                                                         0.292233       0.037661
                                                         0.098416      -0.001713
                          3      12    5fy2z             2.478506      -9.890376
                                                         0.780870       1.603421
                                                         0.292233       0.084213
                                                         0.098416      -0.003831
                          3      12    5fyz2             2.478506      -9.890376
                                                         0.780870       1.603421
                                                         0.292233       0.084213
                                                         0.098416      -0.003831
                          3      12    5fz3              2.478506      -4.423110
                                                         0.780870       0.717072
                                                         0.292233       0.037661
                                                         0.098416      -0.001713

                          3      13    5gx4              2.478506       5.558350
                                                         0.780870       0.445812
                                                         0.292233      -0.003241
                                                         0.098416      -0.000135
                          3      13    5gx3y             2.478506      14.706012
                                                         0.780870       1.179508
                                                         0.292233      -0.008575
                                                         0.098416      -0.000357
                          3      13    5gx3z             2.478506      14.706012
                                                         0.780870       1.179508
                                                         0.292233      -0.008575
                                                         0.098416      -0.000357
                          3      13    5gx2y2            2.478506      18.985380
                                                         0.780870       1.522738
                                                         0.292233      -0.011071
                                                         0.098416      -0.000460
                          3      13    5gx2yz            2.478506      32.883644
                                                         0.780870       2.637460
                                                         0.292233      -0.019175
                                                         0.098416      -0.000797
                          3      13    5gx2z2            2.478506      18.985380
                                                         0.780870       1.522738
                                                         0.292233      -0.011071
                                                         0.098416      -0.000460
                          3      13    5gxy3             2.478506      14.706012
                                                         0.780870       1.179508
                                                         0.292233      -0.008575
                                                         0.098416      -0.000357
                          3      13    5gxy2z            2.478506      32.883644
                                                         0.780870       2.637460
                                                         0.292233      -0.019175
                                                         0.098416      -0.000797
                          3      13    5gxyz2            2.478506      32.883644
                                                         0.780870       2.637460
                                                         0.292233      -0.019175
                                                         0.098416      -0.000797
                          3      13    5gxz3             2.478506      14.706012
                                                         0.780870       1.179508
                                                         0.292233      -0.008575
                                                         0.098416      -0.000357
                          3      13    5gy4              2.478506       5.558350
                                                         0.780870       0.445812
                                                         0.292233      -0.003241
                                                         0.098416      -0.000135
                          3      13    5gy3z             2.478506      14.706012
                                                         0.780870       1.179508
                                                         0.292233      -0.008575
                                                         0.098416      -0.000357
                          3      13    5gy2z2            2.478506      18.985380
                                                         0.780870       1.522738
                                                         0.292233      -0.011071
                                                         0.098416      -0.000460
                          3      13    5gyz3             2.478506      14.706012
                                                         0.780870       1.179508
                                                         0.292233      -0.008575
                                                         0.098416      -0.000357
                          3      13    5gz4              2.478506       5.558350
                                                         0.780870       0.445812
                                                         0.292233      -0.003241
                                                         0.098416      -0.000135

     AE Potential information for                                            ALL

       Description:                                       All-electron potential
                                          Krack, Parrinello, PCCP 2, 2105 (2000)

       Gaussian exponent of the core charge distribution:               4.109048
       Electronic configuration (s p d ...):                           4   2   0

  2. Atomic kind: N                                     Number of atoms:       9

     Orbital Basis Set                                       QZVPP-MOLOPT-PBE-ae

       Number of orbital shell sets:                                           3
       Number of orbital shells:                                              17
       Number of primitive Cartesian functions:                               17
       Number of Cartesian basis functions:                                   72
       Number of spherical basis functions:                                   57
       Norm type:                                                              2

       Normalised Cartesian orbitals:

                        Set   Shell   Orbital            Exponent    Coefficient

                          1       1    1s            90726.878012      -0.218783
                                                     13590.341075       1.380048
                                                      3092.944603       1.488896
                                                       875.922362       3.287868
                                                       285.804692       3.688593
                                                       103.111342       5.825292
                                                        40.167480       2.629499
                                                        16.675305       3.229475

                          2       1    1s              150.054989      -2.526131
                                                        35.436137       9.342415
                                                        11.100778       1.083351
                                                         4.398041      -0.233582
                                                         1.856393       0.014287

                          2       2    2s              150.054989       1.065362
                                                        35.436137      -0.346408
                                                        11.100778       1.604432
                                                         4.398041       1.225545
                                                         1.856393       0.149961

                          2       3    2px             150.054989      -4.969176
                                                        35.436137      -5.527181
                                                        11.100778      -7.063688
                                                         4.398041      -2.785766
                                                         1.856393      -1.724211
                          2       3    2py             150.054989      -4.969176
                                                        35.436137      -5.527181
                                                        11.100778      -7.063688
                                                         4.398041      -2.785766
                                                         1.856393      -1.724211
                          2       3    2pz             150.054989      -4.969176
                                                        35.436137      -5.527181
                                                        11.100778      -7.063688
                                                         4.398041      -2.785766
                                                         1.856393      -1.724211

                          3       1    1s                3.078975       0.471387
                                                         0.958725       0.329427
                                                         0.342396       0.076840
                                                         0.116527       0.020840

                          3       2    2s                3.078975      -1.984655
                                                         0.958725       0.530711
                                                         0.342396      -0.223153
                                                         0.116527       0.138394

                          3       3    3s                3.078975      -0.480624
                                                         0.958725      -0.269073
                                                         0.342396       0.254041
                                                         0.116527       0.074304

                          3       4    4s                3.078975       1.789697
                                                         0.958725      -0.449645
                                                         0.342396      -0.246057
                                                         0.116527       0.183258

                          3       5    2px               3.078975       1.131168
                                                         0.958725       0.492999
                                                         0.342396       0.209759
                                                         0.116527       0.005234
                          3       5    2py               3.078975       1.131168
                                                         0.958725       0.492999
                                                         0.342396       0.209759
                                                         0.116527       0.005234
                          3       5    2pz               3.078975       1.131168
                                                         0.958725       0.492999
                                                         0.342396       0.209759
                                                         0.116527       0.005234

                          3       6    3px               3.078975       1.567373
                                                         0.958725      -1.149685
                                                         0.342396       0.140557
                                                         0.116527       0.082729
                          3       6    3py               3.078975       1.567373
                                                         0.958725      -1.149685
                                                         0.342396       0.140557
                                                         0.116527       0.082729
                          3       6    3pz               3.078975       1.567373
                                                         0.958725      -1.149685
                                                         0.342396       0.140557
                                                         0.116527       0.082729

                          3       7    4px               3.078975      -2.195592
                                                         0.958725       1.012184
                                                         0.342396      -0.170775
                                                         0.116527       0.103641
                          3       7    4py               3.078975      -2.195592
                                                         0.958725       1.012184
                                                         0.342396      -0.170775
                                                         0.116527       0.103641
                          3       7    4pz               3.078975      -2.195592
                                                         0.958725       1.012184
                                                         0.342396      -0.170775
                                                         0.116527       0.103641

                          3       8    3dx2              3.078975       6.708179
                                                         0.958725       0.705638
                                                         0.342396      -0.004195
                                                         0.116527       0.012825
                          3       8    3dxy              3.078975      11.618907
                                                         0.958725       1.222201
                                                         0.342396      -0.007266
                                                         0.116527       0.022213
                          3       8    3dxz              3.078975      11.618907
                                                         0.958725       1.222201
                                                         0.342396      -0.007266
                                                         0.116527       0.022213
                          3       8    3dy2              3.078975       6.708179
                                                         0.958725       0.705638
                                                         0.342396      -0.004195
                                                         0.116527       0.012825
                          3       8    3dyz              3.078975      11.618907
                                                         0.958725       1.222201
                                                         0.342396      -0.007266
                                                         0.116527       0.022213
                          3       8    3dz2              3.078975       6.708179
                                                         0.958725       0.705638
                                                         0.342396      -0.004195
                                                         0.116527       0.012825

                          3       9    4dx2              3.078975     -10.578944
                                                         0.958725       1.765132
                                                         0.342396       0.012917
                                                         0.116527      -0.002345
                          3       9    4dxy              3.078975     -18.323269
                                                         0.958725       3.057299
                                                         0.342396       0.022374
                                                         0.116527      -0.004062
                          3       9    4dxz              3.078975     -18.323269
                                                         0.958725       3.057299
                                                         0.342396       0.022374
                                                         0.116527      -0.004062
                          3       9    4dy2              3.078975     -10.578944
                                                         0.958725       1.765132
                                                         0.342396       0.012917
                                                         0.116527      -0.002345
                          3       9    4dyz              3.078975     -18.323269
                                                         0.958725       3.057299
                                                         0.342396       0.022374
                                                         0.116527      -0.004062
                          3       9    4dz2              3.078975     -10.578944
                                                         0.958725       1.765132
                                                         0.342396       0.012917
                                                         0.116527      -0.002345

                          3      10    5dx2              3.078975       1.870495
                                                         0.958725       0.092277
                                                         0.342396       0.268667
                                                         0.116527      -0.011475
                          3      10    5dxy              3.078975       3.239793
                                                         0.958725       0.159828
                                                         0.342396       0.465344
                                                         0.116527      -0.019875
                          3      10    5dxz              3.078975       3.239793
                                                         0.958725       0.159828
                                                         0.342396       0.465344
                                                         0.116527      -0.019875
                          3      10    5dy2              3.078975       1.870495
                                                         0.958725       0.092277
                                                         0.342396       0.268667
                                                         0.116527      -0.011475
                          3      10    5dyz              3.078975       3.239793
                                                         0.958725       0.159828
                                                         0.342396       0.465344
                                                         0.116527      -0.019875
                          3      10    5dz2              3.078975       1.870495
                                                         0.958725       0.092277
                                                         0.342396       0.268667
                                                         0.116527      -0.011475

                          3      11    4fx3              3.078975       9.663284
                                                         0.958725       0.743501
                                                         0.342396       0.018818
                                                         0.116527       0.000449
                          3      11    4fx2y             3.078975      21.607761
                                                         0.958725       1.662520
                                                         0.342396       0.042079
                                                         0.116527       0.001004
                          3      11    4fx2z             3.078975      21.607761
                                                         0.958725       1.662520
                                                         0.342396       0.042079
                                                         0.116527       0.001004
                          3      11    4fxy2             3.078975      21.607761
                                                         0.958725       1.662520
                                                         0.342396       0.042079
                                                         0.116527       0.001004
                          3      11    4fxyz             3.078975      37.425739
                                                         0.958725       2.879568
                                                         0.342396       0.072882
                                                         0.116527       0.001739
                          3      11    4fxz2             3.078975      21.607761
                                                         0.958725       1.662520
                                                         0.342396       0.042079
                                                         0.116527       0.001004
                          3      11    4fy3              3.078975       9.663284
                                                         0.958725       0.743501
                                                         0.342396       0.018818
                                                         0.116527       0.000449
                          3      11    4fy2z             3.078975      21.607761
                                                         0.958725       1.662520
                                                         0.342396       0.042079
                                                         0.116527       0.001004
                          3      11    4fyz2             3.078975      21.607761
                                                         0.958725       1.662520
                                                         0.342396       0.042079
                                                         0.116527       0.001004
                          3      11    4fz3              3.078975       9.663284
                                                         0.958725       0.743501
                                                         0.342396       0.018818
                                                         0.116527       0.000449

                          3      12    5fx3              3.078975     -12.306115
                                                         0.958725       0.615643
                                                         0.342396       0.096113
                                                         0.116527      -0.003385
                          3      12    5fx2y             3.078975     -27.517309
                                                         0.958725       1.376620
                                                         0.342396       0.214914
                                                         0.116527      -0.007569
                          3      12    5fx2z             3.078975     -27.517309
                                                         0.958725       1.376620
                                                         0.342396       0.214914
                                                         0.116527      -0.007569
                          3      12    5fxy2             3.078975     -27.517309
                                                         0.958725       1.376620
                                                         0.342396       0.214914
                                                         0.116527      -0.007569
                          3      12    5fxyz             3.078975     -47.661377
                                                         0.958725       2.384376
                                                         0.342396       0.372243
                                                         0.116527      -0.013110
                          3      12    5fxz2             3.078975     -27.517309
                                                         0.958725       1.376620
                                                         0.342396       0.214914
                                                         0.116527      -0.007569
                          3      12    5fy3              3.078975     -12.306115
                                                         0.958725       0.615643
                                                         0.342396       0.096113
                                                         0.116527      -0.003385
                          3      12    5fy2z             3.078975     -27.517309
                                                         0.958725       1.376620
                                                         0.342396       0.214914
                                                         0.116527      -0.007569
                          3      12    5fyz2             3.078975     -27.517309
                                                         0.958725       1.376620
                                                         0.342396       0.214914
                                                         0.116527      -0.007569
                          3      12    5fz3              3.078975     -12.306115
                                                         0.958725       0.615643
                                                         0.342396       0.096113
                                                         0.116527      -0.003385

                          3      13    5gx4              3.078975      14.038179
                                                         0.958725       0.597037
                                                         0.342396       0.001828
                                                         0.116527       0.000070
                          3      13    5gx3y             3.078975      37.141531
                                                         0.958725       1.579612
                                                         0.342396       0.004837
                                                         0.116527       0.000185
                          3      13    5gx3z             3.078975      37.141531
                                                         0.958725       1.579612
                                                         0.342396       0.004837
                                                         0.116527       0.000185
                          3      13    5gx2y2            3.078975      47.949511
                                                         0.958725       2.039270
                                                         0.342396       0.006245
                                                         0.116527       0.000239
                          3      13    5gx2yz            3.078975      83.050989
                                                         0.958725       3.532119
                                                         0.342396       0.010817
                                                         0.116527       0.000415
                          3      13    5gx2z2            3.078975      47.949511
                                                         0.958725       2.039270
                                                         0.342396       0.006245
                                                         0.116527       0.000239
                          3      13    5gxy3             3.078975      37.141531
                                                         0.958725       1.579612
                                                         0.342396       0.004837
                                                         0.116527       0.000185
                          3      13    5gxy2z            3.078975      83.050989
                                                         0.958725       3.532119
                                                         0.342396       0.010817
                                                         0.116527       0.000415
                          3      13    5gxyz2            3.078975      83.050989
                                                         0.958725       3.532119
                                                         0.342396       0.010817
                                                         0.116527       0.000415
                          3      13    5gxz3             3.078975      37.141531
                                                         0.958725       1.579612
                                                         0.342396       0.004837
                                                         0.116527       0.000185
                          3      13    5gy4              3.078975      14.038179
                                                         0.958725       0.597037
                                                         0.342396       0.001828
                                                         0.116527       0.000070
                          3      13    5gy3z             3.078975      37.141531
                                                         0.958725       1.579612
                                                         0.342396       0.004837
                                                         0.116527       0.000185
                          3      13    5gy2z2            3.078975      47.949511
                                                         0.958725       2.039270
                                                         0.342396       0.006245
                                                         0.116527       0.000239
                          3      13    5gyz3             3.078975      37.141531
                                                         0.958725       1.579612
                                                         0.342396       0.004837
                                                         0.116527       0.000185
                          3      13    5gz4              3.078975      14.038179
                                                         0.958725       0.597037
                                                         0.342396       0.001828
                                                         0.116527       0.000070

       Atomic covalent radius [Angstrom]:                                  0.750

       Atomic van der Waals radius [Angstrom]:                             1.550

     The atoms of this atomic kind are PAW atoms (GAPW):
       Hard Gaussian function radius:                                      1.400
       Rho0 radius:                                                        1.400
       Maximum GTO radius used for PAW projector construction:            24.566

     GAPW Soft Basis Set                                QZVPP-MOLOPT-PBE-ae_soft

       Number of orbital shell sets:                                           3
       Number of orbital shells:                                              17
       Number of primitive Cartesian functions:                                6
       Number of Cartesian basis functions:                                   72
       Number of spherical basis functions:                                   57
       Norm type:                                                              2

       Normalised Cartesian orbitals:

                        Set   Shell   Orbital            Exponent    Coefficient

                          1       1    1s         

                          2       1    1s                4.398041      -0.233582
                                                         1.856393       0.014287

                          2       2    2s                4.398041       1.225545
                                                         1.856393       0.149961

                          2       3    2px               4.398041      -2.785766
                                                         1.856393      -1.724211
                          2       3    2py               4.398041      -2.785766
                                                         1.856393      -1.724211
                          2       3    2pz               4.398041      -2.785766
                                                         1.856393      -1.724211

                          3       1    1s                3.078975       0.471387
                                                         0.958725       0.329427
                                                         0.342396       0.076840
                                                         0.116527       0.020840

                          3       2    2s                3.078975      -1.984655
                                                         0.958725       0.530711
                                                         0.342396      -0.223153
                                                         0.116527       0.138394

                          3       3    3s                3.078975      -0.480624
                                                         0.958725      -0.269073
                                                         0.342396       0.254041
                                                         0.116527       0.074304

                          3       4    4s                3.078975       1.789697
                                                         0.958725      -0.449645
                                                         0.342396      -0.246057
                                                         0.116527       0.183258

                          3       5    2px               3.078975       1.131168
                                                         0.958725       0.492999
                                                         0.342396       0.209759
                                                         0.116527       0.005234
                          3       5    2py               3.078975       1.131168
                                                         0.958725       0.492999
                                                         0.342396       0.209759
                                                         0.116527       0.005234
                          3       5    2pz               3.078975       1.131168
                                                         0.958725       0.492999
                                                         0.342396       0.209759
                                                         0.116527       0.005234

                          3       6    3px               3.078975       1.567373
                                                         0.958725      -1.149685
                                                         0.342396       0.140557
                                                         0.116527       0.082729
                          3       6    3py               3.078975       1.567373
                                                         0.958725      -1.149685
                                                         0.342396       0.140557
                                                         0.116527       0.082729
                          3       6    3pz               3.078975       1.567373
                                                         0.958725      -1.149685
                                                         0.342396       0.140557
                                                         0.116527       0.082729

                          3       7    4px               3.078975      -2.195592
                                                         0.958725       1.012184
                                                         0.342396      -0.170775
                                                         0.116527       0.103641
                          3       7    4py               3.078975      -2.195592
                                                         0.958725       1.012184
                                                         0.342396      -0.170775
                                                         0.116527       0.103641
                          3       7    4pz               3.078975      -2.195592
                                                         0.958725       1.012184
                                                         0.342396      -0.170775
                                                         0.116527       0.103641

                          3       8    3dx2              3.078975       6.708179
                                                         0.958725       0.705638
                                                         0.342396      -0.004195
                                                         0.116527       0.012825
                          3       8    3dxy              3.078975      11.618907
                                                         0.958725       1.222201
                                                         0.342396      -0.007266
                                                         0.116527       0.022213
                          3       8    3dxz              3.078975      11.618907
                                                         0.958725       1.222201
                                                         0.342396      -0.007266
                                                         0.116527       0.022213
                          3       8    3dy2              3.078975       6.708179
                                                         0.958725       0.705638
                                                         0.342396      -0.004195
                                                         0.116527       0.012825
                          3       8    3dyz              3.078975      11.618907
                                                         0.958725       1.222201
                                                         0.342396      -0.007266
                                                         0.116527       0.022213
                          3       8    3dz2              3.078975       6.708179
                                                         0.958725       0.705638
                                                         0.342396      -0.004195
                                                         0.116527       0.012825

                          3       9    4dx2              3.078975     -10.578944
                                                         0.958725       1.765132
                                                         0.342396       0.012917
                                                         0.116527      -0.002345
                          3       9    4dxy              3.078975     -18.323269
                                                         0.958725       3.057299
                                                         0.342396       0.022374
                                                         0.116527      -0.004062
                          3       9    4dxz              3.078975     -18.323269
                                                         0.958725       3.057299
                                                         0.342396       0.022374
                                                         0.116527      -0.004062
                          3       9    4dy2              3.078975     -10.578944
                                                         0.958725       1.765132
                                                         0.342396       0.012917
                                                         0.116527      -0.002345
                          3       9    4dyz              3.078975     -18.323269
                                                         0.958725       3.057299
                                                         0.342396       0.022374
                                                         0.116527      -0.004062
                          3       9    4dz2              3.078975     -10.578944
                                                         0.958725       1.765132
                                                         0.342396       0.012917
                                                         0.116527      -0.002345

                          3      10    5dx2              3.078975       1.870495
                                                         0.958725       0.092277
                                                         0.342396       0.268667
                                                         0.116527      -0.011475
                          3      10    5dxy              3.078975       3.239793
                                                         0.958725       0.159828
                                                         0.342396       0.465344
                                                         0.116527      -0.019875
                          3      10    5dxz              3.078975       3.239793
                                                         0.958725       0.159828
                                                         0.342396       0.465344
                                                         0.116527      -0.019875
                          3      10    5dy2              3.078975       1.870495
                                                         0.958725       0.092277
                                                         0.342396       0.268667
                                                         0.116527      -0.011475
                          3      10    5dyz              3.078975       3.239793
                                                         0.958725       0.159828
                                                         0.342396       0.465344
                                                         0.116527      -0.019875
                          3      10    5dz2              3.078975       1.870495
                                                         0.958725       0.092277
                                                         0.342396       0.268667
                                                         0.116527      -0.011475

                          3      11    4fx3              3.078975       9.663284
                                                         0.958725       0.743501
                                                         0.342396       0.018818
                                                         0.116527       0.000449
                          3      11    4fx2y             3.078975      21.607761
                                                         0.958725       1.662520
                                                         0.342396       0.042079
                                                         0.116527       0.001004
                          3      11    4fx2z             3.078975      21.607761
                                                         0.958725       1.662520
                                                         0.342396       0.042079
                                                         0.116527       0.001004
                          3      11    4fxy2             3.078975      21.607761
                                                         0.958725       1.662520
                                                         0.342396       0.042079
                                                         0.116527       0.001004
                          3      11    4fxyz             3.078975      37.425739
                                                         0.958725       2.879568
                                                         0.342396       0.072882
                                                         0.116527       0.001739
                          3      11    4fxz2             3.078975      21.607761
                                                         0.958725       1.662520
                                                         0.342396       0.042079
                                                         0.116527       0.001004
                          3      11    4fy3              3.078975       9.663284
                                                         0.958725       0.743501
                                                         0.342396       0.018818
                                                         0.116527       0.000449
                          3      11    4fy2z             3.078975      21.607761
                                                         0.958725       1.662520
                                                         0.342396       0.042079
                                                         0.116527       0.001004
                          3      11    4fyz2             3.078975      21.607761
                                                         0.958725       1.662520
                                                         0.342396       0.042079
                                                         0.116527       0.001004
                          3      11    4fz3              3.078975       9.663284
                                                         0.958725       0.743501
                                                         0.342396       0.018818
                                                         0.116527       0.000449

                          3      12    5fx3              3.078975     -12.306115
                                                         0.958725       0.615643
                                                         0.342396       0.096113
                                                         0.116527      -0.003385
                          3      12    5fx2y             3.078975     -27.517309
                                                         0.958725       1.376620
                                                         0.342396       0.214914
                                                         0.116527      -0.007569
                          3      12    5fx2z             3.078975     -27.517309
                                                         0.958725       1.376620
                                                         0.342396       0.214914
                                                         0.116527      -0.007569
                          3      12    5fxy2             3.078975     -27.517309
                                                         0.958725       1.376620
                                                         0.342396       0.214914
                                                         0.116527      -0.007569
                          3      12    5fxyz             3.078975     -47.661377
                                                         0.958725       2.384376
                                                         0.342396       0.372243
                                                         0.116527      -0.013110
                          3      12    5fxz2             3.078975     -27.517309
                                                         0.958725       1.376620
                                                         0.342396       0.214914
                                                         0.116527      -0.007569
                          3      12    5fy3              3.078975     -12.306115
                                                         0.958725       0.615643
                                                         0.342396       0.096113
                                                         0.116527      -0.003385
                          3      12    5fy2z             3.078975     -27.517309
                                                         0.958725       1.376620
                                                         0.342396       0.214914
                                                         0.116527      -0.007569
                          3      12    5fyz2             3.078975     -27.517309
                                                         0.958725       1.376620
                                                         0.342396       0.214914
                                                         0.116527      -0.007569
                          3      12    5fz3              3.078975     -12.306115
                                                         0.958725       0.615643
                                                         0.342396       0.096113
                                                         0.116527      -0.003385

                          3      13    5gx4              3.078975      14.038179
                                                         0.958725       0.597037
                                                         0.342396       0.001828
                                                         0.116527       0.000070
                          3      13    5gx3y             3.078975      37.141531
                                                         0.958725       1.579612
                                                         0.342396       0.004837
                                                         0.116527       0.000185
                          3      13    5gx3z             3.078975      37.141531
                                                         0.958725       1.579612
                                                         0.342396       0.004837
                                                         0.116527       0.000185
                          3      13    5gx2y2            3.078975      47.949511
                                                         0.958725       2.039270
                                                         0.342396       0.006245
                                                         0.116527       0.000239
                          3      13    5gx2yz            3.078975      83.050989
                                                         0.958725       3.532119
                                                         0.342396       0.010817
                                                         0.116527       0.000415
                          3      13    5gx2z2            3.078975      47.949511
                                                         0.958725       2.039270
                                                         0.342396       0.006245
                                                         0.116527       0.000239
                          3      13    5gxy3             3.078975      37.141531
                                                         0.958725       1.579612
                                                         0.342396       0.004837
                                                         0.116527       0.000185
                          3      13    5gxy2z            3.078975      83.050989
                                                         0.958725       3.532119
                                                         0.342396       0.010817
                                                         0.116527       0.000415
                          3      13    5gxyz2            3.078975      83.050989
                                                         0.958725       3.532119
                                                         0.342396       0.010817
                                                         0.116527       0.000415
                          3      13    5gxz3             3.078975      37.141531
                                                         0.958725       1.579612
                                                         0.342396       0.004837
                                                         0.116527       0.000185
                          3      13    5gy4              3.078975      14.038179
                                                         0.958725       0.597037
                                                         0.342396       0.001828
                                                         0.116527       0.000070
                          3      13    5gy3z             3.078975      37.141531
                                                         0.958725       1.579612
                                                         0.342396       0.004837
                                                         0.116527       0.000185
                          3      13    5gy2z2            3.078975      47.949511
                                                         0.958725       2.039270
                                                         0.342396       0.006245
                                                         0.116527       0.000239
                          3      13    5gyz3             3.078975      37.141531
                                                         0.958725       1.579612
                                                         0.342396       0.004837
                                                         0.116527       0.000185
                          3      13    5gz4              3.078975      14.038179
                                                         0.958725       0.597037
                                                         0.342396       0.001828
                                                         0.116527       0.000070

     AE Potential information for                                            ALL

       Description:                                       All-electron potential
                                          Krack, Parrinello, PCCP 2, 2105 (2000)

       Gaussian exponent of the core charge distribution:               5.979100
       Electronic configuration (s p d ...):                           4   3   0

  3. Atomic kind: B                                     Number of atoms:       9

     Orbital Basis Set                                       QZVPP-MOLOPT-PBE-ae

       Number of orbital shell sets:                                           3
       Number of orbital shells:                                              17
       Number of primitive Cartesian functions:                               17
       Number of Cartesian basis functions:                                   72
       Number of spherical basis functions:                                   57
       Norm type:                                                              2

       Normalised Cartesian orbitals:

                        Set   Shell   Orbital            Exponent    Coefficient

                          1       1    1s            46447.791446      -0.175282
                                                      6957.391065       0.493787
                                                      1583.349473       1.257413
                                                       448.268544       1.783034
                                                       146.489013       2.689205
                                                        52.856587       4.134578
                                                        20.619216       1.917416
                                                         8.407840       1.582993

                          2       1    1s               72.213951      -0.473199
                                                        17.039054       2.527085
                                                         5.407370       1.189407
                                                         2.286459       0.248543
                                                         0.696790       0.021280

                          2       2    2s               72.213951       2.511438
                                                        17.039054      -6.395975
                                                         5.407370       1.494258
                                                         2.286459       1.323808
                                                         0.696790      -0.130343

                          2       3    2px              72.213951       1.408354
                                                        17.039054       3.184623
                                                         5.407370       3.315079
                                                         2.286459       1.093948
                                                         0.696790       0.538757
                          2       3    2py              72.213951       1.408354
                                                        17.039054       3.184623
                                                         5.407370       3.315079
                                                         2.286459       1.093948
                                                         0.696790       0.538757
                          2       3    2pz              72.213951       1.408354
                                                        17.039054       3.184623
                                                         5.407370       3.315079
                                                         2.286459       1.093948
                                                         0.696790       0.538757

                          3       1    1s                1.640758       1.453738
                                                         0.559468      -0.239402
                                                         0.199400      -0.043961
                                                         0.057720      -0.001579

                          3       2    2s                1.640758       0.231842
                                                         0.559468       0.214972
                                                         0.199400       0.074070
                                                         0.057720       0.007141

                          3       3    3s                1.640758      -0.160223
                                                         0.559468      -0.437064
                                                         0.199400       0.276518
                                                         0.057720       0.023641

                          3       4    4s                1.640758      -0.026420
                                                         0.559468      -0.003003
                                                         0.199400      -0.056619
                                                         0.057720       0.100118

                          3       5    2px               1.640758       0.166993
                                                         0.559468       0.364554
                                                         0.199400       0.078143
                                                         0.057720       0.006928
                          3       5    2py               1.640758       0.166993
                                                         0.559468       0.364554
                                                         0.199400       0.078143
                                                         0.057720       0.006928
                          3       5    2pz               1.640758       0.166993
                                                         0.559468       0.364554
                                                         0.199400       0.078143
                                                         0.057720       0.006928

                          3       6    3px               1.640758       0.162366
                                                         0.559468      -0.413403
                                                         0.199400       0.079411
                                                         0.057720       0.033085
                          3       6    3py               1.640758       0.162366
                                                         0.559468      -0.413403
                                                         0.199400       0.079411
                                                         0.057720       0.033085
                          3       6    3pz               1.640758       0.162366
                                                         0.559468      -0.413403
                                                         0.199400       0.079411
                                                         0.057720       0.033085

                          3       7    4px               1.640758      -2.177733
                                                         0.559468       0.432752
                                                         0.199400      -0.216425
                                                         0.057720       0.044385
                          3       7    4py               1.640758      -2.177733
                                                         0.559468       0.432752
                                                         0.199400      -0.216425
                                                         0.057720       0.044385
                          3       7    4pz               1.640758      -2.177733
                                                         0.559468       0.432752
                                                         0.199400      -0.216425
                                                         0.057720       0.044385

                          3       8    3dx2              1.640758       2.184468
                                                         0.559468       0.228673
                                                         0.199400       0.024579
                                                         0.057720       0.000862
                          3       8    3dxy              1.640758       3.783610
                                                         0.559468       0.396073
                                                         0.199400       0.042572
                                                         0.057720       0.001494
                          3       8    3dxz              1.640758       3.783610
                                                         0.559468       0.396073
                                                         0.199400       0.042572
                                                         0.057720       0.001494
                          3       8    3dy2              1.640758       2.184468
                                                         0.559468       0.228673
                                                         0.199400       0.024579
                                                         0.057720       0.000862
                          3       8    3dyz              1.640758       3.783610
                                                         0.559468       0.396073
                                                         0.199400       0.042572
                                                         0.057720       0.001494
                          3       8    3dz2              1.640758       2.184468
                                                         0.559468       0.228673
                                                         0.199400       0.024579
                                                         0.057720       0.000862

                          3       9    4dx2              1.640758      -3.292176
                                                         0.559468       0.687053
                                                         0.199400       0.015606
                                                         0.057720      -0.001968
                          3       9    4dxy              1.640758      -5.702216
                                                         0.559468       1.190010
                                                         0.199400       0.027030
                                                         0.057720      -0.003409
                          3       9    4dxz              1.640758      -5.702216
                                                         0.559468       1.190010
                                                         0.199400       0.027030
                                                         0.057720      -0.003409
                          3       9    4dy2              1.640758      -3.292176
                                                         0.559468       0.687053
                                                         0.199400       0.015606
                                                         0.057720      -0.001968
                          3       9    4dyz              1.640758      -5.702216
                                                         0.559468       1.190010
                                                         0.199400       0.027030
                                                         0.057720      -0.003409
                          3       9    4dz2              1.640758      -3.292176
                                                         0.559468       0.687053
                                                         0.199400       0.015606
                                                         0.057720      -0.001968

                          3      10    5dx2              1.640758      -1.019801
                                                         0.559468      -0.256554
                                                         0.199400       0.131990
                                                         0.057720      -0.004003
                          3      10    5dxy              1.640758      -1.766347
                                                         0.559468      -0.444364
                                                         0.199400       0.228614
                                                         0.057720      -0.006933
                          3      10    5dxz              1.640758      -1.766347
                                                         0.559468      -0.444364
                                                         0.199400       0.228614
                                                         0.057720      -0.006933
                          3      10    5dy2              1.640758      -1.019801
                                                         0.559468      -0.256554
                                                         0.199400       0.131990
                                                         0.057720      -0.004003
                          3      10    5dyz              1.640758      -1.766347
                                                         0.559468      -0.444364
                                                         0.199400       0.228614
                                                         0.057720      -0.006933
                          3      10    5dz2              1.640758      -1.019801
                                                         0.559468      -0.256554
                                                         0.199400       0.131990
                                                         0.057720      -0.004003

                          3      11    4fx3              1.640758       2.068883
                                                         0.559468       0.270355
                                                         0.199400      -0.000412
                                                         0.057720       0.000003
                          3      11    4fx2y             1.640758       4.626162
                                                         0.559468       0.604533
                                                         0.199400      -0.000922
                                                         0.057720       0.000006
                          3      11    4fx2z             1.640758       4.626162
                                                         0.559468       0.604533
                                                         0.199400      -0.000922
                                                         0.057720       0.000006
                          3      11    4fxy2             1.640758       4.626162
                                                         0.559468       0.604533
                                                         0.199400      -0.000922
                                                         0.057720       0.000006
                          3      11    4fxyz             1.640758       8.012748
                                                         0.559468       1.047082
                                                         0.199400      -0.001596
                                                         0.057720       0.000010
                          3      11    4fxz2             1.640758       4.626162
                                                         0.559468       0.604533
                                                         0.199400      -0.000922
                                                         0.057720       0.000006
                          3      11    4fy3              1.640758       2.068883
                                                         0.559468       0.270355
                                                         0.199400      -0.000412
                                                         0.057720       0.000003
                          3      11    4fy2z             1.640758       4.626162
                                                         0.559468       0.604533
                                                         0.199400      -0.000922
                                                         0.057720       0.000006
                          3      11    4fyz2             1.640758       4.626162
                                                         0.559468       0.604533
                                                         0.199400      -0.000922
                                                         0.057720       0.000006
                          3      11    4fz3              1.640758       2.068883
                                                         0.559468       0.270355
                                                         0.199400      -0.000412
                                                         0.057720       0.000003

                          3      12    5fx3              1.640758      -2.608150
                                                         0.559468       0.162257
                                                         0.199400       0.029396
                                                         0.057720      -0.000213
                          3      12    5fx2y             1.640758      -5.832001
                                                         0.559468       0.362819
                                                         0.199400       0.065732
                                                         0.057720      -0.000475
                          3      12    5fx2z             1.640758      -5.832001
                                                         0.559468       0.362819
                                                         0.199400       0.065732
                                                         0.057720      -0.000475
                          3      12    5fxy2             1.640758      -5.832001
                                                         0.559468       0.362819
                                                         0.199400       0.065732
                                                         0.057720      -0.000475
                          3      12    5fxyz             1.640758     -10.101322
                                                         0.559468       0.628420
                                                         0.199400       0.113851
                                                         0.057720      -0.000823
                          3      12    5fxz2             1.640758      -5.832001
                                                         0.559468       0.362819
                                                         0.199400       0.065732
                                                         0.057720      -0.000475
                          3      12    5fy3              1.640758      -2.608150
                                                         0.559468       0.162257
                                                         0.199400       0.029396
                                                         0.057720      -0.000213
                          3      12    5fy2z             1.640758      -5.832001
                                                         0.559468       0.362819
                                                         0.199400       0.065732
                                                         0.057720      -0.000475
                          3      12    5fyz2             1.640758      -5.832001
                                                         0.559468       0.362819
                                                         0.199400       0.065732
                                                         0.057720      -0.000475
                          3      12    5fz3              1.640758      -2.608150
                                                         0.559468       0.162257
                                                         0.199400       0.029396
                                                         0.057720      -0.000213

                          3      13    5gx4              1.640758       1.937280
                                                         0.559468       0.148847
                                                         0.199400       0.001446
                                                         0.057720      -0.000006
                          3      13    5gx3y             1.640758       5.125560
                                                         0.559468       0.393812
                                                         0.199400       0.003827
                                                         0.057720      -0.000015
                          3      13    5gx3z             1.640758       5.125560
                                                         0.559468       0.393812
                                                         0.199400       0.003827
                                                         0.057720      -0.000015
                          3      13    5gx2y2            1.640758       6.617070
                                                         0.559468       0.508409
                                                         0.199400       0.004941
                                                         0.057720      -0.000019
                          3      13    5gx2yz            1.640758      11.461101
                                                         0.559468       0.880590
                                                         0.199400       0.008557
                                                         0.057720      -0.000033
                          3      13    5gx2z2            1.640758       6.617070
                                                         0.559468       0.508409
                                                         0.199400       0.004941
                                                         0.057720      -0.000019
                          3      13    5gxy3             1.640758       5.125560
                                                         0.559468       0.393812
                                                         0.199400       0.003827
                                                         0.057720      -0.000015
                          3      13    5gxy2z            1.640758      11.461101
                                                         0.559468       0.880590
                                                         0.199400       0.008557
                                                         0.057720      -0.000033
                          3      13    5gxyz2            1.640758      11.461101
                                                         0.559468       0.880590
                                                         0.199400       0.008557
                                                         0.057720      -0.000033
                          3      13    5gxz3             1.640758       5.125560
                                                         0.559468       0.393812
                                                         0.199400       0.003827
                                                         0.057720      -0.000015
                          3      13    5gy4              1.640758       1.937280
                                                         0.559468       0.148847
                                                         0.199400       0.001446
                                                         0.057720      -0.000006
                          3      13    5gy3z             1.640758       5.125560
                                                         0.559468       0.393812
                                                         0.199400       0.003827
                                                         0.057720      -0.000015
                          3      13    5gy2z2            1.640758       6.617070
                                                         0.559468       0.508409
                                                         0.199400       0.004941
                                                         0.057720      -0.000019
                          3      13    5gyz3             1.640758       5.125560
                                                         0.559468       0.393812
                                                         0.199400       0.003827
                                                         0.057720      -0.000015
                          3      13    5gz4              1.640758       1.937280
                                                         0.559468       0.148847
                                                         0.199400       0.001446
                                                         0.057720      -0.000006

       Atomic covalent radius [Angstrom]:                                  0.820

       Atomic van der Waals radius [Angstrom]:                             1.920

     The atoms of this atomic kind are PAW atoms (GAPW):
       Hard Gaussian function radius:                                      1.520
       Rho0 radius:                                                        1.520
       Maximum GTO radius used for PAW projector construction:            24.566

     GAPW Soft Basis Set                                QZVPP-MOLOPT-PBE-ae_soft

       Number of orbital shell sets:                                           3
       Number of orbital shells:                                              17
       Number of primitive Cartesian functions:                                6
       Number of Cartesian basis functions:                                   72
       Number of spherical basis functions:                                   57
       Norm type:                                                              2

       Normalised Cartesian orbitals:

                        Set   Shell   Orbital            Exponent    Coefficient

                          1       1    1s         

                          2       1    1s                2.286459       0.248543
                                                         0.696790       0.021280

                          2       2    2s                2.286459       1.323808
                                                         0.696790      -0.130343

                          2       3    2px               2.286459       1.093948
                                                         0.696790       0.538757
                          2       3    2py               2.286459       1.093948
                                                         0.696790       0.538757
                          2       3    2pz               2.286459       1.093948
                                                         0.696790       0.538757

                          3       1    1s                1.640758       1.453738
                                                         0.559468      -0.239402
                                                         0.199400      -0.043961
                                                         0.057720      -0.001579

                          3       2    2s                1.640758       0.231842
                                                         0.559468       0.214972
                                                         0.199400       0.074070
                                                         0.057720       0.007141

                          3       3    3s                1.640758      -0.160223
                                                         0.559468      -0.437064
                                                         0.199400       0.276518
                                                         0.057720       0.023641

                          3       4    4s                1.640758      -0.026420
                                                         0.559468      -0.003003
                                                         0.199400      -0.056619
                                                         0.057720       0.100118

                          3       5    2px               1.640758       0.166993
                                                         0.559468       0.364554
                                                         0.199400       0.078143
                                                         0.057720       0.006928
                          3       5    2py               1.640758       0.166993
                                                         0.559468       0.364554
                                                         0.199400       0.078143
                                                         0.057720       0.006928
                          3       5    2pz               1.640758       0.166993
                                                         0.559468       0.364554
                                                         0.199400       0.078143
                                                         0.057720       0.006928

                          3       6    3px               1.640758       0.162366
                                                         0.559468      -0.413403
                                                         0.199400       0.079411
                                                         0.057720       0.033085
                          3       6    3py               1.640758       0.162366
                                                         0.559468      -0.413403
                                                         0.199400       0.079411
                                                         0.057720       0.033085
                          3       6    3pz               1.640758       0.162366
                                                         0.559468      -0.413403
                                                         0.199400       0.079411
                                                         0.057720       0.033085

                          3       7    4px               1.640758      -2.177733
                                                         0.559468       0.432752
                                                         0.199400      -0.216425
                                                         0.057720       0.044385
                          3       7    4py               1.640758      -2.177733
                                                         0.559468       0.432752
                                                         0.199400      -0.216425
                                                         0.057720       0.044385
                          3       7    4pz               1.640758      -2.177733
                                                         0.559468       0.432752
                                                         0.199400      -0.216425
                                                         0.057720       0.044385

                          3       8    3dx2              1.640758       2.184468
                                                         0.559468       0.228673
                                                         0.199400       0.024579
                                                         0.057720       0.000862
                          3       8    3dxy              1.640758       3.783610
                                                         0.559468       0.396073
                                                         0.199400       0.042572
                                                         0.057720       0.001494
                          3       8    3dxz              1.640758       3.783610
                                                         0.559468       0.396073
                                                         0.199400       0.042572
                                                         0.057720       0.001494
                          3       8    3dy2              1.640758       2.184468
                                                         0.559468       0.228673
                                                         0.199400       0.024579
                                                         0.057720       0.000862
                          3       8    3dyz              1.640758       3.783610
                                                         0.559468       0.396073
                                                         0.199400       0.042572
                                                         0.057720       0.001494
                          3       8    3dz2              1.640758       2.184468
                                                         0.559468       0.228673
                                                         0.199400       0.024579
                                                         0.057720       0.000862

                          3       9    4dx2              1.640758      -3.292176
                                                         0.559468       0.687053
                                                         0.199400       0.015606
                                                         0.057720      -0.001968
                          3       9    4dxy              1.640758      -5.702216
                                                         0.559468       1.190010
                                                         0.199400       0.027030
                                                         0.057720      -0.003409
                          3       9    4dxz              1.640758      -5.702216
                                                         0.559468       1.190010
                                                         0.199400       0.027030
                                                         0.057720      -0.003409
                          3       9    4dy2              1.640758      -3.292176
                                                         0.559468       0.687053
                                                         0.199400       0.015606
                                                         0.057720      -0.001968
                          3       9    4dyz              1.640758      -5.702216
                                                         0.559468       1.190010
                                                         0.199400       0.027030
                                                         0.057720      -0.003409
                          3       9    4dz2              1.640758      -3.292176
                                                         0.559468       0.687053
                                                         0.199400       0.015606
                                                         0.057720      -0.001968

                          3      10    5dx2              1.640758      -1.019801
                                                         0.559468      -0.256554
                                                         0.199400       0.131990
                                                         0.057720      -0.004003
                          3      10    5dxy              1.640758      -1.766347
                                                         0.559468      -0.444364
                                                         0.199400       0.228614
                                                         0.057720      -0.006933
                          3      10    5dxz              1.640758      -1.766347
                                                         0.559468      -0.444364
                                                         0.199400       0.228614
                                                         0.057720      -0.006933
                          3      10    5dy2              1.640758      -1.019801
                                                         0.559468      -0.256554
                                                         0.199400       0.131990
                                                         0.057720      -0.004003
                          3      10    5dyz              1.640758      -1.766347
                                                         0.559468      -0.444364
                                                         0.199400       0.228614
                                                         0.057720      -0.006933
                          3      10    5dz2              1.640758      -1.019801
                                                         0.559468      -0.256554
                                                         0.199400       0.131990
                                                         0.057720      -0.004003

                          3      11    4fx3              1.640758       2.068883
                                                         0.559468       0.270355
                                                         0.199400      -0.000412
                                                         0.057720       0.000003
                          3      11    4fx2y             1.640758       4.626162
                                                         0.559468       0.604533
                                                         0.199400      -0.000922
                                                         0.057720       0.000006
                          3      11    4fx2z             1.640758       4.626162
                                                         0.559468       0.604533
                                                         0.199400      -0.000922
                                                         0.057720       0.000006
                          3      11    4fxy2             1.640758       4.626162
                                                         0.559468       0.604533
                                                         0.199400      -0.000922
                                                         0.057720       0.000006
                          3      11    4fxyz             1.640758       8.012748
                                                         0.559468       1.047082
                                                         0.199400      -0.001596
                                                         0.057720       0.000010
                          3      11    4fxz2             1.640758       4.626162
                                                         0.559468       0.604533
                                                         0.199400      -0.000922
                                                         0.057720       0.000006
                          3      11    4fy3              1.640758       2.068883
                                                         0.559468       0.270355
                                                         0.199400      -0.000412
                                                         0.057720       0.000003
                          3      11    4fy2z             1.640758       4.626162
                                                         0.559468       0.604533
                                                         0.199400      -0.000922
                                                         0.057720       0.000006
                          3      11    4fyz2             1.640758       4.626162
                                                         0.559468       0.604533
                                                         0.199400      -0.000922
                                                         0.057720       0.000006
                          3      11    4fz3              1.640758       2.068883
                                                         0.559468       0.270355
                                                         0.199400      -0.000412
                                                         0.057720       0.000003

                          3      12    5fx3              1.640758      -2.608150
                                                         0.559468       0.162257
                                                         0.199400       0.029396
                                                         0.057720      -0.000213
                          3      12    5fx2y             1.640758      -5.832001
                                                         0.559468       0.362819
                                                         0.199400       0.065732
                                                         0.057720      -0.000475
                          3      12    5fx2z             1.640758      -5.832001
                                                         0.559468       0.362819
                                                         0.199400       0.065732
                                                         0.057720      -0.000475
                          3      12    5fxy2             1.640758      -5.832001
                                                         0.559468       0.362819
                                                         0.199400       0.065732
                                                         0.057720      -0.000475
                          3      12    5fxyz             1.640758     -10.101322
                                                         0.559468       0.628420
                                                         0.199400       0.113851
                                                         0.057720      -0.000823
                          3      12    5fxz2             1.640758      -5.832001
                                                         0.559468       0.362819
                                                         0.199400       0.065732
                                                         0.057720      -0.000475
                          3      12    5fy3              1.640758      -2.608150
                                                         0.559468       0.162257
                                                         0.199400       0.029396
                                                         0.057720      -0.000213
                          3      12    5fy2z             1.640758      -5.832001
                                                         0.559468       0.362819
                                                         0.199400       0.065732
                                                         0.057720      -0.000475
                          3      12    5fyz2             1.640758      -5.832001
                                                         0.559468       0.362819
                                                         0.199400       0.065732
                                                         0.057720      -0.000475
                          3      12    5fz3              1.640758      -2.608150
                                                         0.559468       0.162257
                                                         0.199400       0.029396
                                                         0.057720      -0.000213

                          3      13    5gx4              1.640758       1.937280
                                                         0.559468       0.148847
                                                         0.199400       0.001446
                                                         0.057720      -0.000006
                          3      13    5gx3y             1.640758       5.125560
                                                         0.559468       0.393812
                                                         0.199400       0.003827
                                                         0.057720      -0.000015
                          3      13    5gx3z             1.640758       5.125560
                                                         0.559468       0.393812
                                                         0.199400       0.003827
                                                         0.057720      -0.000015
                          3      13    5gx2y2            1.640758       6.617070
                                                         0.559468       0.508409
                                                         0.199400       0.004941
                                                         0.057720      -0.000019
                          3      13    5gx2yz            1.640758      11.461101
                                                         0.559468       0.880590
                                                         0.199400       0.008557
                                                         0.057720      -0.000033
                          3      13    5gx2z2            1.640758       6.617070
                                                         0.559468       0.508409
                                                         0.199400       0.004941
                                                         0.057720      -0.000019
                          3      13    5gxy3             1.640758       5.125560
                                                         0.559468       0.393812
                                                         0.199400       0.003827
                                                         0.057720      -0.000015
                          3      13    5gxy2z            1.640758      11.461101
                                                         0.559468       0.880590
                                                         0.199400       0.008557
                                                         0.057720      -0.000033
                          3      13    5gxyz2            1.640758      11.461101
                                                         0.559468       0.880590
                                                         0.199400       0.008557
                                                         0.057720      -0.000033
                          3      13    5gxz3             1.640758       5.125560
                                                         0.559468       0.393812
                                                         0.199400       0.003827
                                                         0.057720      -0.000015
                          3      13    5gy4              1.640758       1.937280
                                                         0.559468       0.148847
                                                         0.199400       0.001446
                                                         0.057720      -0.000006
                          3      13    5gy3z             1.640758       5.125560
                                                         0.559468       0.393812
                                                         0.199400       0.003827
                                                         0.057720      -0.000015
                          3      13    5gy2z2            1.640758       6.617070
                                                         0.559468       0.508409
                                                         0.199400       0.004941
                                                         0.057720      -0.000019
                          3      13    5gyz3             1.640758       5.125560
                                                         0.559468       0.393812
                                                         0.199400       0.003827
                                                         0.057720      -0.000015
                          3      13    5gz4              1.640758       1.937280
                                                         0.559468       0.148847
                                                         0.199400       0.001446
                                                         0.057720      -0.000006

     AE Potential information for                                            ALL

       Description:                                       All-electron potential
                                          Krack, Parrinello, PCCP 2, 2105 (2000)

       Gaussian exponent of the core charge distribution:               2.655410
       Electronic configuration (s p d ...):                           4   1   0

  4. Atomic kind: H                                     Number of atoms:      12

     Orbital Basis Set                                       QZVPP-MOLOPT-PBE-ae

       Number of orbital shell sets:                                           2
       Number of orbital shells:                                              10
       Number of primitive Cartesian functions:                                8
       Number of Cartesian basis functions:                                   35
       Number of spherical basis functions:                                   30
       Norm type:                                                              2

       Normalised Cartesian orbitals:

                        Set   Shell   Orbital            Exponent    Coefficient

                          1       1    1s              190.541174       0.567744
                                                        28.485896       3.739611
                                                         6.826831       2.001669
                                                         1.919769      -0.029959

                          2       1    1s                3.130447      -1.377299
                                                         0.966277       1.394773
                                                         0.319288      -0.156078
                                                         0.106668      -0.030399

                          2       2    2s                3.130447       0.627930
                                                         0.966277       0.181305
                                                         0.319288       0.270118
                                                         0.106668      -0.141637

                          2       3    3s                3.130447       0.192674
                                                         0.966277       0.139459
                                                         0.319288       0.123455
                                                         0.106668       0.057384

                          2       4    2px               3.130447       5.209863
                                                         0.966277       0.306652
                                                         0.319288      -0.046374
                                                         0.106668       0.001892
                          2       4    2py               3.130447       5.209863
                                                         0.966277       0.306652
                                                         0.319288      -0.046374
                                                         0.106668       0.001892
                          2       4    2pz               3.130447       5.209863
                                                         0.966277       0.306652
                                                         0.319288      -0.046374
                                                         0.106668       0.001892

                          2       5    3px               3.130447      -3.914345
                                                         0.966277       2.603852
                                                         0.319288      -0.366926
                                                         0.106668       0.021211
                          2       5    3py               3.130447      -3.914345
                                                         0.966277       2.603852
                                                         0.319288      -0.366926
                                                         0.106668       0.021211
                          2       5    3pz               3.130447      -3.914345
                                                         0.966277       2.603852
                                                         0.319288      -0.366926
                                                         0.106668       0.021211

                          2       6    4px               3.130447       0.035970
                                                         0.966277       0.584401
                                                         0.319288       0.248663
                                                         0.106668      -0.011549
                          2       6    4py               3.130447       0.035970
                                                         0.966277       0.584401
                                                         0.319288       0.248663
                                                         0.106668      -0.011549
                          2       6    4pz               3.130447       0.035970
                                                         0.966277       0.584401
                                                         0.319288       0.248663
                                                         0.106668      -0.011549

                          2       7    3dx2              3.130447      12.003734
                                                         0.966277       0.024974
                                                         0.319288      -0.000993
                                                         0.106668       0.001171
                          2       7    3dxy              3.130447      20.791077
                                                         0.966277       0.043257
                                                         0.319288      -0.001719
                                                         0.106668       0.002027
                          2       7    3dxz              3.130447      20.791077
                                                         0.966277       0.043257
                                                         0.319288      -0.001719
                                                         0.106668       0.002027
                          2       7    3dy2              3.130447      12.003734
                                                         0.966277       0.024974
                                                         0.319288      -0.000993
                                                         0.106668       0.001171
                          2       7    3dyz              3.130447      20.791077
                                                         0.966277       0.043257
                                                         0.319288      -0.001719
                                                         0.106668       0.002027
                          2       7    3dz2              3.130447      12.003734
                                                         0.966277       0.024974
                                                         0.319288      -0.000993
                                                         0.106668       0.001171

                          2       8    4dx2              3.130447      -0.131032
                                                         0.966277       1.436860
                                                         0.319288       0.033800
                                                         0.106668      -0.003271
                          2       8    4dxy              3.130447      -0.226954
                                                         0.966277       2.488715
                                                         0.319288       0.058543
                                                         0.106668      -0.005666
                          2       8    4dxz              3.130447      -0.226954
                                                         0.966277       2.488715
                                                         0.319288       0.058543
                                                         0.106668      -0.005666
                          2       8    4dy2              3.130447      -0.131032
                                                         0.966277       1.436860
                                                         0.319288       0.033800
                                                         0.106668      -0.003271
                          2       8    4dyz              3.130447      -0.226954
                                                         0.966277       2.488715
                                                         0.319288       0.058543
                                                         0.106668      -0.005666
                          2       8    4dz2              3.130447      -0.131032
                                                         0.966277       1.436860
                                                         0.319288       0.033800
                                                         0.106668      -0.003271

                          2       9    4fx3              3.130447      10.892546
                                                         0.966277       0.904365
                                                         0.319288      -0.046765
                                                         0.106668      -0.000779
                          2       9    4fx2y             3.130447      24.356473
                                                         0.966277       2.022223
                                                         0.319288      -0.104570
                                                         0.106668      -0.001741
                          2       9    4fx2z             3.130447      24.356473
                                                         0.966277       2.022223
                                                         0.319288      -0.104570
                                                         0.106668      -0.001741
                          2       9    4fxy2             3.130447      24.356473
                                                         0.966277       2.022223
                                                         0.319288      -0.104570
                                                         0.106668      -0.001741
                          2       9    4fxyz             3.130447      42.186648
                                                         0.966277       3.502592
                                                         0.319288      -0.181121
                                                         0.106668      -0.003016
                          2       9    4fxz2             3.130447      24.356473
                                                         0.966277       2.022223
                                                         0.319288      -0.104570
                                                         0.106668      -0.001741
                          2       9    4fy3              3.130447      10.892546
                                                         0.966277       0.904365
                                                         0.319288      -0.046765
                                                         0.106668      -0.000779
                          2       9    4fy2z             3.130447      24.356473
                                                         0.966277       2.022223
                                                         0.319288      -0.104570
                                                         0.106668      -0.001741
                          2       9    4fyz2             3.130447      24.356473
                                                         0.966277       2.022223
                                                         0.319288      -0.104570
                                                         0.106668      -0.001741
                          2       9    4fz3              3.130447      10.892546
                                                         0.966277       0.904365
                                                         0.319288      -0.046765
                                                         0.106668      -0.000779

       Atomic covalent radius [Angstrom]:                                  0.320

       Atomic van der Waals radius [Angstrom]:                             1.090

     The atoms of this atomic kind are PAW atoms (GAPW):
       Hard Gaussian function radius:                                      1.000
       Rho0 radius:                                                        1.000
       Maximum GTO radius used for PAW projector construction:            24.566

     GAPW Soft Basis Set                                QZVPP-MOLOPT-PBE-ae_soft

       Number of orbital shell sets:                                           2
       Number of orbital shells:                                              10
       Number of primitive Cartesian functions:                                6
       Number of Cartesian basis functions:                                   35
       Number of spherical basis functions:                                   30
       Norm type:                                                              2

       Normalised Cartesian orbitals:

                        Set   Shell   Orbital            Exponent    Coefficient

                          1       1    1s                6.826831       2.001669
                                                         1.919769      -0.029959

                          2       1    1s                3.130447      -1.377299
                                                         0.966277       1.394773
                                                         0.319288      -0.156078
                                                         0.106668      -0.030399

                          2       2    2s                3.130447       0.627930
                                                         0.966277       0.181305
                                                         0.319288       0.270118
                                                         0.106668      -0.141637

                          2       3    3s                3.130447       0.192674
                                                         0.966277       0.139459
                                                         0.319288       0.123455
                                                         0.106668       0.057384

                          2       4    2px               3.130447       5.209863
                                                         0.966277       0.306652
                                                         0.319288      -0.046374
                                                         0.106668       0.001892
                          2       4    2py               3.130447       5.209863
                                                         0.966277       0.306652
                                                         0.319288      -0.046374
                                                         0.106668       0.001892
                          2       4    2pz               3.130447       5.209863
                                                         0.966277       0.306652
                                                         0.319288      -0.046374
                                                         0.106668       0.001892

                          2       5    3px               3.130447      -3.914345
                                                         0.966277       2.603852
                                                         0.319288      -0.366926
                                                         0.106668       0.021211
                          2       5    3py               3.130447      -3.914345
                                                         0.966277       2.603852
                                                         0.319288      -0.366926
                                                         0.106668       0.021211
                          2       5    3pz               3.130447      -3.914345
                                                         0.966277       2.603852
                                                         0.319288      -0.366926
                                                         0.106668       0.021211

                          2       6    4px               3.130447       0.035970
                                                         0.966277       0.584401
                                                         0.319288       0.248663
                                                         0.106668      -0.011549
                          2       6    4py               3.130447       0.035970
                                                         0.966277       0.584401
                                                         0.319288       0.248663
                                                         0.106668      -0.011549
                          2       6    4pz               3.130447       0.035970
                                                         0.966277       0.584401
                                                         0.319288       0.248663
                                                         0.106668      -0.011549

                          2       7    3dx2              3.130447      12.003734
                                                         0.966277       0.024974
                                                         0.319288      -0.000993
                                                         0.106668       0.001171
                          2       7    3dxy              3.130447      20.791077
                                                         0.966277       0.043257
                                                         0.319288      -0.001719
                                                         0.106668       0.002027
                          2       7    3dxz              3.130447      20.791077
                                                         0.966277       0.043257
                                                         0.319288      -0.001719
                                                         0.106668       0.002027
                          2       7    3dy2              3.130447      12.003734
                                                         0.966277       0.024974
                                                         0.319288      -0.000993
                                                         0.106668       0.001171
                          2       7    3dyz              3.130447      20.791077
                                                         0.966277       0.043257
                                                         0.319288      -0.001719
                                                         0.106668       0.002027
                          2       7    3dz2              3.130447      12.003734
                                                         0.966277       0.024974
                                                         0.319288      -0.000993
                                                         0.106668       0.001171

                          2       8    4dx2              3.130447      -0.131032
                                                         0.966277       1.436860
                                                         0.319288       0.033800
                                                         0.106668      -0.003271
                          2       8    4dxy              3.130447      -0.226954
                                                         0.966277       2.488715
                                                         0.319288       0.058543
                                                         0.106668      -0.005666
                          2       8    4dxz              3.130447      -0.226954
                                                         0.966277       2.488715
                                                         0.319288       0.058543
                                                         0.106668      -0.005666
                          2       8    4dy2              3.130447      -0.131032
                                                         0.966277       1.436860
                                                         0.319288       0.033800
                                                         0.106668      -0.003271
                          2       8    4dyz              3.130447      -0.226954
                                                         0.966277       2.488715
                                                         0.319288       0.058543
                                                         0.106668      -0.005666
                          2       8    4dz2              3.130447      -0.131032
                                                         0.966277       1.436860
                                                         0.319288       0.033800
                                                         0.106668      -0.003271

                          2       9    4fx3              3.130447      10.892546
                                                         0.966277       0.904365
                                                         0.319288      -0.046765
                                                         0.106668      -0.000779
                          2       9    4fx2y             3.130447      24.356473
                                                         0.966277       2.022223
                                                         0.319288      -0.104570
                                                         0.106668      -0.001741
                          2       9    4fx2z             3.130447      24.356473
                                                         0.966277       2.022223
                                                         0.319288      -0.104570
                                                         0.106668      -0.001741
                          2       9    4fxy2             3.130447      24.356473
                                                         0.966277       2.022223
                                                         0.319288      -0.104570
                                                         0.106668      -0.001741
                          2       9    4fxyz             3.130447      42.186648
                                                         0.966277       3.502592
                                                         0.319288      -0.181121
                                                         0.106668      -0.003016
                          2       9    4fxz2             3.130447      24.356473
                                                         0.966277       2.022223
                                                         0.319288      -0.104570
                                                         0.106668      -0.001741
                          2       9    4fy3              3.130447      10.892546
                                                         0.966277       0.904365
                                                         0.319288      -0.046765
                                                         0.106668      -0.000779
                          2       9    4fy2z             3.130447      24.356473
                                                         0.966277       2.022223
                                                         0.319288      -0.104570
                                                         0.106668      -0.001741
                          2       9    4fyz2             3.130447      24.356473
                                                         0.966277       2.022223
                                                         0.319288      -0.104570
                                                         0.106668      -0.001741
                          2       9    4fz3              3.130447      10.892546
                                                         0.966277       0.904365
                                                         0.319288      -0.046765
                                                         0.106668      -0.000779

     AE Potential information for                                            ALL

       Description:                                       All-electron potential
                                          Krack, Parrinello, PCCP 2, 2105 (2000)

       Gaussian exponent of the core charge distribution:              12.500000
       Electronic configuration (s p d ...):                           1   0   0


 MOLECULE KIND INFORMATION


 All atoms are their own molecule, skipping detailed information


 TOTAL NUMBERS AND MAXIMUM NUMBERS

  Total number of            - Atomic kinds:                                   4
                             - Atoms:                                         33
                             - Shell sets:                                    87
                             - Shells:                                       477
                             - Primitive Cartesian functions:                453
                             - Cartesian basis functions:                   1932
                             - Spherical basis functions:                   1557

  Maximum angular momentum of the orbital basis functions:                     4


 MODULE QUICKSTEP: ATOMIC COORDINATES IN ANGSTROM

   Atom Kind Element         X             Y             Z       Z(eff)     Mass
      1    1 C     6     16.854725     20.297155     14.010305   6.0000  12.0107
      2    2 N     7     15.704145     19.382435     13.707525   7.0000  14.0067
      3    3 B     5     16.221325     18.206395     13.080685   5.0000  10.8110
      4    2 N     7     17.658765     18.213425     12.965125   7.0000  14.0067
      5    3 B     5     18.126795     19.331605     13.732875   5.0000  10.8110
      6    2 N     7     15.467855     17.003745     12.958985   7.0000  14.0067
      7    3 B     5     14.264615     16.851115     13.726185   5.0000  10.8110
      8    2 N     7     13.680995     18.047535     14.249955   7.0000  14.0067
      9    3 B     5     14.415655     19.305525     14.313035   5.0000  10.8110
     10    3 B     5     16.196905     15.764225     13.077995   5.0000  10.8110
     11    2 N     7     15.441995     14.733675     13.716895   7.0000  14.0067
     12    1 C     6     14.074225     15.270075     14.019775   6.0000  12.0107
     13    3 B     5     18.324385     16.958155     13.073015   5.0000  10.8110
     14    2 N     7     19.601305     16.813415     13.698745   7.0000  14.0067
     15    3 B     5     20.168435     17.960745     14.326655   5.0000  10.8110
     16    2 N     7     19.448845     19.227395     14.268505   7.0000  14.0067
     17    2 N     7     17.614585     15.708035     12.950935   7.0000  14.0067
     18    3 B     5     18.350615     14.742925     13.718045   5.0000  10.8110
     19    1 C     6     19.819515     15.359875     13.998655   6.0000  12.0107
     20    3 B     5     16.152385     13.659195     14.327555   5.0000  10.8110
     21    2 N     7     17.608525     13.644985     14.253895   7.0000  14.0067
     22    4 H     1     19.834635     19.982225     14.812665   1.0000   1.0079
     23    4 H     1     21.172225     17.891935     14.967435   1.0000   1.0079
     24    4 H     1     16.791765     20.658935     15.038045   1.0000   1.0079
     25    4 H     1     13.959085     20.213275     14.938385   1.0000   1.0079
     26    4 H     1     12.827775     18.001945     14.782585   1.0000   1.0079
     27    4 H     1     13.325145     14.797135     13.377465   1.0000   1.0079
     28    4 H     1     15.594645     12.820355     14.965715   1.0000   1.0079
     29    4 H     1     18.078335     12.934275     14.790495   1.0000   1.0079
     30    4 H     1     20.163415     15.229485     15.026165   1.0000   1.0079
     31    4 H     1     13.793555     15.041365     15.049065   1.0000   1.0079
     32    4 H     1     16.827625     21.179645     13.363545   1.0000   1.0079
     33    4 H     1     20.598055     14.944605     13.351655   1.0000   1.0079



 SCF PARAMETERS         Density guess:                                    ATOMIC
                        --------------------------------------------------------
                        max_scf:                                             200
                        max_scf_history:                                       0
                        max_diis:                                              4
                        --------------------------------------------------------
                        eps_scf:                                        5.00E-07
                        eps_scf_history:                                0.00E+00
                        eps_diis:                                       0.00E+00
                        eps_eigval:                                     1.00E-05
                        --------------------------------------------------------
                        level_shift [a.u.]:                             0.000000
                        --------------------------------------------------------
                        Outer loop SCF in use 
                        No variables optimised in outer loop
                        eps_scf                                         5.00E-07
                        max_scf                                               20
                        No outer loop optimization
                        step_size                                       5.00E-01

 PW_GRID| Information for grid number                                          1
 PW_GRID| Cutoff [a.u.]                                                    320.0
 PW_GRID| spherical cutoff:                                                   NO
 PW_GRID|   Bounds   1           -270     269                Points:         540
 PW_GRID|   Bounds   2           -270     269                Points:         540
 PW_GRID|   Bounds   3           -216     215                Points:         432
 PW_GRID| Volume element (a.u.^3)  0.1734E-02     Volume (a.u.^3)    218430.0938
 PW_GRID| Grid span                                                    FULLSPACE

 PW_GRID| Information for grid number                                          2
 PW_GRID| Number of the reference grid                                         1
 PW_GRID| Cutoff [a.u.]                                                    106.7
 PW_GRID| spherical cutoff:                                                   NO
 PW_GRID|   Bounds   1           -150     149                Points:         300
 PW_GRID|   Bounds   2           -150     149                Points:         300
 PW_GRID|   Bounds   3           -128     127                Points:         256
 PW_GRID| Volume element (a.u.^3)  0.9480E-02     Volume (a.u.^3)    218430.0938
 PW_GRID| Grid span                                                    FULLSPACE

 PW_GRID| Information for grid number                                          3
 PW_GRID| Number of the reference grid                                         1
 PW_GRID| Cutoff [a.u.]                                                     35.6
 PW_GRID| spherical cutoff:                                                   NO
 PW_GRID|   Bounds   1            -90      89                Points:         180
 PW_GRID|   Bounds   2            -90      89                Points:         180
 PW_GRID|   Bounds   3            -72      71                Points:         144
 PW_GRID| Volume element (a.u.^3)  0.4682E-01     Volume (a.u.^3)    218430.0938
 PW_GRID| Grid span                                                    FULLSPACE

 PW_GRID| Information for grid number                                          4
 PW_GRID| Number of the reference grid                                         1
 PW_GRID| Cutoff [a.u.]                                                     11.9
 PW_GRID| spherical cutoff:                                                   NO
 PW_GRID|   Bounds   1            -50      49                Points:         100
 PW_GRID|   Bounds   2            -50      49                Points:         100
 PW_GRID|   Bounds   3            -45      44                Points:          90
 PW_GRID| Volume element (a.u.^3)  0.2427         Volume (a.u.^3)    218430.0938
 PW_GRID| Grid span                                                    FULLSPACE

 PW_GRID| Information for grid number                                          5
 PW_GRID| Number of the reference grid                                         1
 PW_GRID| Cutoff [a.u.]                                                      4.0
 PW_GRID| spherical cutoff:                                                   NO
 PW_GRID|   Bounds   1            -30      29                Points:          60
 PW_GRID|   Bounds   2            -30      29                Points:          60
 PW_GRID|   Bounds   3            -24      23                Points:          48
 PW_GRID| Volume element (a.u.^3)   1.264         Volume (a.u.^3)    218430.0938
 PW_GRID| Grid span                                                    FULLSPACE

 POISSON| Solver                                                        ANALYTIC
 POISSON| Periodicity                                                       NONE

 RS_GRID| Information for grid number                                          1
 RS_GRID|   Bounds   1           -270     269                Points:         540
 RS_GRID|   Bounds   2           -270     269                Points:         540
 RS_GRID|   Bounds   3           -216     215                Points:         432

 RS_GRID| Information for grid number                                          2
 RS_GRID|   Bounds   1           -150     149                Points:         300
 RS_GRID|   Bounds   2           -150     149                Points:         300
 RS_GRID|   Bounds   3           -128     127                Points:         256

 RS_GRID| Information for grid number                                          3
 RS_GRID|   Bounds   1            -90      89                Points:         180
 RS_GRID|   Bounds   2            -90      89                Points:         180
 RS_GRID|   Bounds   3            -72      71                Points:         144

 RS_GRID| Information for grid number                                          4
 RS_GRID|   Bounds   1            -50      49                Points:         100
 RS_GRID|   Bounds   2            -50      49                Points:         100
 RS_GRID|   Bounds   3            -45      44                Points:          90

 RS_GRID| Information for grid number                                          5
 RS_GRID|   Bounds   1            -30      29                Points:          60
 RS_GRID|   Bounds   2            -30      29                Points:          60
 RS_GRID|   Bounds   3            -24      23                Points:          48

 Extrapolation method: initial_guess

 Atomic guess: The first density matrix is obtained in terms of atomic orbitals
               and electronic configurations assigned to each atomic kind

 Guess for atomic kind: C

 Electronic structure
    Total number of core electrons                                          0.00
    Total number of valence electrons                                       6.00
    Total number of electrons                                               6.00
    Multiplicity                                                   not specified
    S      2.00  2.00
    P      2.00


 *******************************************************************************
                  Iteration          Convergence                     Energy [au]
 *******************************************************************************
                          1        0.121131                     -37.408025616402
                          2        0.889122E-01                 -37.412089819870
                          3        0.789064E-03                 -37.416439806797
                          4        0.203035E-03                 -37.416440414393
                          5        0.213319E-05                 -37.416440439405
                          6        0.301158E-06                 -37.416440439411

 Energy components [Hartree]           Total Energy ::          -37.416440439411
                                        Band Energy ::          -21.189318935860
                                     Kinetic Energy ::           37.251648416831
                                   Potential Energy ::          -74.668088856242
                                      Virial (-V/T) ::            2.004423751152
                                        Core Energy ::          -50.404666909255
                                          XC Energy ::           -4.740629627134
                                     Coulomb Energy ::           17.728856096978

 Orbital energies  State     L     Occupation   Energy[a.u.]          Energy[eV]

                       1     0          2.000      -9.921831         -269.986751
                       2     0          2.000      -0.488719          -13.298719

                       1     1          2.000      -0.184110           -5.009876


 Total Electron Density at R=0:                                       124.835849

 Guess for atomic kind: N

 Electronic structure
    Total number of core electrons                                          0.00
    Total number of valence electrons                                       7.00
    Total number of electrons                                               7.00
    Multiplicity                                                   not specified
    S      2.00  2.00
    P      3.00


 *******************************************************************************
                  Iteration          Convergence                     Energy [au]
 *******************************************************************************
                          1        0.392425                     -53.979206244502
                          2        0.395653                     -53.981694565547
                          3        0.220944E-01                 -54.020182085729
                          4        0.838714E-03                 -54.020333404218
                          5        0.923182E-04                 -54.020333555207
                          6        0.410349E-06                 -54.020333557341

 Energy components [Hartree]           Total Energy ::          -54.020333557341
                                        Band Energy ::          -30.166637022386
                                     Kinetic Energy ::           53.744605262773
                                   Potential Energy ::         -107.764938820114
                                      Virial (-V/T) ::            2.005130343654
                                        Core Energy ::          -73.684465545959
                                          XC Energy ::           -6.138321880887
                                     Coulomb Energy ::           25.802453869506

 Orbital energies  State     L     Occupation   Energy[a.u.]          Energy[eV]

                       1     0          2.000     -14.008168         -381.181629
                       2     0          2.000      -0.676146          -18.398882

                       1     1          3.000      -0.266003           -7.238306


 Total Electron Density at R=0:                                       194.656266

 Guess for atomic kind: B

 Electronic structure
    Total number of core electrons                                          0.00
    Total number of valence electrons                                       5.00
    Total number of electrons                                               5.00
    Multiplicity                                                   not specified
    S      2.00  2.00
    P      1.00


 *******************************************************************************
                  Iteration          Convergence                     Energy [au]
 *******************************************************************************
                          1        0.694131E-01                 -24.339016092860
                          2        0.371529E-01                 -24.341165401938
                          3        0.176165E-02                 -24.342334147556
                          4        0.131107E-03                 -24.342337922229
                          5        0.416147E-06                 -24.342337946694

 Energy components [Hartree]           Total Energy ::          -24.342337946694
                                        Band Energy ::          -13.956853443242
                                     Kinetic Energy ::           24.160284445636
                                   Potential Energy ::          -48.502622392330
                                      Virial (-V/T) ::            2.007535238315
                                        Core Energy ::          -32.318560408163
                                          XC Energy ::           -3.522745561257
                                     Coulomb Energy ::           11.498968022725

 Orbital energies  State     L     Occupation   Energy[a.u.]          Energy[eV]

                       1     0          2.000      -6.565150         -178.646819
                       2     0          2.000      -0.344872           -9.384440

                       1     1          1.000      -0.136810           -3.722779


 Total Electron Density at R=0:                                        66.790306

 Guess for atomic kind: H

 Electronic structure
    Total number of core electrons                                          0.00
    Total number of valence electrons                                       1.00
    Total number of electrons                                               1.00
    Multiplicity                                                   not specified
    S      1.00


 *******************************************************************************
                  Iteration          Convergence                     Energy [au]
 *******************************************************************************
                          1        0.789755E-02                  -0.444208304322
                          2        0.114953E-02                  -0.444307779626
                          3        0.297298E-04                  -0.444310667039
                          4        0.544408E-08                  -0.444310669181

 Energy components [Hartree]           Total Energy ::           -0.444310669181
                                        Band Energy ::           -0.232721097962
                                     Kinetic Energy ::            0.428135755362
                                   Potential Energy ::           -0.872446424543
                                      Virial (-V/T) ::            2.037779871493
                                        Core Energy ::           -0.494332080896
                                          XC Energy ::           -0.231885855504
                                     Coulomb Energy ::            0.281907267219

 Orbital energies  State     L     Occupation   Energy[a.u.]          Energy[eV]

                       1     0          1.000      -0.232721           -6.332663


 Total Electron Density at R=0:                                         0.256258
 Re-scaling the density matrix to get the right number of electrons
                  # Electrons              Trace(P)               Scaling factor
                          138               138.000                        1.000

 Number of electrons:                                                        138
 Number of occupied orbitals:                                                 69
 Number of molecular orbitals:                                                69

 Number of orbital functions:                                               1557
 Number of independent orbital functions:                                   1557


 SCF WAVEFUNCTION OPTIMIZATION

  ----------------------------------- OT ---------------------------------------
  Minimizer      : DIIS                : direct inversion
                                         in the iterative subspace
                                         using   7 DIIS vectors
                                         safer DIIS on
  Preconditioner : FULL_ALL            : diagonalization, state selective
  Precond_solver : DEFAULT
  stepsize       :    0.10000000                  energy_gap     :    0.00100000
  eps_taylor     :   0.10000E-15                  max_taylor     :             4
  ----------------------------------- OT ---------------------------------------

  Step     Update method      Time    Convergence         Total energy    Change
  ------------------------------------------------------------------------------
 SKALA_GPW| Atom-composite cross support/maxima   2.607069088142E+00   3.414999133157E+01   3.865669022555E+02   8.329713020554E+02
 SKALA_GPW| Active atom-composite XC energy  -1.1378185990392060E+02
 SKALA_GPW| Active atom-composite electrons   1.3800019438732696E+02
 SKALA_GPW| Active atom-composite density range  -3.9680115292405773E-09   9.4737706041075981E+01
 SKALA_GPW| Active atom-composite tau range  -6.5369904410412918E-08   2.4963705465895937E+03
 SKALA_GPW| Active atom-composite tau integral   8.0714427823173708E+02
 SKALA_GPW| Active atom-composite max gradient   1.3158838994785890E+03
     1 OT DIIS     0.10E+00  407.8     0.05291656      -804.2693963681 -8.04E+02
 SKALA_GPW| Atom-composite cross support/maxima   2.607069088142E+00   3.607154461801E+01   4.123546402189E+02   8.804039707569E+02
 SKALA_GPW| Active atom-composite XC energy  -1.1801415387789947E+02
 SKALA_GPW| Active atom-composite electrons   1.3800015611207672E+02
 SKALA_GPW| Active atom-composite density range  -3.2970912434136168E-09   9.7003725988396837E+01
 SKALA_GPW| Active atom-composite tau range  -5.0206027145157940E-08   2.5643017320994791E+03
 SKALA_GPW| Active atom-composite tau integral   8.3846849944236351E+02
 SKALA_GPW| Active atom-composite max gradient   1.3505828375247256E+03
     2 OT DIIS     0.10E+00  345.3     0.02618327      -826.1956779432 -2.19E+01
 SKALA_GPW| Atom-composite cross support/maxima   2.607069088142E+00   3.651196362088E+01   4.175608383424E+02   8.928177135101E+02
 SKALA_GPW| Active atom-composite XC energy  -1.1911555187898426E+02
 SKALA_GPW| Active atom-composite electrons   1.3800013127540129E+02
 SKALA_GPW| Active atom-composite density range  -3.0509897893189918E-09   9.8332221004488105E+01
 SKALA_GPW| Active atom-composite tau range  -4.5924068335176248E-08   2.6001462879514838E+03
 SKALA_GPW| Active atom-composite tau integral   8.4154644516592998E+02
 SKALA_GPW| Active atom-composite max gradient   1.3695706771018906E+03
     3 OT DIIS     0.10E+00  347.0     0.01220405      -833.3967639380 -7.20E+00
 SKALA_GPW| Atom-composite cross support/maxima   2.607069088142E+00   3.636557575514E+01   4.189083355399E+02   8.890738028452E+02
 SKALA_GPW| Active atom-composite XC energy  -1.1940272292334679E+02
 SKALA_GPW| Active atom-composite electrons   1.3800011371714828E+02
 SKALA_GPW| Active atom-composite density range  -2.9650980760429087E-09   9.7987971742374270E+01
 SKALA_GPW| Active atom-composite tau range  -4.1524535733186184E-08   2.5928775947126369E+03
 SKALA_GPW| Active atom-composite tau integral   8.3933899852925515E+02
 SKALA_GPW| Active atom-composite max gradient   1.3652340060327215E+03
     4 OT DIIS     0.10E+00  343.6     0.00775010      -835.2853112257 -1.89E+00
 SKALA_GPW| Atom-composite cross support/maxima   2.607069088142E+00   3.631382052652E+01   4.185445474644E+02   8.879403566593E+02
 SKALA_GPW| Active atom-composite XC energy  -1.1956886606460145E+02
 SKALA_GPW| Active atom-composite electrons   1.3800010278516567E+02
 SKALA_GPW| Active atom-composite density range  -2.8499973072510589E-09   9.7857141411008939E+01
 SKALA_GPW| Active atom-composite tau range  -4.1635914996039002E-08   2.5899690611798596E+03
 SKALA_GPW| Active atom-composite tau integral   8.3796048074820135E+02
 SKALA_GPW| Active atom-composite max gradient   1.3635820091948760E+03
     5 OT DIIS     0.10E+00  342.3     0.00602863      -836.1580613827 -8.73E-01
 SKALA_GPW| Atom-composite cross support/maxima   2.607069088142E+00   3.624812235282E+01   4.181229313153E+02   8.859828281031E+02
 SKALA_GPW| Active atom-composite XC energy  -1.1970373371624902E+02
 SKALA_GPW| Active atom-composite electrons   1.3800009111832509E+02
 SKALA_GPW| Active atom-composite density range  -2.4273445009657894E-09   9.7813473961864659E+01
 SKALA_GPW| Active atom-composite tau range  -4.1890508572369779E-08   2.5866416133764324E+03
 SKALA_GPW| Active atom-composite tau integral   8.3634152903285428E+02
 SKALA_GPW| Active atom-composite max gradient   1.3624569887682569E+03
     6 OT DIIS     0.10E+00  343.3     0.00445021      -836.9998941457 -8.42E-01
 SKALA_GPW| Atom-composite cross support/maxima   2.607069088142E+00   3.620742983152E+01   4.179485737065E+02   8.846693355838E+02
 SKALA_GPW| Active atom-composite XC energy  -1.1978498051043692E+02
 SKALA_GPW| Active atom-composite electrons   1.3800008157337570E+02
 SKALA_GPW| Active atom-composite density range  -2.4361800299623882E-09   9.7736518438304941E+01
 SKALA_GPW| Active atom-composite tau range  -4.2320398300679000E-08   2.5850875497497964E+03
 SKALA_GPW| Active atom-composite tau integral   8.3551576993990091E+02
 SKALA_GPW| Active atom-composite max gradient   1.3615912172009519E+03
     7 OT DIIS     0.10E+00  343.7     0.00320130      -837.5412889434 -5.41E-01
 SKALA_GPW| Atom-composite cross support/maxima   2.607069088142E+00   3.623868827786E+01   4.181285165488E+02   8.851952870715E+02
 SKALA_GPW| Active atom-composite XC energy  -1.1982679246939152E+02
 SKALA_GPW| Active atom-composite electrons   1.3800007616345565E+02
 SKALA_GPW| Active atom-composite density range  -2.4908188149201929E-09   9.7738627025320881E+01
 SKALA_GPW| Active atom-composite tau range  -4.3276717429881215E-08   2.5853935951832609E+03
 SKALA_GPW| Active atom-composite tau integral   8.3541873859808993E+02
 SKALA_GPW| Active atom-composite max gradient   1.3616659892480029E+03
     8 OT DIIS     0.10E+00  342.2     0.00273441      -837.7745900665 -2.33E-01
 SKALA_GPW| Atom-composite cross support/maxima   2.607069088142E+00   3.622454904012E+01   4.180526050484E+02   8.846501020784E+02
 SKALA_GPW| Active atom-composite XC energy  -1.1986593374238771E+02
 SKALA_GPW| Active atom-composite electrons   1.3800006974059568E+02
 SKALA_GPW| Active atom-composite density range  -3.0859660716550833E-09   9.7722192811970416E+01
 SKALA_GPW| Active atom-composite tau range  -4.3259208336497772E-08   2.5851918950274912E+03
 SKALA_GPW| Active atom-composite tau integral   8.3506624708830179E+02
 SKALA_GPW| Active atom-composite max gradient   1.3615844256947983E+03
     9 OT DIIS     0.10E+00  343.9     0.00200866      -838.0144547421 -2.40E-01
 SKALA_GPW| Atom-composite cross support/maxima   2.607069088142E+00   3.625841768618E+01   4.183656600957E+02   8.854140014613E+02
 SKALA_GPW| Active atom-composite XC energy  -1.1992153981913364E+02
 SKALA_GPW| Active atom-composite electrons   1.3800006659648909E+02
 SKALA_GPW| Active atom-composite density range  -3.0824244518179159E-09   9.7737293787357558E+01
 SKALA_GPW| Active atom-composite tau range  -4.4869614449808237E-08   2.5852815933213878E+03
 SKALA_GPW| Active atom-composite tau integral   8.3539577297181108E+02
 SKALA_GPW| Active atom-composite max gradient   1.3617216456321294E+03
    10 OT DIIS     0.10E+00  342.0     0.00215438      -838.0797902172 -6.53E-02
 SKALA_GPW| Atom-composite cross support/maxima   2.607069088142E+00   3.624795134040E+01   4.183435998380E+02   8.850293460841E+02
 SKALA_GPW| Active atom-composite XC energy  -1.1993260173412433E+02
 SKALA_GPW| Active atom-composite electrons   1.3800006421887755E+02
 SKALA_GPW| Active atom-composite density range  -3.2518644466173675E-09   9.7724753829295850E+01
 SKALA_GPW| Active atom-composite tau range  -4.5444060718237590E-08   2.5849516918673548E+03
 SKALA_GPW| Active atom-composite tau integral   8.3520112738349235E+02
 SKALA_GPW| Active atom-composite max gradient   1.3615902933615100E+03
    11 OT DIIS     0.10E+00  338.9     0.00176353      -838.1705945821 -9.08E-02
 SKALA_GPW| Atom-composite cross support/maxima   2.607069088142E+00   3.623675162212E+01   4.182643118447E+02   8.846446344843E+02
 SKALA_GPW| Active atom-composite XC energy  -1.1994389583074539E+02
 SKALA_GPW| Active atom-composite electrons   1.3800006262007852E+02
 SKALA_GPW| Active atom-composite density range  -3.3339026965243702E-09   9.7712734041576979E+01
 SKALA_GPW| Active atom-composite tau range  -4.6448511602026908E-08   2.5846516048515373E+03
 SKALA_GPW| Active atom-composite tau integral   8.3500095201377269E+02
 SKALA_GPW| Active atom-composite max gradient   1.3614541408883429E+03
    12 OT DIIS     0.10E+00  342.3     0.00154866      -838.2481721529 -7.76E-02
 SKALA_GPW| Atom-composite cross support/maxima   2.607069088142E+00   3.623822727939E+01   4.182699404173E+02   8.846815123000E+02
 SKALA_GPW| Active atom-composite XC energy  -1.1996376991329069E+02
 SKALA_GPW| Active atom-composite electrons   1.3800006217336394E+02
 SKALA_GPW| Active atom-composite density range  -3.2931568136320672E-09   9.7706833046432152E+01
 SKALA_GPW| Active atom-composite tau range  -4.7407949314080046E-08   2.5845129965062811E+03
 SKALA_GPW| Active atom-composite tau integral   8.3501241778079259E+02
 SKALA_GPW| Active atom-composite max gradient   1.3613819223299320E+03
    13 OT SD       0.10E+00  340.6     0.00161417      -838.2837827124 -3.56E-02
 SKALA_GPW| Atom-composite cross support/maxima   2.607069088142E+00   3.623057151742E+01   4.182195320056E+02   8.844721919064E+02
 SKALA_GPW| Active atom-composite XC energy  -1.1996572868399500E+02
 SKALA_GPW| Active atom-composite electrons   1.3800006209843067E+02
 SKALA_GPW| Active atom-composite density range  -3.3000081602630916E-09   9.7695813348520858E+01
 SKALA_GPW| Active atom-composite tau range  -4.7835416176910241E-08   2.5843272583198072E+03
 SKALA_GPW| Active atom-composite tau integral   8.3492304029037462E+02
 SKALA_GPW| Active atom-composite max gradient   1.3612645745081657E+03
    14 OT SD       0.10E+00  340.3     0.00155851      -838.3107571289 -2.70E-02
 SKALA_GPW| Atom-composite cross support/maxima   2.607069088142E+00   3.623023304936E+01   4.182201508067E+02   8.844407981841E+02
 SKALA_GPW| Active atom-composite XC energy  -1.1997364009609407E+02
 SKALA_GPW| Active atom-composite electrons   1.3800006204352212E+02
 SKALA_GPW| Active atom-composite density range  -3.3080870440388743E-09   9.7693111959982986E+01
 SKALA_GPW| Active atom-composite tau range  -4.8308544448483610E-08   2.5842991316229109E+03
 SKALA_GPW| Active atom-composite tau integral   8.3488613853143693E+02
 SKALA_GPW| Active atom-composite max gradient   1.3612399677863496E+03
    15 OT SD       0.10E+00  347.5     0.00155599      -838.3367870060 -2.60E-02
 SKALA_GPW| Atom-composite cross support/maxima   2.607069088142E+00   3.623006930584E+01   4.182180669740E+02   8.844298412500E+02
 SKALA_GPW| Active atom-composite XC energy  -1.1998398336579723E+02
 SKALA_GPW| Active atom-composite electrons   1.3800006203458284E+02
 SKALA_GPW| Active atom-composite density range  -3.3131742388803200E-09   9.7688092527772753E+01
 SKALA_GPW| Active atom-composite tau range  -4.8754282811793615E-08   2.5842379329411915E+03
 SKALA_GPW| Active atom-composite tau integral   8.3486509930446130E+02
 SKALA_GPW| Active atom-composite max gradient   1.3611876997308977E+03
    16 OT SD       0.10E+00  345.3     0.00155564      -838.3627853525 -2.60E-02
 SKALA_GPW| Atom-composite cross support/maxima   2.607069088142E+00   3.623002194745E+01   4.182184717809E+02   8.844224164455E+02
 SKALA_GPW| Active atom-composite XC energy  -1.1999484333182707E+02
 SKALA_GPW| Active atom-composite electrons   1.3800006208540239E+02
 SKALA_GPW| Active atom-composite density range  -3.3153604583953718E-09   9.7683443843978793E+01
 SKALA_GPW| Active atom-composite tau range  -4.9177060615625839E-08   2.5841797646007690E+03
 SKALA_GPW| Active atom-composite tau integral   8.3484650558969088E+02
 SKALA_GPW| Active atom-composite max gradient   1.3611380960655483E+03
    17 OT DIIS     0.10E+00  344.3     0.00155271      -838.3887579457 -2.60E-02
 SKALA_GPW| Atom-composite cross support/maxima   2.607069088142E+00   3.622738342023E+01   4.182365869944E+02   8.843063728837E+02
 SKALA_GPW| Active atom-composite XC energy  -1.1999870353735167E+02
 SKALA_GPW| Active atom-composite electrons   1.3800006267366030E+02
 SKALA_GPW| Active atom-composite density range  -3.4340319077110643E-09   9.7677239906696755E+01
 SKALA_GPW| Active atom-composite tau range  -4.7332530387510678E-08   2.5840257761718685E+03
 SKALA_GPW| Active atom-composite tau integral   8.3489526043685544E+02
 SKALA_GPW| Active atom-composite max gradient   1.3610566974283661E+03
    18 OT DIIS     0.10E+00  342.9     0.00203775      -838.3779575719  1.08E-02
 SKALA_GPW| Atom-composite cross support/maxima   2.607069088142E+00   3.622888353462E+01   4.182330991063E+02   8.843856640092E+02
 SKALA_GPW| Active atom-composite XC energy  -1.2001274047368899E+02
 SKALA_GPW| Active atom-composite electrons   1.3800006323189913E+02
 SKALA_GPW| Active atom-composite density range  -3.3608202166584283E-09   9.7676770215390363E+01
 SKALA_GPW| Active atom-composite tau range  -4.7878456592118620E-08   2.5841282842898991E+03
 SKALA_GPW| Active atom-composite tau integral   8.3495727995059622E+02
 SKALA_GPW| Active atom-composite max gradient   1.3610757068603052E+03
    19 OT SD       0.10E+00  342.9     0.00208151      -838.3885784134 -1.06E-02
 SKALA_GPW| Atom-composite cross support/maxima   2.607069088142E+00   3.622966594288E+01   4.182300366611E+02   8.844364787721E+02
 SKALA_GPW| Active atom-composite XC energy  -1.2002468907054909E+02
 SKALA_GPW| Active atom-composite electrons   1.3800006332187465E+02
 SKALA_GPW| Active atom-composite density range  -3.3209214719611099E-09   9.7667362567014649E+01
 SKALA_GPW| Active atom-composite tau range  -4.8625781550977807E-08   2.5840882598162380E+03
 SKALA_GPW| Active atom-composite tau integral   8.3488916372026017E+02
 SKALA_GPW| Active atom-composite max gradient   1.3609932703402519E+03
    20 OT SD       0.10E+00  342.8     0.00174336      -838.4289590741 -4.04E-02
 SKALA_GPW| Atom-composite cross support/maxima   2.607069088142E+00   3.622901516377E+01   4.182294425559E+02   8.844285283046E+02
 SKALA_GPW| Active atom-composite XC energy  -1.2003604907131803E+02
 SKALA_GPW| Active atom-composite electrons   1.3800006334872816E+02
 SKALA_GPW| Active atom-composite density range  -3.3047161009555666E-09   9.7664817910336808E+01
 SKALA_GPW| Active atom-composite tau range  -4.9274429399614332E-08   2.5840662607527852E+03
 SKALA_GPW| Active atom-composite tau integral   8.3483970490540355E+02
 SKALA_GPW| Active atom-composite max gradient   1.3609655633811587E+03
    21 OT SD       0.10E+00  342.1     0.00165486      -838.4604959821 -3.15E-02
 SKALA_GPW| Atom-composite cross support/maxima   2.607069088142E+00   3.622801967240E+01   4.182206965025E+02   8.844177809532E+02
 SKALA_GPW| Active atom-composite XC energy  -1.2004856497776545E+02
 SKALA_GPW| Active atom-composite electrons   1.3800006341372276E+02
 SKALA_GPW| Active atom-composite density range  -3.2925361579705717E-09   9.7657584761106037E+01
 SKALA_GPW| Active atom-composite tau range  -4.9730872270632687E-08   2.5839502773520599E+03
 SKALA_GPW| Active atom-composite tau integral   8.3481067273376846E+02
 SKALA_GPW| Active atom-composite max gradient   1.3608818579610468E+03
    22 OT SD       0.10E+00  344.4     0.00160091      -838.4893811121 -2.89E-02
 SKALA_GPW| Atom-composite cross support/maxima   2.607069088142E+00   3.622721869135E+01   4.182166848808E+02   8.844056919477E+02
 SKALA_GPW| Active atom-composite XC energy  -1.2006028216086072E+02
 SKALA_GPW| Active atom-composite electrons   1.3800006353784991E+02
 SKALA_GPW| Active atom-composite density range  -3.2805330807957020E-09   9.7651822496504010E+01
 SKALA_GPW| Active atom-composite tau range  -5.0109447053729347E-08   2.5838544482843345E+03
 SKALA_GPW| Active atom-composite tau integral   8.3478620923354947E+02
 SKALA_GPW| Active atom-composite max gradient   1.3608119865220435E+03
    23 OT SD       0.10E+00  344.8     0.00155306      -838.5164900289 -2.71E-02
 SKALA_GPW| Atom-composite cross support/maxima   2.607069088142E+00   3.622638696396E+01   4.182123066216E+02   8.843944556077E+02
 SKALA_GPW| Active atom-composite XC energy  -1.2007155781197993E+02
 SKALA_GPW| Active atom-composite electrons   1.3800006371780043E+02
 SKALA_GPW| Active atom-composite density range  -3.2665409803469175E-09   9.7645796634457497E+01
 SKALA_GPW| Active atom-composite tau range  -5.0419458203429273E-08   2.5837524861913853E+03
 SKALA_GPW| Active atom-composite tau integral   8.3476638351561940E+02
 SKALA_GPW| Active atom-composite max gradient   1.3607389029972412E+03
    24 OT DIIS     0.10E+00  346.2     0.00150522      -838.5419983549 -2.55E-02
 SKALA_GPW| Atom-composite cross support/maxima   2.607069088142E+00   3.622028473816E+01   4.181936513608E+02   8.843706395039E+02
 SKALA_GPW| Active atom-composite XC energy  -1.2015376609241237E+02
 SKALA_GPW| Active atom-composite electrons   1.3800006828929679E+02
 SKALA_GPW| Active atom-composite density range  -3.0175701113043172E-09   9.7592187193555745E+01
 SKALA_GPW| Active atom-composite tau range  -5.1276678556306504E-08   2.5826128017791748E+03
 SKALA_GPW| Active atom-composite tau integral   8.3457955202350490E+02
 SKALA_GPW| Active atom-composite max gradient   1.3600086429637634E+03
    25 OT DIIS     0.10E+00  343.3     0.00089473      -838.7638616298 -2.22E-01
 SKALA_GPW| Atom-composite cross support/maxima   2.607069088142E+00   3.621931656415E+01   4.182089737561E+02   8.843841248969E+02
 SKALA_GPW| Active atom-composite XC energy  -1.2016550630507815E+02
 SKALA_GPW| Active atom-composite electrons   1.3800006875687680E+02
 SKALA_GPW| Active atom-composite density range  -3.0155362313485266E-09   9.7591389610429928E+01
 SKALA_GPW| Active atom-composite tau range  -5.1207903208174377E-08   2.5825994559084243E+03
 SKALA_GPW| Active atom-composite tau integral   8.3461785097068764E+02
 SKALA_GPW| Active atom-composite max gradient   1.3599890833836264E+03
    26 OT DIIS     0.10E+00  344.8     0.00077316      -838.7776361240 -1.38E-02
 SKALA_GPW| Atom-composite cross support/maxima   2.607069088142E+00   3.621744599023E+01   4.182174268276E+02   8.844944538749E+02
 SKALA_GPW| Active atom-composite XC energy  -1.2018243003983966E+02
 SKALA_GPW| Active atom-composite electrons   1.3800007078272267E+02
 SKALA_GPW| Active atom-composite density range  -3.0928876216985168E-09   9.7585342146903841E+01
 SKALA_GPW| Active atom-composite tau range  -5.0958388616343699E-08   2.5825399953436945E+03
 SKALA_GPW| Active atom-composite tau integral   8.3459350701677295E+02
 SKALA_GPW| Active atom-composite max gradient   1.3597994858468619E+03
    27 OT DIIS     0.10E+00  346.7     0.00060693      -838.8163496087 -3.87E-02
 SKALA_GPW| Atom-composite cross support/maxima   2.607069088142E+00   3.621142949241E+01   4.181751603169E+02   8.842906177406E+02
 SKALA_GPW| Active atom-composite XC energy  -1.2020583793924162E+02
 SKALA_GPW| Active atom-composite electrons   1.3800006983203170E+02
 SKALA_GPW| Active atom-composite density range  -3.0743501636003497E-09   9.7592679108981116E+01
 SKALA_GPW| Active atom-composite tau range  -5.0539634173224210E-08   2.5825708080514983E+03
 SKALA_GPW| Active atom-composite tau integral   8.3478028741841922E+02
 SKALA_GPW| Active atom-composite max gradient   1.3599309809472143E+03
    28 OT DIIS     0.10E+00  348.5     0.00112556      -838.8026541563  1.37E-02
 SKALA_GPW| Atom-composite cross support/maxima   2.607069088142E+00   3.621421743860E+01   4.181834806976E+02   8.844757606843E+02
 SKALA_GPW| Active atom-composite XC energy  -1.2019737002897904E+02
 SKALA_GPW| Active atom-composite electrons   1.3800007133952951E+02
 SKALA_GPW| Active atom-composite density range  -3.1544067163509212E-09   9.7583392072300384E+01
 SKALA_GPW| Active atom-composite tau range  -5.0642645206432122E-08   2.5822960679640005E+03
 SKALA_GPW| Active atom-composite tau integral   8.3463359350845928E+02
 SKALA_GPW| Active atom-composite max gradient   1.3597549731835475E+03
    29 OT DIIS     0.10E+00  343.5     0.00033581      -838.8297805049 -2.71E-02
 SKALA_GPW| Atom-composite cross support/maxima   2.607069088142E+00   3.621223587551E+01   4.181689068827E+02   8.844143112261E+02
 SKALA_GPW| Active atom-composite XC energy  -1.2020850197429819E+02
 SKALA_GPW| Active atom-composite electrons   1.3800007119280863E+02
 SKALA_GPW| Active atom-composite density range  -3.1723157044339895E-09   9.7584411967765803E+01
 SKALA_GPW| Active atom-composite tau range  -5.0506012805028087E-08   2.5823567487306727E+03
 SKALA_GPW| Active atom-composite tau integral   8.3468849596886582E+02
 SKALA_GPW| Active atom-composite max gradient   1.3597793430659838E+03
    30 OT DIIS     0.10E+00  343.9     0.00045998      -838.8320873308 -2.31E-03
 SKALA_GPW| Atom-composite cross support/maxima   2.607069088142E+00   3.621357640210E+01   4.181733420327E+02   8.844666495038E+02
 SKALA_GPW| Active atom-composite XC energy  -1.2020968679419524E+02
 SKALA_GPW| Active atom-composite electrons   1.3800007139313874E+02
 SKALA_GPW| Active atom-composite density range  -3.1934644239587360E-09   9.7581200056494112E+01
 SKALA_GPW| Active atom-composite tau range  -5.0571752421316979E-08   2.5822724836790717E+03
 SKALA_GPW| Active atom-composite tau integral   8.3467046142591118E+02
 SKALA_GPW| Active atom-composite max gradient   1.3597221643523121E+03
    31 OT DIIS     0.10E+00  344.0     0.00027892      -838.8375403997 -5.45E-03
 SKALA_GPW| Atom-composite cross support/maxima   2.607069088142E+00   3.621461354705E+01   4.181727573379E+02   8.844884627934E+02
 SKALA_GPW| Active atom-composite XC energy  -1.2021078110147343E+02
 SKALA_GPW| Active atom-composite electrons   1.3800007126139187E+02
 SKALA_GPW| Active atom-composite density range  -3.2050042918750397E-09   9.7579733525296888E+01
 SKALA_GPW| Active atom-composite tau range  -5.0677531612908149E-08   2.5821948179266383E+03
 SKALA_GPW| Active atom-composite tau integral   8.3466455847309976E+02
 SKALA_GPW| Active atom-composite max gradient   1.3596771309920732E+03
    32 OT DIIS     0.10E+00  343.5     0.00022072      -838.8397768268 -2.24E-03
 SKALA_GPW| Atom-composite cross support/maxima   2.607069088142E+00   3.621565343908E+01   4.181722247227E+02   8.845144577514E+02
 SKALA_GPW| Active atom-composite XC energy  -1.2020953949017601E+02
 SKALA_GPW| Active atom-composite electrons   1.3800007118224781E+02
 SKALA_GPW| Active atom-composite density range  -3.2078123286970749E-09   9.7578019698614625E+01
 SKALA_GPW| Active atom-composite tau range  -5.0747773863820349E-08   2.5821488408589080E+03
 SKALA_GPW| Active atom-composite tau integral   8.3465305889562865E+02
 SKALA_GPW| Active atom-composite max gradient   1.3596507313686086E+03
    33 OT DIIS     0.10E+00  346.5     0.00015691      -838.8406886563 -9.12E-04
 SKALA_GPW| Atom-composite cross support/maxima   2.607069088142E+00   3.621647783182E+01   4.181660164279E+02   8.845338972407E+02
 SKALA_GPW| Active atom-composite XC energy  -1.2020885522371165E+02
 SKALA_GPW| Active atom-composite electrons   1.3800007103928945E+02
 SKALA_GPW| Active atom-composite density range  -3.2086058563262753E-09   9.7575998979571878E+01
 SKALA_GPW| Active atom-composite tau range  -5.0797470925036535E-08   2.5821099356151612E+03
 SKALA_GPW| Active atom-composite tau integral   8.3464482192601429E+02
 SKALA_GPW| Active atom-composite max gradient   1.3596237666989664E+03
    34 OT DIIS     0.10E+00  346.0     0.00011753      -838.8418115609 -1.12E-03
 SKALA_GPW| Atom-composite cross support/maxima   2.607069088142E+00   3.621654073172E+01   4.181645845105E+02   8.845325412162E+02
 SKALA_GPW| Active atom-composite XC energy  -1.2020956783728090E+02
 SKALA_GPW| Active atom-composite electrons   1.3800007097279538E+02
 SKALA_GPW| Active atom-composite density range  -3.2087212169498171E-09   9.7575524114020510E+01
 SKALA_GPW| Active atom-composite tau range  -5.0818869569543440E-08   2.5821022191427928E+03
 SKALA_GPW| Active atom-composite tau integral   8.3464631234987417E+02
 SKALA_GPW| Active atom-composite max gradient   1.3596220851966771E+03
    35 OT DIIS     0.10E+00  343.4     0.00010105      -838.8425554293 -7.44E-04
 SKALA_GPW| Atom-composite cross support/maxima   2.607069088142E+00   3.621640427576E+01   4.181622976699E+02   8.845289033056E+02
 SKALA_GPW| Active atom-composite XC energy  -1.2021002357420517E+02
 SKALA_GPW| Active atom-composite electrons   1.3800007089060219E+02
 SKALA_GPW| Active atom-composite density range  -3.2067792213339050E-09   9.7575206769032931E+01
 SKALA_GPW| Active atom-composite tau range  -5.0863354237697619E-08   2.5820875153849724E+03
 SKALA_GPW| Active atom-composite tau integral   8.3464700788409959E+02
 SKALA_GPW| Active atom-composite max gradient   1.3596126162245719E+03
    36 OT DIIS     0.10E+00  343.8     0.00008222      -838.8433138171 -7.58E-04
 SKALA_GPW| Atom-composite cross support/maxima   2.607069088142E+00   3.621642981589E+01   4.181605144989E+02   8.845317997048E+02
 SKALA_GPW| Active atom-composite XC energy  -1.2021013195977002E+02
 SKALA_GPW| Active atom-composite electrons   1.3800007090274568E+02
 SKALA_GPW| Active atom-composite density range  -3.2052910758972880E-09   9.7574859107394317E+01
 SKALA_GPW| Active atom-composite tau range  -5.0878892278770197E-08   2.5820759058499380E+03
 SKALA_GPW| Active atom-composite tau integral   8.3464716062073182E+02
 SKALA_GPW| Active atom-composite max gradient   1.3596108864606706E+03
    37 OT DIIS     0.10E+00  344.7     0.00007224      -838.8436865777 -3.73E-04
 SKALA_GPW| Atom-composite cross support/maxima   2.607069088142E+00   3.621674275024E+01   4.181574020211E+02   8.845403873833E+02
 SKALA_GPW| Active atom-composite XC energy  -1.2021039943321429E+02
 SKALA_GPW| Active atom-composite electrons   1.3800007092449133E+02
 SKALA_GPW| Active atom-composite density range  -3.2054283362090592E-09   9.7573913397250195E+01
 SKALA_GPW| Active atom-composite tau range  -5.0903369573597137E-08   2.5820570455295492E+03
 SKALA_GPW| Active atom-composite tau integral   8.3464762398486766E+02
 SKALA_GPW| Active atom-composite max gradient   1.3596009196877078E+03
    38 OT DIIS     0.10E+00  344.9     0.00006348      -838.8440659150 -3.79E-04
 SKALA_GPW| Atom-composite cross support/maxima   2.607069088142E+00   3.621676278043E+01   4.181563990583E+02   8.845389187128E+02
 SKALA_GPW| Active atom-composite XC energy  -1.2021074654477624E+02
 SKALA_GPW| Active atom-composite electrons   1.3800007095069626E+02
 SKALA_GPW| Active atom-composite density range  -3.2058182918433476E-09   9.7573533465537423E+01
 SKALA_GPW| Active atom-composite tau range  -5.0917439251368505E-08   2.5820577422317065E+03
 SKALA_GPW| Active atom-composite tau integral   8.3464948863859729E+02
 SKALA_GPW| Active atom-composite max gradient   1.3596003475144548E+03
    39 OT DIIS     0.10E+00  348.6     0.00005847      -838.8442507369 -1.85E-04
 SKALA_GPW| Atom-composite cross support/maxima   2.607069088142E+00   3.621686316536E+01   4.181555823416E+02   8.845381467313E+02
 SKALA_GPW| Active atom-composite XC energy  -1.2021086629955006E+02
 SKALA_GPW| Active atom-composite electrons   1.3800007095254830E+02
 SKALA_GPW| Active atom-composite density range  -3.2060691961382639E-09   9.7572958368441988E+01
 SKALA_GPW| Active atom-composite tau range  -5.0957319807977664E-08   2.5820488484719481E+03
 SKALA_GPW| Active atom-composite tau integral   8.3465022538341373E+02
 SKALA_GPW| Active atom-composite max gradient   1.3595946511629256E+03
    40 OT DIIS     0.10E+00  345.1     0.00005325      -838.8445008688 -2.50E-04
 SKALA_GPW| Atom-composite cross support/maxima   2.607069088142E+00   3.621670642615E+01   4.181558479926E+02   8.845317526983E+02
 SKALA_GPW| Active atom-composite XC energy  -1.2021086724842252E+02
 SKALA_GPW| Active atom-composite electrons   1.3800007095516827E+02
 SKALA_GPW| Active atom-composite density range  -3.2059802081818823E-09   9.7572775249859149E+01
 SKALA_GPW| Active atom-composite tau range  -5.0992076804081583E-08   2.5820495301727560E+03
 SKALA_GPW| Active atom-composite tau integral   8.3465060839969442E+02
 SKALA_GPW| Active atom-composite max gradient   1.3595923316851604E+03
    41 OT DIIS     0.10E+00  342.8     0.00004947      -838.8446791472 -1.78E-04
 SKALA_GPW| Atom-composite cross support/maxima   2.607069088142E+00   3.621663306021E+01   4.181564176991E+02   8.845281412456E+02
 SKALA_GPW| Active atom-composite XC energy  -1.2021062061860462E+02
 SKALA_GPW| Active atom-composite electrons   1.3800007095859820E+02
 SKALA_GPW| Active atom-composite density range  -3.2052253735662250E-09   9.7572657186888065E+01
 SKALA_GPW| Active atom-composite tau range  -5.1037005215475693E-08   2.5820576724824932E+03
 SKALA_GPW| Active atom-composite tau integral   8.3464937677185333E+02
 SKALA_GPW| Active atom-composite max gradient   1.3595903029436824E+03
    42 OT DIIS     0.10E+00  346.2     0.00004549      -838.8448823950 -2.03E-04
 SKALA_GPW| Atom-composite cross support/maxima   2.607069088142E+00   3.621649453191E+01   4.181564116330E+02   8.845220093396E+02
 SKALA_GPW| Active atom-composite XC energy  -1.2021048309872950E+02
 SKALA_GPW| Active atom-composite electrons   1.3800007097837943E+02
 SKALA_GPW| Active atom-composite density range  -3.2048576980030008E-09   9.7572536417342050E+01
 SKALA_GPW| Active atom-composite tau range  -5.1076612173265457E-08   2.5820583169401930E+03
 SKALA_GPW| Active atom-composite tau integral   8.3464846266077063E+02
 SKALA_GPW| Active atom-composite max gradient   1.3595876301654439E+03
    43 OT DIIS     0.10E+00  347.9     0.00004263      -838.8450530574 -1.71E-04
 SKALA_GPW| Atom-composite cross support/maxima   2.607069088142E+00   3.621647681158E+01   4.181559941522E+02   8.845185238738E+02
 SKALA_GPW| Active atom-composite XC energy  -1.2021039868341695E+02
 SKALA_GPW| Active atom-composite electrons   1.3800007099679007E+02
 SKALA_GPW| Active atom-composite density range  -3.2047007337776715E-09   9.7572489647490727E+01
 SKALA_GPW| Active atom-composite tau range  -5.1103186311205951E-08   2.5820558972567724E+03
 SKALA_GPW| Active atom-composite tau integral   8.3464780939367245E+02
 SKALA_GPW| Active atom-composite max gradient   1.3595854674388315E+03
    44 OT DIIS     0.10E+00  346.6     0.00004083      -838.8451692437 -1.16E-04
 SKALA_GPW| Atom-composite cross support/maxima   2.607069088142E+00   3.621640536024E+01   4.181552663897E+02   8.845121788602E+02
 SKALA_GPW| Active atom-composite XC energy  -1.2021029190969264E+02
 SKALA_GPW| Active atom-composite electrons   1.3800007101170209E+02
 SKALA_GPW| Active atom-composite density range  -3.2044849834393855E-09   9.7572579759428208E+01
 SKALA_GPW| Active atom-composite tau range  -5.1130464068437083E-08   2.5820520851160841E+03
 SKALA_GPW| Active atom-composite tau integral   8.3464714823112490E+02
 SKALA_GPW| Active atom-composite max gradient   1.3595819347279587E+03
    45 OT DIIS     0.10E+00  346.3     0.00003841      -838.8453121449 -1.43E-04
 SKALA_GPW| Atom-composite cross support/maxima   2.607069088142E+00   3.621632181082E+01   4.181547179047E+02   8.845052229938E+02
 SKALA_GPW| Active atom-composite XC energy  -1.2021013435958584E+02
 SKALA_GPW| Active atom-composite electrons   1.3800007102034695E+02
 SKALA_GPW| Active atom-composite density range  -3.2040256799126910E-09   9.7572462652977819E+01
 SKALA_GPW| Active atom-composite tau range  -5.1156784006571847E-08   2.5820514012573367E+03
 SKALA_GPW| Active atom-composite tau integral   8.3464633814075728E+02
 SKALA_GPW| Active atom-composite max gradient   1.3595804746963272E+03
    46 OT DIIS     0.10E+00  345.4     0.00003595      -838.8454652865 -1.53E-04
 SKALA_GPW| Atom-composite cross support/maxima   2.607069088142E+00   3.621626526600E+01   4.181541136661E+02   8.845011925305E+02
 SKALA_GPW| Active atom-composite XC energy  -1.2021003355667985E+02
 SKALA_GPW| Active atom-composite electrons   1.3800007102222713E+02
 SKALA_GPW| Active atom-composite density range  -3.2035145516228895E-09   9.7572293059878731E+01
 SKALA_GPW| Active atom-composite tau range  -5.1173759065028888E-08   2.5820480252958428E+03
 SKALA_GPW| Active atom-composite tau integral   8.3464568803019267E+02
 SKALA_GPW| Active atom-composite max gradient   1.3595787793264410E+03
    47 OT DIIS     0.10E+00  342.0     0.00003429      -838.8455740467 -1.09E-04
 SKALA_GPW| Atom-composite cross support/maxima   2.607069088142E+00   3.621624326666E+01   4.181533262974E+02   8.844989323834E+02
 SKALA_GPW| Active atom-composite XC energy  -1.2020999819801322E+02
 SKALA_GPW| Active atom-composite electrons   1.3800007102438605E+02
 SKALA_GPW| Active atom-composite density range  -3.2029802439786220E-09   9.7572174922186917E+01
 SKALA_GPW| Active atom-composite tau range  -5.1186736762186222E-08   2.5820415612933994E+03
 SKALA_GPW| Active atom-composite tau integral   8.3464525754488136E+02
 SKALA_GPW| Active atom-composite max gradient   1.3595781792728803E+03
    48 OT DIIS     0.10E+00  344.5     0.00003253      -838.8456771718 -1.03E-04
 SKALA_GPW| Atom-composite cross support/maxima   2.607069088142E+00   3.621623578589E+01   4.181523339412E+02   8.844967711132E+02
 SKALA_GPW| Active atom-composite XC energy  -1.2021000443794269E+02
 SKALA_GPW| Active atom-composite electrons   1.3800007103302360E+02
 SKALA_GPW| Active atom-composite density range  -3.2028223861686876E-09   9.7572112300411220E+01
 SKALA_GPW| Active atom-composite tau range  -5.1193773380442293E-08   2.5820354887962403E+03
 SKALA_GPW| Active atom-composite tau integral   8.3464488247648660E+02
 SKALA_GPW| Active atom-composite max gradient   1.3595775665050105E+03
    49 OT DIIS     0.10E+00  346.1     0.00003085      -838.8457638929 -8.67E-05
 SKALA_GPW| Atom-composite cross support/maxima   2.607069088142E+00   3.621618925430E+01   4.181513948963E+02   8.844938414034E+02
 SKALA_GPW| Active atom-composite XC energy  -1.2021007324236930E+02
 SKALA_GPW| Active atom-composite electrons   1.3800007104109380E+02
 SKALA_GPW| Active atom-composite density range  -3.2028811489506907E-09   9.7572109376792042E+01
 SKALA_GPW| Active atom-composite tau range  -5.1194776835832562E-08   2.5820291814607922E+03
 SKALA_GPW| Active atom-composite tau integral   8.3464501567346065E+02
 SKALA_GPW| Active atom-composite max gradient   1.3595777879882339E+03
    50 OT DIIS     0.10E+00  344.3     0.00002921      -838.8458427504 -7.89E-05
 SKALA_GPW| Atom-composite cross support/maxima   2.607069088142E+00   3.621615483186E+01   4.181506856000E+02   8.844904986572E+02
 SKALA_GPW| Active atom-composite XC energy  -1.2021011275973841E+02
 SKALA_GPW| Active atom-composite electrons   1.3800007105091402E+02
 SKALA_GPW| Active atom-composite density range  -3.2031012740178585E-09   9.7572081758384570E+01
 SKALA_GPW| Active atom-composite tau range  -5.1197064349937963E-08   2.5820278524494543E+03
 SKALA_GPW| Active atom-composite tau integral   8.3464503354451779E+02
 SKALA_GPW| Active atom-composite max gradient   1.3595789798304504E+03
    51 OT DIIS     0.10E+00  348.1     0.00002763      -838.8459285494 -8.58E-05
 SKALA_GPW| Atom-composite cross support/maxima   2.607069088142E+00   3.621609152826E+01   4.181504468927E+02   8.844873789840E+02
 SKALA_GPW| Active atom-composite XC energy  -1.2021018016564629E+02
 SKALA_GPW| Active atom-composite electrons   1.3800007105377762E+02
 SKALA_GPW| Active atom-composite density range  -3.2034013380994004E-09   9.7572005401687207E+01
 SKALA_GPW| Active atom-composite tau range  -5.1200876469716903E-08   2.5820282795604930E+03
 SKALA_GPW| Active atom-composite tau integral   8.3464540039483290E+02
 SKALA_GPW| Active atom-composite max gradient   1.3595796933187430E+03
    52 OT DIIS     0.10E+00  344.4     0.00002563      -838.8460151570 -8.66E-05
 SKALA_GPW| Atom-composite cross support/maxima   2.607069088142E+00   3.621603047339E+01   4.181500277749E+02   8.844852180361E+02
 SKALA_GPW| Active atom-composite XC energy  -1.2021021363448044E+02
 SKALA_GPW| Active atom-composite electrons   1.3800007105689738E+02
 SKALA_GPW| Active atom-composite density range  -3.2036776497259984E-09   9.7571918735435730E+01
 SKALA_GPW| Active atom-composite tau range  -5.1211097350629026E-08   2.5820273263517533E+03
 SKALA_GPW| Active atom-composite tau integral   8.3464533585239462E+02
 SKALA_GPW| Active atom-composite max gradient   1.3595794255145461E+03
    53 OT DIIS     0.10E+00  345.7     0.00002351      -838.8460955846 -8.04E-05
 SKALA_GPW| Atom-composite cross support/maxima   2.607069088142E+00   3.621592744134E+01   4.181493783093E+02   8.844824785081E+02
 SKALA_GPW| Active atom-composite XC energy  -1.2021026334097077E+02
 SKALA_GPW| Active atom-composite electrons   1.3800007106333786E+02
 SKALA_GPW| Active atom-composite density range  -3.2039781287291847E-09   9.7572067498998422E+01
 SKALA_GPW| Active atom-composite tau range  -5.1225227264288785E-08   2.5820227592288588E+03
 SKALA_GPW| Active atom-composite tau integral   8.3464533392016688E+02
 SKALA_GPW| Active atom-composite max gradient   1.3595778113493272E+03
    54 OT DIIS     0.10E+00  346.6     0.00002138      -838.8461713905 -7.58E-05
 SKALA_GPW| Atom-composite cross support/maxima   2.607069088142E+00   3.621589333956E+01   4.181491218150E+02   8.844809907510E+02
 SKALA_GPW| Active atom-composite XC energy  -1.2021032843838736E+02
 SKALA_GPW| Active atom-composite electrons   1.3800007107382075E+02
 SKALA_GPW| Active atom-composite density range  -3.2043810757652864E-09   9.7572235038270520E+01
 SKALA_GPW| Active atom-composite tau range  -5.1237372163875845E-08   2.5820210332996162E+03
 SKALA_GPW| Active atom-composite tau integral   8.3464565361843040E+02
 SKALA_GPW| Active atom-composite max gradient   1.3595772429438409E+03
    55 OT DIIS     0.10E+00  348.0     0.00001974      -838.8462247250 -5.33E-05
 SKALA_GPW| Atom-composite cross support/maxima   2.607069088142E+00   3.621585345364E+01   4.181488055765E+02   8.844789021737E+02
 SKALA_GPW| Active atom-composite XC energy  -1.2021035878322965E+02
 SKALA_GPW| Active atom-composite electrons   1.3800007108709218E+02
 SKALA_GPW| Active atom-composite density range  -3.2046624466558932E-09   9.7572352637642709E+01
 SKALA_GPW| Active atom-composite tau range  -5.1248519066099063E-08   2.5820200174781012E+03
 SKALA_GPW| Active atom-composite tau integral   8.3464571146370270E+02
 SKALA_GPW| Active atom-composite max gradient   1.3595758532390605E+03
    56 OT DIIS     0.10E+00  345.6     0.00001834      -838.8462690488 -4.43E-05
 SKALA_GPW| Atom-composite cross support/maxima   2.607069088142E+00   3.621583929731E+01   4.181489820215E+02   8.844774234325E+02
 SKALA_GPW| Active atom-composite XC energy  -1.2021038355152098E+02
 SKALA_GPW| Active atom-composite electrons   1.3800007109868062E+02
 SKALA_GPW| Active atom-composite density range  -3.2048274688692607E-09   9.7572329004882747E+01
 SKALA_GPW| Active atom-composite tau range  -5.1257520081336015E-08   2.5820220006272912E+03
 SKALA_GPW| Active atom-composite tau integral   8.3464594355131965E+02
 SKALA_GPW| Active atom-composite max gradient   1.3595748336337012E+03
    57 OT DIIS     0.10E+00  346.4     0.00001722      -838.8462979957 -2.89E-05
 SKALA_GPW| Atom-composite cross support/maxima   2.607069088142E+00   3.621579674777E+01   4.181489424671E+02   8.844758693587E+02
 SKALA_GPW| Active atom-composite XC energy  -1.2021036862038957E+02
 SKALA_GPW| Active atom-composite electrons   1.3800007111026900E+02
 SKALA_GPW| Active atom-composite density range  -3.2047774869647107E-09   9.7572273092508368E+01
 SKALA_GPW| Active atom-composite tau range  -5.1269982795296211E-08   2.5820224628912606E+03
 SKALA_GPW| Active atom-composite tau integral   8.3464581126339601E+02
 SKALA_GPW| Active atom-composite max gradient   1.3595734513173277E+03
    58 OT DIIS     0.10E+00  346.6     0.00001593      -838.8463288004 -3.08E-05
 SKALA_GPW| Atom-composite cross support/maxima   2.607069088142E+00   3.621574083324E+01   4.181486903005E+02   8.844746633047E+02
 SKALA_GPW| Active atom-composite XC energy  -1.2021034178040236E+02
 SKALA_GPW| Active atom-composite electrons   1.3800007111663493E+02
 SKALA_GPW| Active atom-composite density range  -3.2045940833892141E-09   9.7572294051050477E+01
 SKALA_GPW| Active atom-composite tau range  -5.1278817804419239E-08   2.5820201859148456E+03
 SKALA_GPW| Active atom-composite tau integral   8.3464565041821390E+02
 SKALA_GPW| Active atom-composite max gradient   1.3595724814912960E+03
    59 OT DIIS     0.10E+00  347.3     0.00001503      -838.8463480432 -1.92E-05
 SKALA_GPW| Atom-composite cross support/maxima   2.607069088142E+00   3.621570462085E+01   4.181482663637E+02   8.844737897416E+02
 SKALA_GPW| Active atom-composite XC energy  -1.2021028964885943E+02
 SKALA_GPW| Active atom-composite electrons   1.3800007112247064E+02
 SKALA_GPW| Active atom-composite density range  -3.2043216638477939E-09   9.7572342657606583E+01
 SKALA_GPW| Active atom-composite tau range  -5.1287858873550799E-08   2.5820177060635779E+03
 SKALA_GPW| Active atom-composite tau integral   8.3464534309214343E+02
 SKALA_GPW| Active atom-composite max gradient   1.3595720325401653E+03
    60 OT DIIS     0.10E+00  344.2     0.00001395      -838.8463711422 -2.31E-05
 SKALA_GPW| Atom-composite cross support/maxima   2.607069088142E+00   3.621567530881E+01   4.181479736157E+02   8.844721025229E+02
 SKALA_GPW| Active atom-composite XC energy  -1.2021024619993280E+02
 SKALA_GPW| Active atom-composite electrons   1.3800007112703821E+02
 SKALA_GPW| Active atom-composite density range  -3.2040652635871573E-09   9.7572378217068618E+01
 SKALA_GPW| Active atom-composite tau range  -5.1293433359865121E-08   2.5820168326948988E+03
 SKALA_GPW| Active atom-composite tau integral   8.3464523232823421E+02
 SKALA_GPW| Active atom-composite max gradient   1.3595714828876348E+03
    61 OT DIIS     0.10E+00  345.5     0.00001285      -838.8463924990 -2.14E-05
 SKALA_GPW| Atom-composite cross support/maxima   2.607069088142E+00   3.621565792252E+01   4.181478409241E+02   8.844705803471E+02
 SKALA_GPW| Active atom-composite XC energy  -1.2021021779194744E+02
 SKALA_GPW| Active atom-composite electrons   1.3800007112855769E+02
 SKALA_GPW| Active atom-composite density range  -3.2039208652979685E-09   9.7572325298660743E+01
 SKALA_GPW| Active atom-composite tau range  -5.1296649020551266E-08   2.5820179388216820E+03
 SKALA_GPW| Active atom-composite tau integral   8.3464513336166613E+02
 SKALA_GPW| Active atom-composite max gradient   1.3595716839290026E+03
    62 OT DIIS     0.10E+00  269.5     0.00001208      -838.8464090567 -1.66E-05
 SKALA_GPW| Atom-composite cross support/maxima   2.607069088142E+00   3.621560184271E+01   4.181476519816E+02   8.844684700693E+02
 SKALA_GPW| Active atom-composite XC energy  -1.2021019509482754E+02
 SKALA_GPW| Active atom-composite electrons   1.3800007112670954E+02
 SKALA_GPW| Active atom-composite density range  -3.2037721778849701E-09   9.7572263053760693E+01
 SKALA_GPW| Active atom-composite tau range  -5.1299674848097514E-08   2.5820176177781982E+03
 SKALA_GPW| Active atom-composite tau integral   8.3464500460637703E+02
 SKALA_GPW| Active atom-composite max gradient   1.3595717641398587E+03
    63 OT DIIS     0.10E+00  263.3     0.00001122      -838.8464270087 -1.80E-05
 SKALA_GPW| Atom-composite cross support/maxima   2.607069088142E+00   3.621556324140E+01   4.181473979785E+02   8.844672473349E+02
 SKALA_GPW| Active atom-composite XC energy  -1.2021017636095817E+02
 SKALA_GPW| Active atom-composite electrons   1.3800007112350457E+02
 SKALA_GPW| Active atom-composite density range  -3.2037081015116644E-09   9.7572208684957076E+01
 SKALA_GPW| Active atom-composite tau range  -5.1301954669115043E-08   2.5820165859655544E+03
 SKALA_GPW| Active atom-composite tau integral   8.3464488226247067E+02
 SKALA_GPW| Active atom-composite max gradient   1.3595723362227038E+03
    64 OT DIIS     0.10E+00  263.9     0.00001056      -838.8464407304 -1.37E-05
 SKALA_GPW| Atom-composite cross support/maxima   2.607069088142E+00   3.621552297679E+01   4.181470522871E+02   8.844665305194E+02
 SKALA_GPW| Active atom-composite XC energy  -1.2021014606932195E+02
 SKALA_GPW| Active atom-composite electrons   1.3800007111840537E+02
 SKALA_GPW| Active atom-composite density range  -3.2036211263719478E-09   9.7572214980215136E+01
 SKALA_GPW| Active atom-composite tau range  -5.1304621474518369E-08   2.5820140024095149E+03
 SKALA_GPW| Active atom-composite tau integral   8.3464465477421516E+02
 SKALA_GPW| Active atom-composite max gradient   1.3595725082294709E+03
    65 OT DIIS     0.10E+00  262.6     0.00000989      -838.8464557151 -1.50E-05
 SKALA_GPW| Atom-composite cross support/maxima   2.607069088142E+00   3.621550772031E+01   4.181468667585E+02   8.844661087374E+02
 SKALA_GPW| Active atom-composite XC energy  -1.2021012837092493E+02
 SKALA_GPW| Active atom-composite electrons   1.3800007111472129E+02
 SKALA_GPW| Active atom-composite density range  -3.2036339682958629E-09   9.7572232681006795E+01
 SKALA_GPW| Active atom-composite tau range  -5.1305901530507145E-08   2.5820130141977770E+03
 SKALA_GPW| Active atom-composite tau integral   8.3464457658209119E+02
 SKALA_GPW| Active atom-composite max gradient   1.3595726361734671E+03
    66 OT DIIS     0.10E+00  262.0     0.00000936      -838.8464667901 -1.11E-05
 SKALA_GPW| Atom-composite cross support/maxima   2.607069088142E+00   3.621549841342E+01   4.181468954982E+02   8.844654778583E+02
 SKALA_GPW| Active atom-composite XC energy  -1.2021012531107367E+02
 SKALA_GPW| Active atom-composite electrons   1.3800007111346076E+02
 SKALA_GPW| Active atom-composite density range  -3.2037237491127298E-09   9.7572211220023689E+01
 SKALA_GPW| Active atom-composite tau range  -5.1306353146143306E-08   2.5820140722973288E+03
 SKALA_GPW| Active atom-composite tau integral   8.3464459495561732E+02
 SKALA_GPW| Active atom-composite max gradient   1.3595729172926478E+03
    67 OT DIIS     0.10E+00  263.5     0.00000894      -838.8464753027 -8.51E-06
 SKALA_GPW| Atom-composite cross support/maxima   2.607069088142E+00   3.621547165588E+01   4.181468440841E+02   8.844645551306E+02
 SKALA_GPW| Active atom-composite XC energy  -1.2021012987591516E+02
 SKALA_GPW| Active atom-composite electrons   1.3800007111512159E+02
 SKALA_GPW| Active atom-composite density range  -3.2038291933707908E-09   9.7572172482061120E+01
 SKALA_GPW| Active atom-composite tau range  -5.1307164336417376E-08   2.5820143485600588E+03
 SKALA_GPW| Active atom-composite tau integral   8.3464462487415676E+02
 SKALA_GPW| Active atom-composite max gradient   1.3595731278881626E+03
    68 OT DIIS     0.10E+00  262.1     0.00000857      -838.8464818568 -6.55E-06
 SKALA_GPW| Atom-composite cross support/maxima   2.607069088142E+00   3.621542988033E+01   4.181466159290E+02   8.844636717714E+02
 SKALA_GPW| Active atom-composite XC energy  -1.2021012980214536E+02
 SKALA_GPW| Active atom-composite electrons   1.3800007112096381E+02
 SKALA_GPW| Active atom-composite density range  -3.2039608000747974E-09   9.7572094632006568E+01
 SKALA_GPW| Active atom-composite tau range  -5.1310453418462787E-08   2.5820133482028887E+03
 SKALA_GPW| Active atom-composite tau integral   8.3464455601755628E+02
 SKALA_GPW| Active atom-composite max gradient   1.3595735129016255E+03
    69 OT DIIS     0.10E+00  263.0     0.00000793      -838.8464933711 -1.15E-05
 SKALA_GPW| Atom-composite cross support/maxima   2.607069088142E+00   3.621539243901E+01   4.181463082958E+02   8.844633744266E+02
 SKALA_GPW| Active atom-composite XC energy  -1.2021012623369312E+02
 SKALA_GPW| Active atom-composite electrons   1.3800007112816846E+02
 SKALA_GPW| Active atom-composite density range  -3.2040297143514910E-09   9.7572078051284493E+01
 SKALA_GPW| Active atom-composite tau range  -5.1314811157139371E-08   2.5820108253327835E+03
 SKALA_GPW| Active atom-composite tau integral   8.3464446414629140E+02
 SKALA_GPW| Active atom-composite max gradient   1.3595730905132805E+03
    70 OT DIIS     0.10E+00  261.5     0.00000734      -838.8465037482 -1.04E-05
 SKALA_GPW| Atom-composite cross support/maxima   2.607069088142E+00   3.621538304101E+01   4.181462203096E+02   8.844634733942E+02
 SKALA_GPW| Active atom-composite XC energy  -1.2021012308531283E+02
 SKALA_GPW| Active atom-composite electrons   1.3800007113435072E+02
 SKALA_GPW| Active atom-composite density range  -3.2040587241683760E-09   9.7572071781240382E+01
 SKALA_GPW| Active atom-composite tau range  -5.1318610707143609E-08   2.5820102445794996E+03
 SKALA_GPW| Active atom-composite tau integral   8.3464444283572084E+02
 SKALA_GPW| Active atom-composite max gradient   1.3595728221932902E+03
    71 OT DIIS     0.10E+00  263.6     0.00000691      -838.8465113833 -7.64E-06
 SKALA_GPW| Atom-composite cross support/maxima   2.607069088142E+00   3.621536576273E+01   4.181462251509E+02   8.844630906692E+02
 SKALA_GPW| Active atom-composite XC energy  -1.2021012534072742E+02
 SKALA_GPW| Active atom-composite electrons   1.3800007113960686E+02
 SKALA_GPW| Active atom-composite density range  -3.2040738819864139E-09   9.7572073326643121E+01
 SKALA_GPW| Active atom-composite tau range  -5.1321530132330796E-08   2.5820104471047334E+03
 SKALA_GPW| Active atom-composite tau integral   8.3464447743039568E+02
 SKALA_GPW| Active atom-composite max gradient   1.3595725144411651E+03
    72 OT DIIS     0.10E+00  263.2     0.00000655      -838.8465170428 -5.66E-06
 SKALA_GPW| Atom-composite cross support/maxima   2.607069088142E+00   3.621533903051E+01   4.181462329571E+02   8.844621982610E+02
 SKALA_GPW| Active atom-composite XC energy  -1.2021013356785559E+02
 SKALA_GPW| Active atom-composite electrons   1.3800007114597781E+02
 SKALA_GPW| Active atom-composite density range  -3.2041126312730723E-09   9.7572049374861834E+01
 SKALA_GPW| Active atom-composite tau range  -5.1324893264608917E-08   2.5820113479812412E+03
 SKALA_GPW| Active atom-composite tau integral   8.3464459041400983E+02
 SKALA_GPW| Active atom-composite max gradient   1.3595726576438701E+03
    73 OT DIIS     0.10E+00  263.4     0.00000613      -838.8465237678 -6.72E-06
 SKALA_GPW| Atom-composite cross support/maxima   2.607069088142E+00   3.621530590847E+01   4.181461557972E+02   8.844613262922E+02
 SKALA_GPW| Active atom-composite XC energy  -1.2021014347683180E+02
 SKALA_GPW| Active atom-composite electrons   1.3800007115101212E+02
 SKALA_GPW| Active atom-composite density range  -3.2041371251636126E-09   9.7572018733157734E+01
 SKALA_GPW| Active atom-composite tau range  -5.1327446986346723E-08   2.5820113936115672E+03
 SKALA_GPW| Active atom-composite tau integral   8.3464465285342123E+02
 SKALA_GPW| Active atom-composite max gradient   1.3595728705049612E+03
    74 OT DIIS     0.10E+00  263.1     0.00000581      -838.8465292328 -5.47E-06
 SKALA_GPW| Atom-composite cross support/maxima   2.607069088142E+00   3.621528995837E+01   4.181460274024E+02   8.844612137822E+02
 SKALA_GPW| Active atom-composite XC energy  -1.2021014855149414E+02
 SKALA_GPW| Active atom-composite electrons   1.3800007115247433E+02
 SKALA_GPW| Active atom-composite density range  -3.2041273393577504E-09   9.7572015174428401E+01
 SKALA_GPW| Active atom-composite tau range  -5.1328548239338951E-08   2.5820104469563967E+03
 SKALA_GPW| Active atom-composite tau integral   8.3464464257039572E+02
 SKALA_GPW| Active atom-composite max gradient   1.3595728017017859E+03
    75 OT DIIS     0.10E+00  262.8     0.00000562      -838.8465324992 -3.27E-06
 SKALA_GPW| Atom-composite cross support/maxima   2.607069088142E+00   3.621528587426E+01   4.181459481095E+02   8.844615354065E+02
 SKALA_GPW| Active atom-composite XC energy  -1.2021015287260593E+02
 SKALA_GPW| Active atom-composite electrons   1.3800007115162094E+02
 SKALA_GPW| Active atom-composite density range  -3.2040858386160436E-09   9.7572032450612653E+01
 SKALA_GPW| Active atom-composite tau range  -5.1328995468728867E-08   2.5820097210480053E+03
 SKALA_GPW| Active atom-composite tau integral   8.3464462380727662E+02
 SKALA_GPW| Active atom-composite max gradient   1.3595726542308196E+03
    76 OT DIIS     0.10E+00  262.7     0.00000538      -838.8465360459 -3.55E-06
 SKALA_GPW| Atom-composite cross support/maxima   2.607069088142E+00   3.621527485293E+01   4.181459025062E+02   8.844615237675E+02
 SKALA_GPW| Active atom-composite XC energy  -1.2021015562585303E+02
 SKALA_GPW| Active atom-composite electrons   1.3800007114918827E+02
 SKALA_GPW| Active atom-composite density range  -3.2040451360616068E-09   9.7572060839849740E+01
 SKALA_GPW| Active atom-composite tau range  -5.1328948448937334E-08   2.5820094105131830E+03
 SKALA_GPW| Active atom-composite tau integral   8.3464464505765341E+02
 SKALA_GPW| Active atom-composite max gradient   1.3595725593228890E+03
    77 OT DIIS     0.10E+00  262.9     0.00000517      -838.8465392296 -3.18E-06
 SKALA_GPW| Atom-composite cross support/maxima   2.607069088142E+00   3.621525866044E+01   4.181459205322E+02   8.844611742070E+02
 SKALA_GPW| Active atom-composite XC energy  -1.2021015724229423E+02
 SKALA_GPW| Active atom-composite electrons   1.3800007114566836E+02
 SKALA_GPW| Active atom-composite density range  -3.2040231923075115E-09   9.7572070867206406E+01
 SKALA_GPW| Active atom-composite tau range  -5.1328457371351074E-08   2.5820098955018766E+03
 SKALA_GPW| Active atom-composite tau integral   8.3464470909883335E+02
 SKALA_GPW| Active atom-composite max gradient   1.3595728997250872E+03
    78 OT DIIS     0.10E+00  262.4     0.00000496      -838.8465426354 -3.41E-06
 SKALA_GPW| Atom-composite cross support/maxima   2.607069088142E+00   3.621523677512E+01   4.181458526201E+02   8.844607869728E+02
 SKALA_GPW| Active atom-composite XC energy  -1.2021015443580797E+02
 SKALA_GPW| Active atom-composite electrons   1.3800007114269178E+02
 SKALA_GPW| Active atom-composite density range  -3.2040194056470418E-09   9.7572064960979432E+01
 SKALA_GPW| Active atom-composite tau range  -5.1327936815809778E-08   2.5820096810279533E+03
 SKALA_GPW| Active atom-composite tau integral   8.3464471373003244E+02
 SKALA_GPW| Active atom-composite max gradient   1.3595731379646720E+03
    79 OT DIIS     0.10E+00  263.0     0.00000478      -838.8465457296 -3.09E-06
 SKALA_GPW| Atom-composite cross support/maxima   2.607069088142E+00   3.621522687639E+01   4.181457484894E+02   8.844608495017E+02
 SKALA_GPW| Active atom-composite XC energy  -1.2021015033263978E+02
 SKALA_GPW| Active atom-composite electrons   1.3800007114046755E+02
 SKALA_GPW| Active atom-composite density range  -3.2040241131038643E-09   9.7572050935579057E+01
 SKALA_GPW| Active atom-composite tau range  -5.1327470544484185E-08   2.5820091223233135E+03
 SKALA_GPW| Active atom-composite tau integral   8.3464467997762051E+02
 SKALA_GPW| Active atom-composite max gradient   1.3595733219625770E+03
    80 OT DIIS     0.10E+00  262.7     0.00000463      -838.8465482114 -2.48E-06
 SKALA_GPW| Atom-composite cross support/maxima   2.607069088142E+00   3.621522039168E+01   4.181456259038E+02   8.844611944087E+02
 SKALA_GPW| Active atom-composite XC energy  -1.2021014628410987E+02
 SKALA_GPW| Active atom-composite electrons   1.3800007113875643E+02
 SKALA_GPW| Active atom-composite density range  -3.2040251100115297E-09   9.7572047115800387E+01
 SKALA_GPW| Active atom-composite tau range  -5.1327161198633443E-08   2.5820082798183089E+03
 SKALA_GPW| Active atom-composite tau integral   8.3464462381700730E+02
 SKALA_GPW| Active atom-composite max gradient   1.3595732683806411E+03
    81 OT DIIS     0.10E+00  263.5     0.00000448      -838.8465511053 -2.89E-06
 SKALA_GPW| Atom-composite cross support/maxima   2.607069088142E+00   3.621521558129E+01   4.181455111819E+02   8.844616527523E+02
 SKALA_GPW| Active atom-composite XC energy  -1.2021014407612259E+02
 SKALA_GPW| Active atom-composite electrons   1.3800007113716697E+02
 SKALA_GPW| Active atom-composite density range  -3.2040323800586488E-09   9.7572052148744675E+01
 SKALA_GPW| Active atom-composite tau range  -5.1326768682414985E-08   2.5820074828414872E+03
 SKALA_GPW| Active atom-composite tau integral   8.3464460740010702E+02
 SKALA_GPW| Active atom-composite max gradient   1.3595732274178697E+03
    82 OT DIIS     0.10E+00  262.1     0.00000432      -838.8465544449 -3.34E-06
 SKALA_GPW| Atom-composite cross support/maxima   2.607069088142E+00   3.621521105524E+01   4.181454908726E+02   8.844617504353E+02
 SKALA_GPW| Active atom-composite XC energy  -1.2021014241002553E+02
 SKALA_GPW| Active atom-composite electrons   1.3800007113689108E+02
 SKALA_GPW| Active atom-composite density range  -3.2040481167397365E-09   9.7572046436700816E+01
 SKALA_GPW| Active atom-composite tau range  -5.1326644614147365E-08   2.5820075184426710E+03
 SKALA_GPW| Active atom-composite tau integral   8.3464463250171070E+02
 SKALA_GPW| Active atom-composite max gradient   1.3595734178512068E+03
    83 OT DIIS     0.10E+00  262.0     0.00000422      -838.8465566000 -2.16E-06
 SKALA_GPW| Atom-composite cross support/maxima   2.607069088142E+00   3.621520112439E+01   4.181454383883E+02   8.844616753523E+02
 SKALA_GPW| Active atom-composite XC energy  -1.2021013984391692E+02
 SKALA_GPW| Active atom-composite electrons   1.3800007113753998E+02
 SKALA_GPW| Active atom-composite density range  -3.2040756827499799E-09   9.7572023825274243E+01
 SKALA_GPW| Active atom-composite tau range  -5.1326746203530416E-08   2.5820074257126257E+03
 SKALA_GPW| Active atom-composite tau integral   8.3464465700133974E+02
 SKALA_GPW| Active atom-composite max gradient   1.3595737359856878E+03
    84 OT DIIS     0.10E+00  262.8     0.00000411      -838.8465589321 -2.33E-06
 SKALA_GPW| Atom-composite cross support/maxima   2.607069088142E+00   3.621519474689E+01   4.181453538722E+02   8.844618044475E+02
 SKALA_GPW| Active atom-composite XC energy  -1.2021013746613993E+02
 SKALA_GPW| Active atom-composite electrons   1.3800007113907029E+02
 SKALA_GPW| Active atom-composite density range  -3.2041036520156829E-09   9.7571986964665925E+01
 SKALA_GPW| Active atom-composite tau range  -5.1327096742394154E-08   2.5820071058765370E+03
 SKALA_GPW| Active atom-composite tau integral   8.3464465020057492E+02
 SKALA_GPW| Active atom-composite max gradient   1.3595740648290434E+03
    85 OT DIIS     0.10E+00  264.4     0.00000400      -838.8465614251 -2.49E-06
 SKALA_GPW| Atom-composite cross support/maxima   2.607069088142E+00   3.621518975903E+01   4.181452529576E+02   8.844621099999E+02
 SKALA_GPW| Active atom-composite XC energy  -1.2021013898130178E+02
 SKALA_GPW| Active atom-composite electrons   1.3800007114070925E+02
 SKALA_GPW| Active atom-composite density range  -3.2041149637522383E-09   9.7571967850002366E+01
 SKALA_GPW| Active atom-composite tau range  -5.1327378624147942E-08   2.5820063407862704E+03
 SKALA_GPW| Active atom-composite tau integral   8.3464463829249962E+02
 SKALA_GPW| Active atom-composite max gradient   1.3595740514674021E+03
    86 OT DIIS     0.10E+00  262.7     0.00000390      -838.8465635573 -2.13E-06
 SKALA_GPW| Atom-composite cross support/maxima   2.607069088142E+00   3.621518972299E+01   4.181452057535E+02   8.844624932376E+02
 SKALA_GPW| Active atom-composite XC energy  -1.2021014312129634E+02
 SKALA_GPW| Active atom-composite electrons   1.3800007114209993E+02
 SKALA_GPW| Active atom-composite density range  -3.2041133937000165E-09   9.7571959523454865E+01
 SKALA_GPW| Active atom-composite tau range  -5.1327508519454777E-08   2.5820058711610236E+03
 SKALA_GPW| Active atom-composite tau integral   8.3464465614810570E+02
 SKALA_GPW| Active atom-composite max gradient   1.3595740321729604E+03
    87 OT DIIS     0.10E+00  264.4     0.00000380      -838.8465655626 -2.01E-06
 SKALA_GPW| Atom-composite cross support/maxima   2.607069088142E+00   3.621518535354E+01   4.181451983837E+02   8.844626495274E+02
 SKALA_GPW| Active atom-composite XC energy  -1.2021014802182262E+02
 SKALA_GPW| Active atom-composite electrons   1.3800007114335244E+02
 SKALA_GPW| Active atom-composite density range  -3.2041029163825339E-09   9.7571955760758968E+01
 SKALA_GPW| Active atom-composite tau range  -5.1327568549229798E-08   2.5820056092290934E+03
 SKALA_GPW| Active atom-composite tau integral   8.3464469906229749E+02
 SKALA_GPW| Active atom-composite max gradient   1.3595740396325637E+03
    88 OT DIIS     0.10E+00  262.1     0.00000371      -838.8465675180 -1.96E-06
 SKALA_GPW| Atom-composite cross support/maxima   2.607069088142E+00   3.621517793681E+01   4.181451893840E+02   8.844626085051E+02
 SKALA_GPW| Active atom-composite XC energy  -1.2021015220297485E+02
 SKALA_GPW| Active atom-composite electrons   1.3800007114422368E+02
 SKALA_GPW| Active atom-composite density range  -3.2040922019025461E-09   9.7571943774381239E+01
 SKALA_GPW| Active atom-composite tau range  -5.1327605668231106E-08   2.5820054980540272E+03
 SKALA_GPW| Active atom-composite tau integral   8.3464475029769471E+02
 SKALA_GPW| Active atom-composite max gradient   1.3595742462982448E+03
    89 OT DIIS     0.10E+00  262.3     0.00000361      -838.8465694342 -1.92E-06
 SKALA_GPW| Atom-composite cross support/maxima   2.607069088142E+00   3.621516599530E+01   4.181451752141E+02   8.844624652158E+02
 SKALA_GPW| Active atom-composite XC energy  -1.2021015586354609E+02
 SKALA_GPW| Active atom-composite electrons   1.3800007114496134E+02
 SKALA_GPW| Active atom-composite density range  -3.2040755749053215E-09   9.7571923991130816E+01
 SKALA_GPW| Active atom-composite tau range  -5.1327569259275461E-08   2.5820053667325151E+03
 SKALA_GPW| Active atom-composite tau integral   8.3464478521881597E+02
 SKALA_GPW| Active atom-composite max gradient   1.3595745034169072E+03
    90 OT DIIS     0.10E+00  263.1     0.00000351      -838.8465715795 -2.15E-06
 SKALA_GPW| Atom-composite cross support/maxima   2.607069088142E+00   3.621515550589E+01   4.181451152572E+02   8.844625380439E+02
 SKALA_GPW| Active atom-composite XC energy  -1.2021016015858237E+02
 SKALA_GPW| Active atom-composite electrons   1.3800007114515671E+02
 SKALA_GPW| Active atom-composite density range  -3.2040519143159608E-09   9.7571914189323678E+01
 SKALA_GPW| Active atom-composite tau range  -5.1327218351384766E-08   2.5820047978311345E+03
 SKALA_GPW| Active atom-composite tau integral   8.3464479147633699E+02
 SKALA_GPW| Active atom-composite max gradient   1.3595745289255278E+03
    91 OT DIIS     0.10E+00  262.7     0.00000342      -838.8465735132 -1.93E-06
 SKALA_GPW| Atom-composite cross support/maxima   2.607069088142E+00   3.621515359977E+01   4.181450844301E+02   8.844628620587E+02
 SKALA_GPW| Active atom-composite XC energy  -1.2021016395031555E+02
 SKALA_GPW| Active atom-composite electrons   1.3800007114489853E+02
 SKALA_GPW| Active atom-composite density range  -3.2040274853628238E-09   9.7571917551600578E+01
 SKALA_GPW| Active atom-composite tau range  -5.1326611655895422E-08   2.5820043836610266E+03
 SKALA_GPW| Active atom-composite tau integral   8.3464479753430680E+02
 SKALA_GPW| Active atom-composite max gradient   1.3595744673353245E+03
    92 OT DIIS     0.10E+00  261.5     0.00000335      -838.8465750400 -1.53E-06
 SKALA_GPW| Atom-composite cross support/maxima   2.607069088142E+00   3.621515044486E+01   4.181450557427E+02   8.844632002533E+02
 SKALA_GPW| Active atom-composite XC energy  -1.2021016845488369E+02
 SKALA_GPW| Active atom-composite electrons   1.3800007114417664E+02
 SKALA_GPW| Active atom-composite density range  -3.2040004749681389E-09   9.7571930215406027E+01
 SKALA_GPW| Active atom-composite tau range  -5.1325650891184533E-08   2.5820039523038208E+03
 SKALA_GPW| Active atom-composite tau integral   8.3464482898209189E+02
 SKALA_GPW| Active atom-composite max gradient   1.3595744389855379E+03
    93 OT DIIS     0.10E+00  262.9     0.00000326      -838.8465768541 -1.81E-06
 SKALA_GPW| Atom-composite cross support/maxima   2.607069088142E+00   3.621514587734E+01   4.181450577128E+02   8.844633599294E+02
 SKALA_GPW| Active atom-composite XC energy  -1.2021017132169607E+02
 SKALA_GPW| Active atom-composite electrons   1.3800007114310739E+02
 SKALA_GPW| Active atom-composite density range  -3.2039813768384639E-09   9.7571933032710717E+01
 SKALA_GPW| Active atom-composite tau range  -5.1324586090877389E-08   2.5820039750861997E+03
 SKALA_GPW| Active atom-composite tau integral   8.3464488021715931E+02
 SKALA_GPW| Active atom-composite max gradient   1.3595747575628193E+03
    94 OT DIIS     0.10E+00  262.8     0.00000316      -838.8465788410 -1.99E-06
 SKALA_GPW| Atom-composite cross support/maxima   2.607069088142E+00   3.621513805042E+01   4.181450303809E+02   8.844633591892E+02
 SKALA_GPW| Active atom-composite XC energy  -1.2021017171081940E+02
 SKALA_GPW| Active atom-composite electrons   1.3800007114223763E+02
 SKALA_GPW| Active atom-composite density range  -3.2039750441536483E-09   9.7571929249718366E+01
 SKALA_GPW| Active atom-composite tau range  -5.1323867313462784E-08   2.5820038868016654E+03
 SKALA_GPW| Active atom-composite tau integral   8.3464490193564916E+02
 SKALA_GPW| Active atom-composite max gradient   1.3595750243785762E+03
    95 OT DIIS     0.10E+00  263.0     0.00000309      -838.8465802817 -1.44E-06
 SKALA_GPW| Atom-composite cross support/maxima   2.607069088142E+00   3.621513407573E+01   4.181449736978E+02   8.844635810393E+02
 SKALA_GPW| Active atom-composite XC energy  -1.2021017131405478E+02
 SKALA_GPW| Active atom-composite electrons   1.3800007114134664E+02
 SKALA_GPW| Active atom-composite density range  -3.2039765100322066E-09   9.7571921451605988E+01
 SKALA_GPW| Active atom-composite tau range  -5.1323164726425714E-08   2.5820036416703174E+03
 SKALA_GPW| Active atom-composite tau integral   8.3464490776864318E+02
 SKALA_GPW| Active atom-composite max gradient   1.3595752784071467E+03
    96 OT DIIS     0.10E+00  261.8     0.00000301      -838.8465817950 -1.51E-06
 SKALA_GPW| Atom-composite cross support/maxima   2.607069088142E+00   3.621513463103E+01   4.181449016405E+02   8.844641647631E+02
 SKALA_GPW| Active atom-composite XC energy  -1.2021017118055606E+02
 SKALA_GPW| Active atom-composite electrons   1.3800007114021207E+02
 SKALA_GPW| Active atom-composite density range  -3.2039803992465589E-09   9.7571922052937197E+01
 SKALA_GPW| Active atom-composite tau range  -5.1322232574305328E-08   2.5820031149880024E+03
 SKALA_GPW| Active atom-composite tau integral   8.3464490392838457E+02
 SKALA_GPW| Active atom-composite max gradient   1.3595753594222801E+03
    97 OT DIIS     0.10E+00  263.9     0.00000291      -838.8465836231 -1.83E-06
 SKALA_GPW| Atom-composite cross support/maxima   2.607069088142E+00   3.621513937023E+01   4.181448424593E+02   8.844648365850E+02
 SKALA_GPW| Active atom-composite XC energy  -1.2021017243988703E+02
 SKALA_GPW| Active atom-composite electrons   1.3800007113908782E+02
 SKALA_GPW| Active atom-composite density range  -3.2039888911518093E-09   9.7571927608153629E+01
 SKALA_GPW| Active atom-composite tau range  -5.1321317961251646E-08   2.5820025804942998E+03
 SKALA_GPW| Active atom-composite tau integral   8.3464492199359870E+02
 SKALA_GPW| Active atom-composite max gradient   1.3595754001269936E+03
    98 OT DIIS     0.10E+00  264.8     0.00000283      -838.8465851997 -1.58E-06
 SKALA_GPW| Atom-composite cross support/maxima   2.607069088142E+00   3.621514339878E+01   4.181448308002E+02   8.844652452796E+02
 SKALA_GPW| Active atom-composite XC energy  -1.2021017391337925E+02
 SKALA_GPW| Active atom-composite electrons   1.3800007113816284E+02
 SKALA_GPW| Active atom-composite density range  -3.2039985467876818E-09   9.7571927763896838E+01
 SKALA_GPW| Active atom-composite tau range  -5.1320614672911372E-08   2.5820024239911136E+03
 SKALA_GPW| Active atom-composite tau integral   8.3464495628270629E+02
 SKALA_GPW| Active atom-composite max gradient   1.3595755685294296E+03
    99 OT DIIS     0.10E+00  263.5     0.00000276      -838.8465864427 -1.24E-06
 SKALA_GPW| Atom-composite cross support/maxima   2.607069088142E+00   3.621514081349E+01   4.181448042679E+02   8.844653523174E+02
 SKALA_GPW| Active atom-composite XC energy  -1.2021017534976480E+02
 SKALA_GPW| Active atom-composite electrons   1.3800007113738118E+02
 SKALA_GPW| Active atom-composite density range  -3.2040103005548067E-09   9.7571917753794281E+01
 SKALA_GPW| Active atom-composite tau range  -5.1320086255264694E-08   2.5820022655548578E+03
 SKALA_GPW| Active atom-composite tau integral   8.3464499033213690E+02
 SKALA_GPW| Active atom-composite max gradient   1.3595758375389657E+03
   100 OT DIIS     0.10E+00  263.2     0.00000269      -838.8465876762 -1.23E-06
 SKALA_GPW| Atom-composite cross support/maxima   2.607069088142E+00   3.621513870184E+01   4.181447772754E+02   8.844654555295E+02
 SKALA_GPW| Active atom-composite XC energy  -1.2021017671176692E+02
 SKALA_GPW| Active atom-composite electrons   1.3800007113693570E+02
 SKALA_GPW| Active atom-composite density range  -3.2040190803063074E-09   9.7571901011401195E+01
 SKALA_GPW| Active atom-composite tau range  -5.1319713201350574E-08   2.5820021363458700E+03
 SKALA_GPW| Active atom-composite tau integral   8.3464500807951481E+02
 SKALA_GPW| Active atom-composite max gradient   1.3595760872439980E+03
   101 OT DIIS     0.10E+00  263.6     0.00000262      -838.8465887816 -1.11E-06
 SKALA_GPW| Atom-composite cross support/maxima   2.607069088142E+00   3.621513856409E+01   4.181447367518E+02   8.844657460021E+02
 SKALA_GPW| Active atom-composite XC energy  -1.2021017900929597E+02
 SKALA_GPW| Active atom-composite electrons   1.3800007113671808E+02
 SKALA_GPW| Active atom-composite density range  -3.2040201602041942E-09   9.7571892316155925E+01
 SKALA_GPW| Active atom-composite tau range  -5.1319253500969579E-08   2.5820017018230769E+03
 SKALA_GPW| Active atom-composite tau integral   8.3464501535733734E+02
 SKALA_GPW| Active atom-composite max gradient   1.3595760796342101E+03
   102 OT DIIS     0.10E+00  262.6     0.00000256      -838.8465898012 -1.02E-06
 SKALA_GPW| Atom-composite cross support/maxima   2.607069088142E+00   3.621514455366E+01   4.181447243364E+02   8.844662041400E+02
 SKALA_GPW| Active atom-composite XC energy  -1.2021018212200525E+02
 SKALA_GPW| Active atom-composite electrons   1.3800007113674320E+02
 SKALA_GPW| Active atom-composite density range  -3.2040129566748426E-09   9.7571888368000543E+01
 SKALA_GPW| Active atom-composite tau range  -5.1318663625375482E-08   2.5820013383174587E+03
 SKALA_GPW| Active atom-composite tau integral   8.3464503149081474E+02
 SKALA_GPW| Active atom-composite max gradient   1.3595760074424070E+03
   103 OT DIIS     0.10E+00  262.5     0.00000250      -838.8465907377 -9.37E-07
 SKALA_GPW| Atom-composite cross support/maxima   2.607069088142E+00   3.621514592824E+01   4.181447269151E+02   8.844663723138E+02
 SKALA_GPW| Active atom-composite XC energy  -1.2021018466259203E+02
 SKALA_GPW| Active atom-composite electrons   1.3800007113697160E+02
 SKALA_GPW| Active atom-composite density range  -3.2040001784753586E-09   9.7571887046683557E+01
 SKALA_GPW| Active atom-composite tau range  -5.1318187676120042E-08   2.5820011282990108E+03
 SKALA_GPW| Active atom-composite tau integral   8.3464505131272188E+02
 SKALA_GPW| Active atom-composite max gradient   1.3595759811818232E+03
   104 OT DIIS     0.10E+00  262.4     0.00000245      -838.8465913934 -6.56E-07
 SKALA_GPW| Atom-composite cross support/maxima   2.607069088142E+00   3.621514403169E+01   4.181447264160E+02   8.844663681373E+02
 SKALA_GPW| Active atom-composite XC energy  -1.2021018761347798E+02
 SKALA_GPW| Active atom-composite electrons   1.3800007113745903E+02
 SKALA_GPW| Active atom-composite density range  -3.2039845851600565E-09   9.7571880539722045E+01
 SKALA_GPW| Active atom-composite tau range  -5.1317691764276678E-08   2.5820010006403145E+03
 SKALA_GPW| Active atom-composite tau integral   8.3464508332459729E+02
 SKALA_GPW| Active atom-composite max gradient   1.3595761098132396E+03
   105 OT DIIS     0.10E+00  263.0     0.00000240      -838.8465920961 -7.03E-07
 SKALA_GPW| Atom-composite cross support/maxima   2.607069088142E+00   3.621513728980E+01   4.181447264045E+02   8.844662009312E+02
 SKALA_GPW| Active atom-composite XC energy  -1.2021019048673824E+02
 SKALA_GPW| Active atom-composite electrons   1.3800007113837540E+02
 SKALA_GPW| Active atom-composite density range  -3.2039630480439738E-09   9.7571868454142063E+01
 SKALA_GPW| Active atom-composite tau range  -5.1317179715920502E-08   2.5820016555540833E+03
 SKALA_GPW| Active atom-composite tau integral   8.3464511337425370E+02
 SKALA_GPW| Active atom-composite max gradient   1.3595763421406282E+03
   106 OT DIIS     0.10E+00  262.9     0.00000234      -838.8465929187 -8.23E-07
 SKALA_GPW| Atom-composite cross support/maxima   2.607069088142E+00   3.621513255787E+01   4.181447072856E+02   8.844662092210E+02
 SKALA_GPW| Active atom-composite XC energy  -1.2021019205829397E+02
 SKALA_GPW| Active atom-composite electrons   1.3800007113936380E+02
 SKALA_GPW| Active atom-composite density range  -3.2039448101110880E-09   9.7571860041464177E+01
 SKALA_GPW| Active atom-composite tau range  -5.1316738100557857E-08   2.5820019404949853E+03
 SKALA_GPW| Active atom-composite tau integral   8.3464512418219351E+02
 SKALA_GPW| Active atom-composite max gradient   1.3595764311678909E+03
   107 OT DIIS     0.10E+00  264.8     0.00000229      -838.8465936353 -7.17E-07
 SKALA_GPW| Atom-composite cross support/maxima   2.607069088142E+00   3.621513444488E+01   4.181446993872E+02   8.844664570408E+02
 SKALA_GPW| Active atom-composite XC energy  -1.2021019211385165E+02
 SKALA_GPW| Active atom-composite electrons   1.3800007114010845E+02
 SKALA_GPW| Active atom-composite density range  -3.2039313387503786E-09   9.7571858218735187E+01
 SKALA_GPW| Active atom-composite tau range  -5.1316338111997068E-08   2.5820019452886104E+03
 SKALA_GPW| Active atom-composite tau integral   8.3464512611260227E+02
 SKALA_GPW| Active atom-composite max gradient   1.3595764217294411E+03
   108 OT DIIS     0.10E+00  262.5     0.00000225      -838.8465942106 -5.75E-07
 SKALA_GPW| Atom-composite cross support/maxima   2.607069088142E+00   3.621513680419E+01   4.181446818977E+02   8.844668127772E+02
 SKALA_GPW| Active atom-composite XC energy  -1.2021019207367220E+02
 SKALA_GPW| Active atom-composite electrons   1.3800007114089900E+02
 SKALA_GPW| Active atom-composite density range  -3.2039155172956440E-09   9.7571863072527393E+01
 SKALA_GPW| Active atom-composite tau range  -5.1315733554305275E-08   2.5820019211150129E+03
 SKALA_GPW| Active atom-composite tau integral   8.3464514271823782E+02
 SKALA_GPW| Active atom-composite max gradient   1.3595764051972835E+03
   109 OT DIIS     0.10E+00  263.6     0.00000219      -838.8465950674 -8.57E-07
 SKALA_GPW| Atom-composite cross support/maxima   2.607069088142E+00   3.621513574795E+01   4.181446765993E+02   8.844669213485E+02
 SKALA_GPW| Active atom-composite XC energy  -1.2021019211834346E+02
 SKALA_GPW| Active atom-composite electrons   1.3800007114138199E+02
 SKALA_GPW| Active atom-composite density range  -3.2039074862728165E-09   9.7571864584171720E+01
 SKALA_GPW| Active atom-composite tau range  -5.1315324136164071E-08   2.5820023801905040E+03
 SKALA_GPW| Active atom-composite tau integral   8.3464517262426330E+02
 SKALA_GPW| Active atom-composite max gradient   1.3595766038850356E+03
   110 OT DIIS     0.10E+00  263.2     0.00000215      -838.8465957426 -6.75E-07
 SKALA_GPW| Atom-composite cross support/maxima   2.607069088142E+00   3.621513103674E+01   4.181446646644E+02   8.844668740168E+02
 SKALA_GPW| Active atom-composite XC energy  -1.2021019213299324E+02
 SKALA_GPW| Active atom-composite electrons   1.3800007114152092E+02
 SKALA_GPW| Active atom-composite density range  -3.2039066070425389E-09   9.7571863728387711E+01
 SKALA_GPW| Active atom-composite tau range  -5.1315163782209995E-08   2.5820028091714562E+03
 SKALA_GPW| Active atom-composite tau integral   8.3464519028444067E+02
 SKALA_GPW| Active atom-composite max gradient   1.3595767769139504E+03
   111 OT DIIS     0.10E+00  263.0     0.00000212      -838.8465962179 -4.75E-07
 SKALA_GPW| Atom-composite cross support/maxima   2.607069088142E+00   3.621512866117E+01   4.181446480167E+02   8.844669477830E+02
 SKALA_GPW| Active atom-composite XC energy  -1.2021019139577743E+02
 SKALA_GPW| Active atom-composite electrons   1.3800007114137370E+02
 SKALA_GPW| Active atom-composite density range  -3.2039123587871457E-09   9.7571859386956575E+01
 SKALA_GPW| Active atom-composite tau range  -5.1315093839526005E-08   2.5820032046234383E+03
 SKALA_GPW| Active atom-composite tau integral   8.3464519674110056E+02
 SKALA_GPW| Active atom-composite max gradient   1.3595769404417188E+03
   112 OT DIIS     0.10E+00  263.5     0.00000208      -838.8465967069 -4.89E-07
 SKALA_GPW| Atom-composite cross support/maxima   2.607069088142E+00   3.621512967988E+01   4.181446336166E+02   8.844672066176E+02
 SKALA_GPW| Active atom-composite XC energy  -1.2021019015765009E+02
 SKALA_GPW| Active atom-composite electrons   1.3800007114093557E+02
 SKALA_GPW| Active atom-composite density range  -3.2039201487518840E-09   9.7571858432344740E+01
 SKALA_GPW| Active atom-composite tau range  -5.1315012616651841E-08   2.5820032956173359E+03
 SKALA_GPW| Active atom-composite tau integral   8.3464519158230712E+02
 SKALA_GPW| Active atom-composite max gradient   1.3595769604801299E+03
   113 OT DIIS     0.10E+00  263.7     0.00000205      -838.8465972198 -5.13E-07
 SKALA_GPW| Atom-composite cross support/maxima   2.607069088142E+00   3.621513329225E+01   4.181446193961E+02   8.844675256879E+02
 SKALA_GPW| Active atom-composite XC energy  -1.2021018957951833E+02
 SKALA_GPW| Active atom-composite electrons   1.3800007114028554E+02
 SKALA_GPW| Active atom-composite density range  -3.2039281065490097E-09   9.7571860253616848E+01
 SKALA_GPW| Active atom-composite tau range  -5.1314866293504801E-08   2.5820032318280569E+03
 SKALA_GPW| Active atom-composite tau integral   8.3464519384015648E+02
 SKALA_GPW| Active atom-composite max gradient   1.3595769222657939E+03
   114 OT DIIS     0.10E+00  260.7     0.00000202      -838.8465976766 -4.57E-07
 SKALA_GPW| Atom-composite cross support/maxima   2.607069088142E+00   3.621513618119E+01   4.181446168979E+02   8.844677796662E+02
 SKALA_GPW| Active atom-composite XC energy  -1.2021019021376814E+02
 SKALA_GPW| Active atom-composite electrons   1.3800007113932648E+02
 SKALA_GPW| Active atom-composite density range  -3.2039346868884395E-09   9.7571862999726790E+01
 SKALA_GPW| Active atom-composite tau range  -5.1314603431063215E-08   2.5820033894710673E+03
 SKALA_GPW| Active atom-composite tau integral   8.3464521472859315E+02
 SKALA_GPW| Active atom-composite max gradient   1.3595769668419134E+03
   115 OT DIIS     0.10E+00  263.0     0.00000198      -838.8465982154 -5.39E-07
 SKALA_GPW| Atom-composite cross support/maxima   2.607069088142E+00   3.621513310633E+01   4.181446127216E+02   8.844677651125E+02
 SKALA_GPW| Active atom-composite XC energy  -1.2021019203761706E+02
 SKALA_GPW| Active atom-composite electrons   1.3800007113839473E+02
 SKALA_GPW| Active atom-composite density range  -3.2039380858910465E-09   9.7571860849644821E+01
 SKALA_GPW| Active atom-composite tau range  -5.1314351101317986E-08   2.5820038388556659E+03
 SKALA_GPW| Active atom-composite tau integral   8.3464524238758679E+02
 SKALA_GPW| Active atom-composite max gradient   1.3595771257264551E+03
   116 OT DIIS     0.10E+00  262.7     0.00000194      -838.8465987374 -5.22E-07
 SKALA_GPW| Atom-composite cross support/maxima   2.607069088142E+00   3.621513084362E+01   4.181446164660E+02   8.844677464191E+02
 SKALA_GPW| Active atom-composite XC energy  -1.2021019375598675E+02
 SKALA_GPW| Active atom-composite electrons   1.3800007113779401E+02
 SKALA_GPW| Active atom-composite density range  -3.2039368431725925E-09   9.7571852964735044E+01
 SKALA_GPW| Active atom-composite tau range  -5.1314094489962750E-08   2.5820043150420615E+03
 SKALA_GPW| Active atom-composite tau integral   8.3464525787777620E+02
 SKALA_GPW| Active atom-composite max gradient   1.3595772959575640E+03
   117 OT DIIS     0.10E+00  263.4     0.00000191      -838.8465992004 -4.63E-07
 SKALA_GPW| Atom-composite cross support/maxima   2.607069088142E+00   3.621513157607E+01   4.181446097829E+02   8.844679030034E+02
 SKALA_GPW| Active atom-composite XC energy  -1.2021019571915518E+02
 SKALA_GPW| Active atom-composite electrons   1.3800007113732718E+02
 SKALA_GPW| Active atom-composite density range  -3.2039298614535874E-09   9.7571844596233703E+01
 SKALA_GPW| Active atom-composite tau range  -5.1313660713624401E-08   2.5820044234191496E+03
 SKALA_GPW| Active atom-composite tau integral   8.3464526183408259E+02
 SKALA_GPW| Active atom-composite max gradient   1.3595773002316503E+03
   118 OT DIIS     0.10E+00  263.0     0.00000187      -838.8465997324 -5.32E-07
 SKALA_GPW| Atom-composite cross support/maxima   2.607069088142E+00   3.621513724689E+01   4.181446052255E+02   8.844682002462E+02
 SKALA_GPW| Active atom-composite XC energy  -1.2021019766419666E+02
 SKALA_GPW| Active atom-composite electrons   1.3800007113724430E+02
 SKALA_GPW| Active atom-composite density range  -3.2039191725012056E-09   9.7571840315639861E+01
 SKALA_GPW| Active atom-composite tau range  -5.1313124059306571E-08   2.5820043238527624E+03
 SKALA_GPW| Active atom-composite tau integral   8.3464526994477728E+02
 SKALA_GPW| Active atom-composite max gradient   1.3595772327552700E+03
   119 OT DIIS     0.10E+00  263.3     0.00000183      -838.8466002168 -4.84E-07
 SKALA_GPW| Atom-composite cross support/maxima   2.607069088142E+00   3.621513955492E+01   4.181445998349E+02   8.844683426174E+02
 SKALA_GPW| Active atom-composite XC energy  -1.2021019964269088E+02
 SKALA_GPW| Active atom-composite electrons   1.3800007113742703E+02
 SKALA_GPW| Active atom-composite density range  -3.2039067647361719E-09   9.7571840754291514E+01
 SKALA_GPW| Active atom-composite tau range  -5.1312626189401554E-08   2.5820043207549143E+03
 SKALA_GPW| Active atom-composite tau integral   8.3464528751714010E+02
 SKALA_GPW| Active atom-composite max gradient   1.3595772047507219E+03
   120 OT DIIS     0.10E+00  263.1     0.00000180      -838.8466005800 -3.63E-07
 SKALA_GPW| Atom-composite cross support/maxima   2.607069088142E+00   3.621513944383E+01   4.181445895517E+02   8.844683744048E+02
 SKALA_GPW| Active atom-composite XC energy  -1.2021020207458670E+02
 SKALA_GPW| Active atom-composite electrons   1.3800007113793220E+02
 SKALA_GPW| Active atom-composite density range  -3.2038915086969342E-09   9.7571839094248503E+01
 SKALA_GPW| Active atom-composite tau range  -5.1312038026684491E-08   2.5820046380512131E+03
 SKALA_GPW| Active atom-composite tau integral   8.3464531855752671E+02
 SKALA_GPW| Active atom-composite max gradient   1.3595773171288236E+03
   121 OT DIIS     0.10E+00  262.3     0.00000177      -838.8466010390 -4.59E-07
 SKALA_GPW| Atom-composite cross support/maxima   2.607069088142E+00   3.621513565800E+01   4.181445832830E+02   8.844682692870E+02
 SKALA_GPW| Active atom-composite XC energy  -1.2021020441008960E+02
 SKALA_GPW| Active atom-composite electrons   1.3800007113896143E+02
 SKALA_GPW| Active atom-composite density range  -3.2038711369139568E-09   9.7571833223739048E+01
 SKALA_GPW| Active atom-composite tau range  -5.1311406035994803E-08   2.5820052879885966E+03
 SKALA_GPW| Active atom-composite tau integral   8.3464535038812653E+02
 SKALA_GPW| Active atom-composite max gradient   1.3595775561432683E+03
   122 OT DIIS     0.10E+00  263.4     0.00000172      -838.8466015835 -5.45E-07
 SKALA_GPW| Atom-composite cross support/maxima   2.607069088142E+00   3.621513414278E+01   4.181445657164E+02   8.844682895935E+02
 SKALA_GPW| Active atom-composite XC energy  -1.2021020515332003E+02
 SKALA_GPW| Active atom-composite electrons   1.3800007113995721E+02
 SKALA_GPW| Active atom-composite density range  -3.2038585332988906E-09   9.7571826666772878E+01
 SKALA_GPW| Active atom-composite tau range  -5.1311009776402782E-08   2.5820055983867251E+03
 SKALA_GPW| Active atom-composite tau integral   8.3464535981322854E+02
 SKALA_GPW| Active atom-composite max gradient   1.3595776637393919E+03
   123 OT DIIS     0.10E+00  262.0     0.00000169      -838.8466020137 -4.30E-07
 SKALA_GPW| Atom-composite cross support/maxima   2.607069088142E+00   3.621513765268E+01   4.181445443694E+02   8.844685363474E+02
 SKALA_GPW| Active atom-composite XC energy  -1.2021020491339964E+02
 SKALA_GPW| Active atom-composite electrons   1.3800007114089496E+02
 SKALA_GPW| Active atom-composite density range  -3.2038511201092373E-09   9.7571823910097962E+01
 SKALA_GPW| Active atom-composite tau range  -5.1310671621817686E-08   2.5820056113464620E+03
 SKALA_GPW| Active atom-composite tau integral   8.3464536192339779E+02
 SKALA_GPW| Active atom-composite max gradient   1.3595776483530981E+03
   124 OT DIIS     0.10E+00  264.9     0.00000166      -838.8466024284 -4.15E-07
 SKALA_GPW| Atom-composite cross support/maxima   2.607069088142E+00   3.621514091758E+01   4.181445072578E+02   8.844688525590E+02
 SKALA_GPW| Active atom-composite XC energy  -1.2021020444780500E+02
 SKALA_GPW| Active atom-composite electrons   1.3800007114177518E+02
 SKALA_GPW| Active atom-composite density range  -3.2038485011339329E-09   9.7571828237931868E+01
 SKALA_GPW| Active atom-composite tau range  -5.1310312476983113E-08   2.5820055341241159E+03
 SKALA_GPW| Active atom-composite tau integral   8.3464537505915678E+02
 SKALA_GPW| Active atom-composite max gradient   1.3595775899852254E+03
   125 OT DIIS     0.10E+00  263.2     0.00000162      -838.8466029085 -4.80E-07
 SKALA_GPW| Atom-composite cross support/maxima   2.607069088142E+00   3.621514048552E+01   4.181444894201E+02   8.844689741131E+02
 SKALA_GPW| Active atom-composite XC energy  -1.2021020395555587E+02
 SKALA_GPW| Active atom-composite electrons   1.3800007114223808E+02
 SKALA_GPW| Active atom-composite density range  -3.2038506881328476E-09   9.7571832260875354E+01
 SKALA_GPW| Active atom-composite tau range  -5.1310107575226485E-08   2.5820058542609800E+03
 SKALA_GPW| Active atom-composite tau integral   8.3464539791482673E+02
 SKALA_GPW| Active atom-composite max gradient   1.3595777078853434E+03
   126 OT DIIS     0.10E+00  263.0     0.00000159      -838.8466032629 -3.54E-07
 SKALA_GPW| Atom-composite cross support/maxima   2.607069088142E+00   3.621513585464E+01   4.181444776230E+02   8.844689456938E+02
 SKALA_GPW| Active atom-composite XC energy  -1.2021020322881627E+02
 SKALA_GPW| Active atom-composite electrons   1.3800007114238841E+02
 SKALA_GPW| Active atom-composite density range  -3.2038549125887383E-09   9.7571833441511089E+01
 SKALA_GPW| Active atom-composite tau range  -5.1310037930409937E-08   2.5820063222040762E+03
 SKALA_GPW| Active atom-composite tau integral   8.3464541487512349E+02
 SKALA_GPW| Active atom-composite max gradient   1.3595778837421328E+03
   127 OT DIIS     0.10E+00  268.2     0.00000156      -838.8466035997 -3.37E-07
 SKALA_GPW| Atom-composite cross support/maxima   2.607069088142E+00   3.621513295721E+01   4.181444690879E+02   8.844689898009E+02
 SKALA_GPW| Active atom-composite XC energy  -1.2021020188653200E+02
 SKALA_GPW| Active atom-composite electrons   1.3800007114221870E+02
 SKALA_GPW| Active atom-composite density range  -3.2038625022497573E-09   9.7571829207619572E+01
 SKALA_GPW| Active atom-composite tau range  -5.1310079769121357E-08   2.5820067319863010E+03
 SKALA_GPW| Active atom-composite tau integral   8.3464541944052917E+02
 SKALA_GPW| Active atom-composite max gradient   1.3595780452007534E+03
   128 OT DIIS     0.10E+00  289.8     0.00000153      -838.8466039076 -3.08E-07
 SKALA_GPW| Atom-composite cross support/maxima   2.607069088142E+00   3.621513274299E+01   4.181444631803E+02   8.844691507472E+02
 SKALA_GPW| Active atom-composite XC energy  -1.2021020063173606E+02
 SKALA_GPW| Active atom-composite electrons   1.3800007114183134E+02
 SKALA_GPW| Active atom-composite density range  -3.2038686405987685E-09   9.7571826348225898E+01
 SKALA_GPW| Active atom-composite tau range  -5.1310109650942080E-08   2.5820067925266121E+03
 SKALA_GPW| Active atom-composite tau integral   8.3464541442117263E+02
 SKALA_GPW| Active atom-composite max gradient   1.3595780540408382E+03
   129 OT DIIS     0.10E+00  287.7     0.00000150      -838.8466041697 -2.62E-07
 SKALA_GPW| Atom-composite cross support/maxima   2.607069088142E+00   3.621513471394E+01   4.181444529168E+02   8.844694035506E+02
 SKALA_GPW| Active atom-composite XC energy  -1.2021019997115589E+02
 SKALA_GPW| Active atom-composite electrons   1.3800007114122232E+02
 SKALA_GPW| Active atom-composite density range  -3.2038745754085654E-09   9.7571825655458056E+01
 SKALA_GPW| Active atom-composite tau range  -5.1310060446076528E-08   2.5820066722406646E+03
 SKALA_GPW| Active atom-composite tau integral   8.3464541502668715E+02
 SKALA_GPW| Active atom-composite max gradient   1.3595779938347800E+03
   130 OT DIIS     0.10E+00  288.1     0.00000147      -838.8466044263 -2.57E-07
 SKALA_GPW| Atom-composite cross support/maxima   2.607069088142E+00   3.621513601768E+01   4.181444577367E+02   8.844696127545E+02
 SKALA_GPW| Active atom-composite XC energy  -1.2021020012788452E+02
 SKALA_GPW| Active atom-composite electrons   1.3800007114037541E+02
 SKALA_GPW| Active atom-composite density range  -3.2038768504338121E-09   9.7571827725674098E+01
 SKALA_GPW| Active atom-composite tau range  -5.1309884222304264E-08   2.5820067164571456E+03
 SKALA_GPW| Active atom-composite tau integral   8.3464543032843335E+02
 SKALA_GPW| Active atom-composite max gradient   1.3595780016381618E+03
   131 OT DIIS     0.10E+00  287.7     0.00000144      -838.8466047003 -2.74E-07
 SKALA_GPW| Atom-composite cross support/maxima   2.607069088142E+00   3.621513356862E+01   4.181444689234E+02   8.844695962536E+02
 SKALA_GPW| Active atom-composite XC energy  -1.2021020085274867E+02
 SKALA_GPW| Active atom-composite electrons   1.3800007113970966E+02
 SKALA_GPW| Active atom-composite density range  -3.2038735171508376E-09   9.7571827139050484E+01
 SKALA_GPW| Active atom-composite tau range  -5.1309707640991617E-08   2.5820070041248468E+03
 SKALA_GPW| Active atom-composite tau integral   8.3464544722380185E+02
 SKALA_GPW| Active atom-composite max gradient   1.3595781168966607E+03
   132 OT DIIS     0.10E+00  288.9     0.00000142      -838.8466049041 -2.04E-07
 SKALA_GPW| Atom-composite cross support/maxima   2.607069088142E+00   3.621513180749E+01   4.181444878977E+02   8.844695590858E+02
 SKALA_GPW| Active atom-composite XC energy  -1.2021020170158862E+02
 SKALA_GPW| Active atom-composite electrons   1.3800007113921961E+02
 SKALA_GPW| Active atom-composite density range  -3.2038647624526015E-09   9.7571821637345849E+01
 SKALA_GPW| Active atom-composite tau range  -5.1309493402822706E-08   2.5820073634982768E+03
 SKALA_GPW| Active atom-composite tau integral   8.3464545790081081E+02
 SKALA_GPW| Active atom-composite max gradient   1.3595782648255529E+03
   133 OT DIIS     0.10E+00  288.9     0.00000140      -838.8466050997 -1.96E-07
 SKALA_GPW| Atom-composite cross support/maxima   2.607069088142E+00   3.621513251924E+01   4.181444965409E+02   8.844696316204E+02
 SKALA_GPW| Active atom-composite XC energy  -1.2021020303582696E+02
 SKALA_GPW| Active atom-composite electrons   1.3800007113889453E+02
 SKALA_GPW| Active atom-composite density range  -3.2038505295874817E-09   9.7571813745457860E+01
 SKALA_GPW| Active atom-composite tau range  -5.1309169181052377E-08   2.5820074048376405E+03
 SKALA_GPW| Active atom-composite tau integral   8.3464545966689752E+02
 SKALA_GPW| Active atom-composite max gradient   1.3595782726173127E+03
   134 OT DIIS     0.10E+00  289.8     0.00000137      -838.8466053655 -2.66E-07
 SKALA_GPW| Atom-composite cross support/maxima   2.607069088142E+00   3.621513671372E+01   4.181444983587E+02   8.844698048788E+02
 SKALA_GPW| Active atom-composite XC energy  -1.2021020430019766E+02
 SKALA_GPW| Active atom-composite electrons   1.3800007113891189E+02
 SKALA_GPW| Active atom-composite density range  -3.2038394150381007E-09   9.7571809677736084E+01
 SKALA_GPW| Active atom-composite tau range  -5.1308836578902862E-08   2.5820072721366128E+03
 SKALA_GPW| Active atom-composite tau integral   8.3464546331125666E+02
 SKALA_GPW| Active atom-composite max gradient   1.3595782106261634E+03
   135 OT DIIS     0.10E+00  291.0     0.00000135      -838.8466055439 -1.78E-07
 SKALA_GPW| Atom-composite cross support/maxima   2.607069088142E+00   3.621513922605E+01   4.181444987128E+02   8.844699038794E+02
 SKALA_GPW| Active atom-composite XC energy  -1.2021020570010987E+02
 SKALA_GPW| Active atom-composite electrons   1.3800007113914057E+02
 SKALA_GPW| Active atom-composite density range  -3.2038295967541465E-09   9.7571810119649598E+01
 SKALA_GPW| Active atom-composite tau range  -5.1308499402003401E-08   2.5820072101377982E+03
 SKALA_GPW| Active atom-composite tau integral   8.3464547363734982E+02
 SKALA_GPW| Active atom-composite max gradient   1.3595781716709107E+03
   136 OT DIIS     0.10E+00  288.7     0.00000133      -838.8466057238 -1.80E-07
 SKALA_GPW| Atom-composite cross support/maxima   2.607069088142E+00   3.621514054330E+01   4.181444975961E+02   8.844699227383E+02
 SKALA_GPW| Active atom-composite XC energy  -1.2021020738737600E+02
 SKALA_GPW| Active atom-composite electrons   1.3800007113959407E+02
 SKALA_GPW| Active atom-composite density range  -3.2038195749339199E-09   9.7571810486825640E+01
 SKALA_GPW| Active atom-composite tau range  -5.1308111494308209E-08   2.5820073858703227E+03
 SKALA_GPW| Active atom-composite tau integral   8.3464549267847656E+02
 SKALA_GPW| Active atom-composite max gradient   1.3595782362633909E+03
   137 OT DIIS     0.10E+00  286.5     0.00000131      -838.8466059034 -1.80E-07
 SKALA_GPW| Atom-composite cross support/maxima   2.607069088142E+00   3.621513978126E+01   4.181444996399E+02   8.844698408151E+02
 SKALA_GPW| Active atom-composite XC energy  -1.2021020888802363E+02
 SKALA_GPW| Active atom-composite electrons   1.3800007114026613E+02
 SKALA_GPW| Active atom-composite density range  -3.2038098049913152E-09   9.7571809479781393E+01
 SKALA_GPW| Active atom-composite tau range  -5.1307768451046220E-08   2.5820077597755831E+03
 SKALA_GPW| Active atom-composite tau integral   8.3464550931211011E+02
 SKALA_GPW| Active atom-composite max gradient   1.3595783771536887E+03
   138 OT DIIS     0.10E+00  288.5     0.00000129      -838.8466060997 -1.96E-07
 SKALA_GPW| Atom-composite cross support/maxima   2.607069088142E+00   3.621513949074E+01   4.181444886590E+02   8.844698149741E+02
 SKALA_GPW| Active atom-composite XC energy  -1.2021020966006344E+02
 SKALA_GPW| Active atom-composite electrons   1.3800007114084497E+02
 SKALA_GPW| Active atom-composite density range  -3.2038059513629214E-09   9.7571806692097397E+01
 SKALA_GPW| Active atom-composite tau range  -5.1307577052380437E-08   2.5820079429841558E+03
 SKALA_GPW| Active atom-composite tau integral   8.3464551456255242E+02
 SKALA_GPW| Active atom-composite max gradient   1.3595784404632893E+03
   139 OT DIIS     0.10E+00  289.4     0.00000128      -838.8466062434 -1.44E-07
 SKALA_GPW| Atom-composite cross support/maxima   2.607069088142E+00   3.621514206939E+01   4.181444678782E+02   8.844699461239E+02
 SKALA_GPW| Active atom-composite XC energy  -1.2021021003361457E+02
 SKALA_GPW| Active atom-composite electrons   1.3800007114149932E+02
 SKALA_GPW| Active atom-composite density range  -3.2038072628149491E-09   9.7571804651414041E+01
 SKALA_GPW| Active atom-composite tau range  -5.1307390226394188E-08   2.5820079232798944E+03
 SKALA_GPW| Active atom-composite tau integral   8.3464551579526369E+02
 SKALA_GPW| Active atom-composite max gradient   1.3595784120864903E+03
   140 OT DIIS     0.10E+00  288.6     0.00000126      -838.8466064244 -1.81E-07
 SKALA_GPW| Atom-composite cross support/maxima   2.607069088142E+00   3.621514422938E+01   4.181444397064E+02   8.844701227582E+02
 SKALA_GPW| Active atom-composite XC energy  -1.2021021019980522E+02
 SKALA_GPW| Active atom-composite electrons   1.3800007114204516E+02
 SKALA_GPW| Active atom-composite density range  -3.2038137152402567E-09   9.7571806907304563E+01
 SKALA_GPW| Active atom-composite tau range  -5.1307207884890252E-08   2.5820078299471975E+03
 SKALA_GPW| Active atom-composite tau integral   8.3464552259645382E+02
 SKALA_GPW| Active atom-composite max gradient   1.3595783496745992E+03
   141 OT DIIS     0.10E+00  289.8     0.00000124      -838.8466066205 -1.96E-07
 SKALA_GPW| Atom-composite cross support/maxima   2.607069088142E+00   3.621514445710E+01   4.181444253736E+02   8.844702157510E+02
 SKALA_GPW| Active atom-composite XC energy  -1.2021021012503596E+02
 SKALA_GPW| Active atom-composite electrons   1.3800007114235362E+02
 SKALA_GPW| Active atom-composite density range  -3.2038209326504790E-09   9.7571810088640746E+01
 SKALA_GPW| Active atom-composite tau range  -5.1307060032860772E-08   2.5820080164719552E+03
 SKALA_GPW| Active atom-composite tau integral   8.3464553661537843E+02
 SKALA_GPW| Active atom-composite max gradient   1.3595784123216965E+03
   142 OT DIIS     0.10E+00  286.3     0.00000122      -838.8466067763 -1.56E-07
 SKALA_GPW| Atom-composite cross support/maxima   2.607069088142E+00   3.621514100134E+01   4.181444130604E+02   8.844701967700E+02
 SKALA_GPW| Active atom-composite XC energy  -1.2021020988092272E+02
 SKALA_GPW| Active atom-composite electrons   1.3800007114243638E+02
 SKALA_GPW| Active atom-composite density range  -3.2038279765940480E-09   9.7571812263872573E+01
 SKALA_GPW| Active atom-composite tau range  -5.1306970071307893E-08   2.5820084131088392E+03
 SKALA_GPW| Active atom-composite tau integral   8.3464555193862361E+02
 SKALA_GPW| Active atom-composite max gradient   1.3595785615578852E+03
   143 OT DIIS     0.10E+00  287.1     0.00000120      -838.8466069830 -2.07E-07
 SKALA_GPW| Atom-composite cross support/maxima   2.607069088142E+00   3.621513880521E+01   4.181444031504E+02   8.844702122261E+02
 SKALA_GPW| Active atom-composite XC energy  -1.2021020932150576E+02
 SKALA_GPW| Active atom-composite electrons   1.3800007114226671E+02
 SKALA_GPW| Active atom-composite density range  -3.2038334862798765E-09   9.7571809983456276E+01
 SKALA_GPW| Active atom-composite tau range  -5.1306964986336210E-08   2.5820087120800613E+03
 SKALA_GPW| Active atom-composite tau integral   8.3464555849064641E+02
 SKALA_GPW| Active atom-composite max gradient   1.3595786809295603E+03
   144 OT DIIS     0.10E+00  289.1     0.00000118      -838.8466071183 -1.35E-07
 SKALA_GPW| Atom-composite cross support/maxima   2.607069088142E+00   3.621513796923E+01   4.181443955712E+02   8.844702956527E+02
 SKALA_GPW| Active atom-composite XC energy  -1.2021020862789311E+02
 SKALA_GPW| Active atom-composite electrons   1.3800007114201091E+02
 SKALA_GPW| Active atom-composite density range  -3.2038366192628648E-09   9.7571807738793765E+01
 SKALA_GPW| Active atom-composite tau range  -5.1306965341318321E-08   2.5820087876018006E+03
 SKALA_GPW| Active atom-composite tau integral   8.3464555875855388E+02
 SKALA_GPW| Active atom-composite max gradient   1.3595787028461084E+03
   145 OT DIIS     0.10E+00  288.4     0.00000117      -838.8466072280 -1.10E-07
 SKALA_GPW| Atom-composite cross support/maxima   2.607069088142E+00   3.621513882580E+01   4.181443861230E+02   8.844704896317E+02
 SKALA_GPW| Active atom-composite XC energy  -1.2021020781491191E+02
 SKALA_GPW| Active atom-composite electrons   1.3800007114155139E+02
 SKALA_GPW| Active atom-composite density range  -3.2038388030279104E-09   9.7571805869960500E+01
 SKALA_GPW| Active atom-composite tau range  -5.1306912714515022E-08   2.5820087062116158E+03
 SKALA_GPW| Active atom-composite tau integral   8.3464556070831782E+02
 SKALA_GPW| Active atom-composite max gradient   1.3595786625226210E+03
   146 OT DIIS     0.10E+00  285.7     0.00000115      -838.8466074043 -1.76E-07
 SKALA_GPW| Atom-composite cross support/maxima   2.607069088142E+00   3.621513998230E+01   4.181443934914E+02   8.844706887506E+02
 SKALA_GPW| Active atom-composite XC energy  -1.2021020712898826E+02
 SKALA_GPW| Active atom-composite electrons   1.3800007114098881E+02
 SKALA_GPW| Active atom-composite density range  -3.2038356910947831E-09   9.7571806911746862E+01
 SKALA_GPW| Active atom-composite tau range  -5.1306755983486212E-08   2.5820087071036123E+03
 SKALA_GPW| Active atom-composite tau integral   8.3464557103211803E+02
 SKALA_GPW| Active atom-composite max gradient   1.3595786579660512E+03
   147 OT DIIS     0.10E+00  286.2     0.00000113      -838.8466075799 -1.76E-07
 SKALA_GPW| Atom-composite cross support/maxima   2.607069088142E+00   3.621513883007E+01   4.181444051235E+02   8.844707204561E+02
 SKALA_GPW| Active atom-composite XC energy  -1.2021020704543800E+02
 SKALA_GPW| Active atom-composite electrons   1.3800007114059557E+02
 SKALA_GPW| Active atom-composite density range  -3.2038276227868209E-09   9.7571807440218294E+01
 SKALA_GPW| Active atom-composite tau range  -5.1306589398074710E-08   2.5820089079712893E+03
 SKALA_GPW| Active atom-composite tau integral   8.3464558417191574E+02
 SKALA_GPW| Active atom-composite max gradient   1.3595787404350688E+03
   148 OT DIIS     0.10E+00  286.4     0.00000111      -838.8466077084 -1.29E-07
 SKALA_GPW| Atom-composite cross support/maxima   2.607069088142E+00   3.621513777754E+01   4.181444252592E+02   8.844707134916E+02
 SKALA_GPW| Active atom-composite XC energy  -1.2021020723694147E+02
 SKALA_GPW| Active atom-composite electrons   1.3800007114025527E+02
 SKALA_GPW| Active atom-composite density range  -3.2038120762678546E-09   9.7571803988099418E+01
 SKALA_GPW| Active atom-composite tau range  -5.1306363471294177E-08   2.5820092598941733E+03
 SKALA_GPW| Active atom-composite tau integral   8.3464559731827774E+02
 SKALA_GPW| Active atom-composite max gradient   1.3595788859690194E+03
   149 OT DIIS     0.10E+00  289.2     0.00000109      -838.8466078852 -1.77E-07
 SKALA_GPW| Atom-composite cross support/maxima   2.607069088142E+00   3.621513820701E+01   4.181444335552E+02   8.844707607656E+02
 SKALA_GPW| Active atom-composite XC energy  -1.2021020763172193E+02
 SKALA_GPW| Active atom-composite electrons   1.3800007114006939E+02
 SKALA_GPW| Active atom-composite density range  -3.2037949506892483E-09   9.7571797959541357E+01
 SKALA_GPW| Active atom-composite tau range  -5.1306129534161748E-08   2.5820093428186010E+03
 SKALA_GPW| Active atom-composite tau integral   8.3464560110060768E+02
 SKALA_GPW| Active atom-composite max gradient   1.3595789103365796E+03
   150 OT DIIS     0.10E+00  288.5     0.00000106      -838.8466080774 -1.92E-07
 SKALA_GPW| Atom-composite cross support/maxima   2.607069088142E+00   3.621514130576E+01   4.181444382065E+02   8.844708899267E+02
 SKALA_GPW| Active atom-composite XC energy  -1.2021020795824130E+02
 SKALA_GPW| Active atom-composite electrons   1.3800007114012882E+02
 SKALA_GPW| Active atom-composite density range  -3.2037840363166695E-09   9.7571793997210762E+01
 SKALA_GPW| Active atom-composite tau range  -5.1305919934159782E-08   2.5820092424593122E+03
 SKALA_GPW| Active atom-composite tau integral   8.3464560198837580E+02
 SKALA_GPW| Active atom-composite max gradient   1.3595788602119599E+03
   151 OT DIIS     0.10E+00  289.2     0.00000105      -838.8466082253 -1.48E-07
 SKALA_GPW| Atom-composite cross support/maxima   2.607069088142E+00   3.621514368565E+01   4.181444431619E+02   8.844709873023E+02
 SKALA_GPW| Active atom-composite XC energy  -1.2021020849037356E+02
 SKALA_GPW| Active atom-composite electrons   1.3800007114036850E+02
 SKALA_GPW| Active atom-composite density range  -3.2037751338133526E-09   9.7571793962810773E+01
 SKALA_GPW| Active atom-composite tau range  -5.1305679583170779E-08   2.5820091569210626E+03
 SKALA_GPW| Active atom-composite tau integral   8.3464560684813375E+02
 SKALA_GPW| Active atom-composite max gradient   1.3595788108488873E+03
   152 OT DIIS     0.10E+00  287.7     0.00000103      -838.8466083488 -1.24E-07
 SKALA_GPW| Atom-composite cross support/maxima   2.607069088142E+00   3.621514538073E+01   4.181444470985E+02   8.844710225937E+02
 SKALA_GPW| Active atom-composite XC energy  -1.2021020944544316E+02
 SKALA_GPW| Active atom-composite electrons   1.3800007114075342E+02
 SKALA_GPW| Active atom-composite density range  -3.2037674692075540E-09   9.7571794703395668E+01
 SKALA_GPW| Active atom-composite tau range  -5.1305406364001681E-08   2.5820092547149407E+03
 SKALA_GPW| Active atom-composite tau integral   8.3464561875861034E+02
 SKALA_GPW| Active atom-composite max gradient   1.3595788429573008E+03
   153 OT DIIS     0.10E+00  287.1     0.00000102      -838.8466084840 -1.35E-07
 SKALA_GPW| Atom-composite cross support/maxima   2.607069088142E+00   3.621514532336E+01   4.181444493920E+02   8.844709720250E+02
 SKALA_GPW| Active atom-composite XC energy  -1.2021021060548884E+02
 SKALA_GPW| Active atom-composite electrons   1.3800007114122550E+02
 SKALA_GPW| Active atom-composite density range  -3.2037618533371550E-09   9.7571795078677852E+01
 SKALA_GPW| Active atom-composite tau range  -5.1305174777982369E-08   2.5820095154088808E+03
 SKALA_GPW| Active atom-composite tau integral   8.3464563103028524E+02
 SKALA_GPW| Active atom-composite max gradient   1.3595789396416365E+03
   154 OT DIIS     0.10E+00  288.1     0.00000100      -838.8466086035 -1.20E-07
 SKALA_GPW| Atom-composite cross support/maxima   2.607069088142E+00   3.621514478372E+01   4.181444367464E+02   8.844709203630E+02
 SKALA_GPW| Active atom-composite XC energy  -1.2021021177747171E+02
 SKALA_GPW| Active atom-composite electrons   1.3800007114171828E+02
 SKALA_GPW| Active atom-composite density range  -3.2037612639944224E-09   9.7571792609963225E+01
 SKALA_GPW| Active atom-composite tau range  -5.1305015705197992E-08   2.5820097316280553E+03
 SKALA_GPW| Active atom-composite tau integral   8.3464563856319546E+02
 SKALA_GPW| Active atom-composite max gradient   1.3595790174645747E+03
   155 OT DIIS     0.10E+00  290.7     0.00000098      -838.8466087124 -1.09E-07
 SKALA_GPW| Atom-composite cross support/maxima   2.607069088142E+00   3.621514619202E+01   4.181444173525E+02   8.844709918356E+02
 SKALA_GPW| Active atom-composite XC energy  -1.2021021247186609E+02
 SKALA_GPW| Active atom-composite electrons   1.3800007114220372E+02
 SKALA_GPW| Active atom-composite density range  -3.2037671863173775E-09   9.7571789245250187E+01
 SKALA_GPW| Active atom-composite tau range  -5.1304899353511271E-08   2.5820097553543656E+03
 SKALA_GPW| Active atom-composite tau integral   8.3464563938927824E+02
 SKALA_GPW| Active atom-composite max gradient   1.3595790122213182E+03
   156 OT DIIS     0.10E+00  288.9     0.00000096      -838.8466088218 -1.09E-07
 SKALA_GPW| Atom-composite cross support/maxima   2.607069088142E+00   3.621514730553E+01   4.181443967361E+02   8.844711041706E+02
 SKALA_GPW| Active atom-composite XC energy  -1.2021021283193177E+02
 SKALA_GPW| Active atom-composite electrons   1.3800007114253631E+02
 SKALA_GPW| Active atom-composite density range  -3.2037762445915432E-09   9.7571788923425189E+01
 SKALA_GPW| Active atom-composite tau range  -5.1304796256416371E-08   2.5820096872226113E+03
 SKALA_GPW| Active atom-composite tau integral   8.3464564190221961E+02
 SKALA_GPW| Active atom-composite max gradient   1.3595789704017920E+03
   157 OT DIIS     0.10E+00  290.3     0.00000095      -838.8466089173 -9.55E-08
 SKALA_GPW| Atom-composite cross support/maxima   2.607069088142E+00   3.621514770677E+01   4.181443854499E+02   8.844711907231E+02
 SKALA_GPW| Active atom-composite XC energy  -1.2021021312744959E+02
 SKALA_GPW| Active atom-composite electrons   1.3800007114275201E+02
 SKALA_GPW| Active atom-composite density range  -3.2037850153636803E-09   9.7571790952990511E+01
 SKALA_GPW| Active atom-composite tau range  -5.1304678584522387E-08   2.5820098072075366E+03
 SKALA_GPW| Active atom-composite tau integral   8.3464565204565815E+02
 SKALA_GPW| Active atom-composite max gradient   1.3595790131009223E+03
   158 OT DIIS     0.10E+00  290.9     0.00000093      -838.8466090147 -9.74E-08
 SKALA_GPW| Atom-composite cross support/maxima   2.607069088142E+00   3.621514547977E+01   4.181443745633E+02   8.844711805380E+02
 SKALA_GPW| Active atom-composite XC energy  -1.2021021358781749E+02
 SKALA_GPW| Active atom-composite electrons   1.3800007114281749E+02
 SKALA_GPW| Active atom-composite density range  -3.2037917700951150E-09   9.7571793520259547E+01
 SKALA_GPW| Active atom-composite tau range  -5.1304586803828188E-08   2.5820100911302657E+03
 SKALA_GPW| Active atom-composite tau integral   8.3464566654146506E+02
 SKALA_GPW| Active atom-composite max gradient   1.3595791249166027E+03
   159 OT DIIS     0.10E+00  288.5     0.00000092      -838.8466091102 -9.54E-08
 SKALA_GPW| Atom-composite cross support/maxima   2.607069088142E+00   3.621514402644E+01   4.181443663590E+02   8.844711765949E+02
 SKALA_GPW| Active atom-composite XC energy  -1.2021021373567025E+02
 SKALA_GPW| Active atom-composite electrons   1.3800007114275931E+02
 SKALA_GPW| Active atom-composite density range  -3.2037954559693802E-09   9.7571792567527709E+01
 SKALA_GPW| Active atom-composite tau range  -5.1304552599607276E-08   2.5820103070128494E+03
 SKALA_GPW| Active atom-composite tau integral   8.3464567459350690E+02
 SKALA_GPW| Active atom-composite max gradient   1.3595792145213989E+03
   160 OT DIIS     0.10E+00  289.4     0.00000091      -838.8466091640 -5.38E-08
 SKALA_GPW| Atom-composite cross support/maxima   2.607069088142E+00   3.621514309970E+01   4.181443593534E+02   8.844712180310E+02
 SKALA_GPW| Active atom-composite XC energy  -1.2021021358884789E+02
 SKALA_GPW| Active atom-composite electrons   1.3800007114261268E+02
 SKALA_GPW| Active atom-composite density range  -3.2037975486304500E-09   9.7571790725258836E+01
 SKALA_GPW| Active atom-composite tau range  -5.1304524188172852E-08   2.5820103926015763E+03
 SKALA_GPW| Active atom-composite tau integral   8.3464567763887123E+02
 SKALA_GPW| Active atom-composite max gradient   1.3595792447188612E+03
   161 OT DIIS     0.10E+00  287.3     0.00000090      -838.8466092347 -7.07E-08
 SKALA_GPW| Atom-composite cross support/maxima   2.607069088142E+00   3.621514357391E+01   4.181443525913E+02   8.844713521752E+02
 SKALA_GPW| Active atom-composite XC energy  -1.2021021303550083E+02
 SKALA_GPW| Active atom-composite electrons   1.3800007114236277E+02
 SKALA_GPW| Active atom-composite density range  -3.2037981293451565E-09   9.7571788245356757E+01
 SKALA_GPW| Active atom-composite tau range  -5.1304459082943066E-08   2.5820103375544495E+03
 SKALA_GPW| Active atom-composite tau integral   8.3464567901330940E+02
 SKALA_GPW| Active atom-composite max gradient   1.3595792169397102E+03
   162 OT DIIS     0.10E+00  289.8     0.00000088      -838.8466093238 -8.92E-08
 SKALA_GPW| Atom-composite cross support/maxima   2.607069088142E+00   3.621514488407E+01   4.181443588936E+02   8.844715010219E+02
 SKALA_GPW| Active atom-composite XC energy  -1.2021021238895592E+02
 SKALA_GPW| Active atom-composite electrons   1.3800007114210558E+02
 SKALA_GPW| Active atom-composite density range  -3.2037941763445344E-09   9.7571788836311754E+01
 SKALA_GPW| Active atom-composite tau range  -5.1304336561439426E-08   2.5820102979978328E+03
 SKALA_GPW| Active atom-composite tau integral   8.3464568337864011E+02
 SKALA_GPW| Active atom-composite max gradient   1.3595791943586987E+03
   163 OT DIIS     0.10E+00  287.8     0.00000087      -838.8466094097 -8.59E-08
 SKALA_GPW| Atom-composite cross support/maxima   2.607069088142E+00   3.621514481410E+01   4.181443670028E+02   8.844715443310E+02
 SKALA_GPW| Active atom-composite XC energy  -1.2021021218637880E+02
 SKALA_GPW| Active atom-composite electrons   1.3800007114193090E+02
 SKALA_GPW| Active atom-composite density range  -3.2037868423193381E-09   9.7571790626097183E+01
 SKALA_GPW| Active atom-composite tau range  -5.1304202588248664E-08   2.5820103987243924E+03
 SKALA_GPW| Active atom-composite tau integral   8.3464569210564196E+02
 SKALA_GPW| Active atom-composite max gradient   1.3595792316784589E+03
   164 OT DIIS     0.10E+00  286.3     0.00000086      -838.8466094617 -5.20E-08
 SKALA_GPW| Atom-composite cross support/maxima   2.607069088142E+00   3.621514454097E+01   4.181443800451E+02   8.844715444774E+02
 SKALA_GPW| Active atom-composite XC energy  -1.2021021210532371E+02
 SKALA_GPW| Active atom-composite electrons   1.3800007114177527E+02
 SKALA_GPW| Active atom-composite density range  -3.2037741812871030E-09   9.7571790743281198E+01
 SKALA_GPW| Active atom-composite tau range  -5.1304029727879936E-08   2.5820106152947915E+03
 SKALA_GPW| Active atom-composite tau integral   8.3464570233827760E+02
 SKALA_GPW| Active atom-composite max gradient   1.3595793171737832E+03
   165 OT DIIS     0.10E+00  287.6     0.00000085      -838.8466095281 -6.63E-08
 SKALA_GPW| Atom-composite cross support/maxima   2.607069088142E+00   3.621514438463E+01   4.181443842822E+02   8.844715477388E+02
 SKALA_GPW| Active atom-composite XC energy  -1.2021021199804417E+02
 SKALA_GPW| Active atom-composite electrons   1.3800007114170359E+02
 SKALA_GPW| Active atom-composite density range  -3.2037633210502237E-09   9.7571788189681442E+01
 SKALA_GPW| Active atom-composite tau range  -5.1303894995240353E-08   2.5820106688248102E+03
 SKALA_GPW| Active atom-composite tau integral   8.3464570464264568E+02
 SKALA_GPW| Active atom-composite max gradient   1.3595793319159495E+03
   166 OT DIIS     0.10E+00  288.8     0.00000084      -838.8466095958 -6.77E-08
 SKALA_GPW| Atom-composite cross support/maxima   2.607069088142E+00   3.621514599706E+01   4.181443879789E+02   8.844716187513E+02
 SKALA_GPW| Active atom-composite XC energy  -1.2021021169962400E+02
 SKALA_GPW| Active atom-composite electrons   1.3800007114172007E+02
 SKALA_GPW| Active atom-composite density range  -3.2037558180346690E-09   9.7571785012708617E+01
 SKALA_GPW| Active atom-composite tau range  -5.1303774282746548E-08   2.5820106006922106E+03
 SKALA_GPW| Active atom-composite tau integral   8.3464570239707984E+02
 SKALA_GPW| Active atom-composite max gradient   1.3595792968239527E+03
   167 OT DIIS     0.10E+00  290.3     0.00000083      -838.8466096617 -6.59E-08
 SKALA_GPW| Atom-composite cross support/maxima   2.607069088142E+00   3.621514775186E+01   4.181443923547E+02   8.844717011368E+02
 SKALA_GPW| Active atom-composite XC energy  -1.2021021153186769E+02
 SKALA_GPW| Active atom-composite electrons   1.3800007114181864E+02
 SKALA_GPW| Active atom-composite density range  -3.2037495285645645E-09   9.7571784578152077E+01
 SKALA_GPW| Active atom-composite tau range  -5.1303626235580027E-08   2.5820105111496064E+03
 SKALA_GPW| Active atom-composite tau integral   8.3464570204117229E+02
 SKALA_GPW| Active atom-composite max gradient   1.3595792482290058E+03
   168 OT DIIS     0.10E+00  287.3     0.00000082      -838.8466097337 -7.20E-08
 SKALA_GPW| Atom-composite cross support/maxima   2.607069088142E+00   3.621514918593E+01   4.181443956962E+02   8.844717485830E+02
 SKALA_GPW| Active atom-composite XC energy  -1.2021021167429124E+02
 SKALA_GPW| Active atom-composite electrons   1.3800007114197794E+02
 SKALA_GPW| Active atom-composite density range  -3.2037450175405323E-09   9.7571785340707365E+01
 SKALA_GPW| Active atom-composite tau range  -5.1303474788286684E-08   2.5820105449336497E+03
 SKALA_GPW| Active atom-composite tau integral   8.3464570720529366E+02
 SKALA_GPW| Active atom-composite max gradient   1.3595792565056026E+03
   169 OT DIIS     0.10E+00  287.9     0.00000081      -838.8466097859 -5.22E-08
 SKALA_GPW| Atom-composite cross support/maxima   2.607069088142E+00   3.621514939576E+01   4.181443976202E+02   8.844717320966E+02
 SKALA_GPW| Active atom-composite XC energy  -1.2021021217738848E+02
 SKALA_GPW| Active atom-composite electrons   1.3800007114216353E+02
 SKALA_GPW| Active atom-composite density range  -3.2037421383840658E-09   9.7571786606781657E+01
 SKALA_GPW| Active atom-composite tau range  -5.1303348200233286E-08   2.5820107000469247E+03
 SKALA_GPW| Active atom-composite tau integral   8.3464571524454493E+02
 SKALA_GPW| Active atom-composite max gradient   1.3595793155821787E+03
   170 OT DIIS     0.10E+00  291.5     0.00000080      -838.8466098555 -6.96E-08
 SKALA_GPW| Atom-composite cross support/maxima   2.607069088142E+00   3.621514853614E+01   4.181443883444E+02   8.844716710171E+02
 SKALA_GPW| Active atom-composite XC energy  -1.2021021294082718E+02
 SKALA_GPW| Active atom-composite electrons   1.3800007114241140E+02
 SKALA_GPW| Active atom-composite density range  -3.2037428066961764E-09   9.7571785132019841E+01
 SKALA_GPW| Active atom-composite tau range  -5.1303262287811747E-08   2.5820109016111546E+03
 SKALA_GPW| Active atom-composite tau integral   8.3464572260233967E+02
 SKALA_GPW| Active atom-composite max gradient   1.3595793957159110E+03
   171 OT DIIS     0.10E+00  288.0     0.00000078      -838.8466099169 -6.14E-08
 SKALA_GPW| Atom-composite cross support/maxima   2.607069088142E+00   3.621514883742E+01   4.181443772779E+02   8.844716879831E+02
 SKALA_GPW| Active atom-composite XC energy  -1.2021021328304035E+02
 SKALA_GPW| Active atom-composite electrons   1.3800007114262121E+02
 SKALA_GPW| Active atom-composite density range  -3.2037474779968161E-09   9.7571781590454876E+01
 SKALA_GPW| Active atom-composite tau range  -5.1303237809329697E-08   2.5820109441713912E+03
 SKALA_GPW| Active atom-composite tau integral   8.3464572243071609E+02
 SKALA_GPW| Active atom-composite max gradient   1.3595794092083411E+03
   172 OT DIIS     0.10E+00  288.1     0.00000077      -838.8466099887 -7.18E-08
 SKALA_GPW| Atom-composite cross support/maxima   2.607069088142E+00   3.621514948855E+01   4.181443654002E+02   8.844717576447E+02
 SKALA_GPW| Active atom-composite XC energy  -1.2021021348283574E+02
 SKALA_GPW| Active atom-composite electrons   1.3800007114279137E+02
 SKALA_GPW| Active atom-composite density range  -3.2037540776536519E-09   9.7571779620195329E+01
 SKALA_GPW| Active atom-composite tau range  -5.1303217290472763E-08   2.5820109033240215E+03
 SKALA_GPW| Active atom-composite tau integral   8.3464572250693618E+02
 SKALA_GPW| Active atom-composite max gradient   1.3595793858554639E+03
   173 OT DIIS     0.10E+00  288.9     0.00000076      -838.8466100495 -6.08E-08
 SKALA_GPW| Atom-composite cross support/maxima   2.607069088142E+00   3.621515056272E+01   4.181443592273E+02   8.844718558956E+02
 SKALA_GPW| Active atom-composite XC energy  -1.2021021392912938E+02
 SKALA_GPW| Active atom-composite electrons   1.3800007114292711E+02
 SKALA_GPW| Active atom-composite density range  -3.2037613526126790E-09   9.7571780404189383E+01
 SKALA_GPW| Active atom-composite tau range  -5.1303161655221537E-08   2.5820109816208255E+03
 SKALA_GPW| Active atom-composite tau integral   8.3464573089703231E+02
 SKALA_GPW| Active atom-composite max gradient   1.3595794131932180E+03
   174 OT DIIS     0.10E+00  289.0     0.00000075      -838.8466101452 -9.56E-08
 SKALA_GPW| Atom-composite cross support/maxima   2.607069088142E+00   3.621514959327E+01   4.181443529062E+02   8.844718689493E+02
 SKALA_GPW| Active atom-composite XC energy  -1.2021021471853147E+02
 SKALA_GPW| Active atom-composite electrons   1.3800007114303892E+02
 SKALA_GPW| Active atom-composite density range  -3.2037659166110249E-09   9.7571782938037444E+01
 SKALA_GPW| Active atom-composite tau range  -5.1303097093311910E-08   2.5820112032608085E+03
 SKALA_GPW| Active atom-composite tau integral   8.3464574541748641E+02
 SKALA_GPW| Active atom-composite max gradient   1.3595795000689261E+03
   175 OT DIIS     0.10E+00  289.4     0.00000074      -838.8466102281 -8.30E-08
 SKALA_GPW| Atom-composite cross support/maxima   2.607069088142E+00   3.621514855461E+01   4.181443466964E+02   8.844718600074E+02
 SKALA_GPW| Active atom-composite XC energy  -1.2021021522442840E+02
 SKALA_GPW| Active atom-composite electrons   1.3800007114307510E+02
 SKALA_GPW| Active atom-composite density range  -3.2037680191320537E-09   9.7571782602426879E+01
 SKALA_GPW| Active atom-composite tau range  -5.1303053011055004E-08   2.5820114108882940E+03
 SKALA_GPW| Active atom-composite tau integral   8.3464575564856557E+02
 SKALA_GPW| Active atom-composite max gradient   1.3595795857754888E+03
   176 OT DIIS     0.10E+00  290.4     0.00000073      -838.8466102700 -4.18E-08
 SKALA_GPW| Atom-composite cross support/maxima   2.607069088142E+00   3.621514760147E+01   4.181443404383E+02   8.844718775636E+02
 SKALA_GPW| Active atom-composite XC energy  -1.2021021546473639E+02
 SKALA_GPW| Active atom-composite electrons   1.3800007114308372E+02
 SKALA_GPW| Active atom-composite density range  -3.2037684426911954E-09   9.7571780818943807E+01
 SKALA_GPW| Active atom-composite tau range  -5.1303001586077902E-08   2.5820115213102526E+03
 SKALA_GPW| Active atom-composite tau integral   8.3464576109077848E+02
 SKALA_GPW| Active atom-composite max gradient   1.3595796251801537E+03
   177 OT DIIS     0.10E+00  288.6     0.00000072      -838.8466103227 -5.27E-08
 SKALA_GPW| Atom-composite cross support/maxima   2.607069088142E+00   3.621514784306E+01   4.181443343656E+02   8.844719717871E+02
 SKALA_GPW| Active atom-composite XC energy  -1.2021021529319972E+02
 SKALA_GPW| Active atom-composite electrons   1.3800007114305041E+02
 SKALA_GPW| Active atom-composite density range  -3.2037671967194198E-09   9.7571777750409851E+01
 SKALA_GPW| Active atom-composite tau range  -5.1302917024225000E-08   2.5820114953251591E+03
 SKALA_GPW| Active atom-composite tau integral   8.3464576253340817E+02
 SKALA_GPW| Active atom-composite max gradient   1.3595796059811662E+03
   178 OT DIIS     0.10E+00  289.1     0.00000070      -838.8466103846 -6.19E-08
 SKALA_GPW| Atom-composite cross support/maxima   2.607069088142E+00   3.621514919420E+01   4.181443382573E+02   8.844721032746E+02
 SKALA_GPW| Active atom-composite XC energy  -1.2021021501305688E+02
 SKALA_GPW| Active atom-composite electrons   1.3800007114300308E+02
 SKALA_GPW| Active atom-composite density range  -3.2037631836126710E-09   9.7571777611610713E+01
 SKALA_GPW| Active atom-composite tau range  -5.1302780640393862E-08   2.5820114407795140E+03
 SKALA_GPW| Active atom-composite tau integral   8.3464576542600571E+02
 SKALA_GPW| Active atom-composite max gradient   1.3595795728311450E+03
   179 OT DIIS     0.10E+00  287.0     0.00000069      -838.8466104288 -4.42E-08
 SKALA_GPW| Atom-composite cross support/maxima   2.607069088142E+00   3.621514959741E+01   4.181443436959E+02   8.844721721904E+02
 SKALA_GPW| Active atom-composite XC energy  -1.2021021506222526E+02
 SKALA_GPW| Active atom-composite electrons   1.3800007114297679E+02
 SKALA_GPW| Active atom-composite density range  -3.2037563535879503E-09   9.7571779893320937E+01
 SKALA_GPW| Active atom-composite tau range  -5.1302589379257689E-08   2.5820115140930284E+03
 SKALA_GPW| Active atom-composite tau integral   8.3464577481739877E+02
 SKALA_GPW| Active atom-composite max gradient   1.3595795949159053E+03
   180 OT DIIS     0.10E+00  288.4     0.00000068      -838.8466104780 -4.92E-08
 SKALA_GPW| Atom-composite cross support/maxima   2.607069088142E+00   3.621514940963E+01   4.181443506740E+02   8.844721841684E+02
 SKALA_GPW| Active atom-composite XC energy  -1.2021021523013157E+02
 SKALA_GPW| Active atom-composite electrons   1.3800007114294803E+02
 SKALA_GPW| Active atom-composite density range  -3.2037466356272095E-09   9.7571781230729172E+01
 SKALA_GPW| Active atom-composite tau range  -5.1302352966405563E-08   2.5820117107985507E+03
 SKALA_GPW| Active atom-composite tau integral   8.3464578613697745E+02
 SKALA_GPW| Active atom-composite max gradient   1.3595796711416426E+03
   181 OT DIIS     0.10E+00  290.6     0.00000067      -838.8466105595 -8.15E-08
 SKALA_GPW| Atom-composite cross support/maxima   2.607069088142E+00   3.621514872258E+01   4.181443501376E+02   8.844721728668E+02
 SKALA_GPW| Active atom-composite XC energy  -1.2021021513172275E+02
 SKALA_GPW| Active atom-composite electrons   1.3800007114294974E+02
 SKALA_GPW| Active atom-composite density range  -3.2037381719951603E-09   9.7571779539438722E+01
 SKALA_GPW| Active atom-composite tau range  -5.1302157207585255E-08   2.5820117997980392E+03
 SKALA_GPW| Active atom-composite tau integral   8.3464578998454715E+02
 SKALA_GPW| Active atom-composite max gradient   1.3595797024590963E+03
   182 OT DIIS     0.10E+00  288.2     0.00000066      -838.8466105959 -3.65E-08
 SKALA_GPW| Atom-composite cross support/maxima   2.607069088142E+00   3.621514967613E+01   4.181443503165E+02   8.844722286585E+02
 SKALA_GPW| Active atom-composite XC energy  -1.2021021466268607E+02
 SKALA_GPW| Active atom-composite electrons   1.3800007114296179E+02
 SKALA_GPW| Active atom-composite density range  -3.2037315216372545E-09   9.7571776008655561E+01
 SKALA_GPW| Active atom-composite tau range  -5.1301983227066335E-08   2.5820117592163615E+03
 SKALA_GPW| Active atom-composite tau integral   8.3464578723061129E+02
 SKALA_GPW| Active atom-composite max gradient   1.3595796800171613E+03
   183 OT DIIS     0.10E+00  288.2     0.00000065      -838.8466106624 -6.65E-08
 SKALA_GPW| Atom-composite cross support/maxima   2.607069088142E+00   3.621515100787E+01   4.181443526026E+02   8.844723055431E+02
 SKALA_GPW| Active atom-composite XC energy  -1.2021021425834145E+02
 SKALA_GPW| Active atom-composite electrons   1.3800007114297324E+02
 SKALA_GPW| Active atom-composite density range  -3.2037272562338081E-09   9.7571775138778506E+01
 SKALA_GPW| Active atom-composite tau range  -5.1301840412087306E-08   2.5820116643435290E+03
 SKALA_GPW| Active atom-composite tau integral   8.3464578500387120E+02
 SKALA_GPW| Active atom-composite max gradient   1.3595796323762218E+03
   184 OT DIIS     0.10E+00  289.9     0.00000064      -838.8466106941 -3.16E-08
 SKALA_GPW| Atom-composite cross support/maxima   2.607069088142E+00   3.621515213813E+01   4.181443547177E+02   8.844723555089E+02
 SKALA_GPW| Active atom-composite XC energy  -1.2021021414026714E+02
 SKALA_GPW| Active atom-composite electrons   1.3800007114299567E+02
 SKALA_GPW| Active atom-composite density range  -3.2037253272489352E-09   9.7571775686668701E+01
 SKALA_GPW| Active atom-composite tau range  -5.1301734969788826E-08   2.5820116694033868E+03
 SKALA_GPW| Active atom-composite tau integral   8.3464578749189093E+02
 SKALA_GPW| Active atom-composite max gradient   1.3595796320919367E+03
   185 OT DIIS     0.10E+00  289.2     0.00000064      -838.8466107132 -1.91E-08
 SKALA_GPW| Atom-composite cross support/maxima   2.607069088142E+00   3.621515247309E+01   4.181443570324E+02   8.844723539973E+02
 SKALA_GPW| Active atom-composite XC energy  -1.2021021433655595E+02
 SKALA_GPW| Active atom-composite electrons   1.3800007114304117E+02
 SKALA_GPW| Active atom-composite density range  -3.2037246911448459E-09   9.7571777344530361E+01
 SKALA_GPW| Active atom-composite tau range  -5.1301659260807856E-08   2.5820117855610829E+03
 SKALA_GPW| Active atom-composite tau integral   8.3464579357266064E+02
 SKALA_GPW| Active atom-composite max gradient   1.3595796790137795E+03
   186 OT DIIS     0.10E+00  289.7     0.00000063      -838.8466107591 -4.59E-08
 SKALA_GPW| Atom-composite cross support/maxima   2.607069088142E+00   3.621515167275E+01   4.181443518973E+02   8.844722938593E+02
 SKALA_GPW| Active atom-composite XC energy  -1.2021021464290480E+02
 SKALA_GPW| Active atom-composite electrons   1.3800007114309253E+02
 SKALA_GPW| Active atom-composite density range  -3.2037262964478930E-09   9.7571776873536862E+01
 SKALA_GPW| Active atom-composite tau range  -5.1301646997288378E-08   2.5820119510399500E+03
 SKALA_GPW| Active atom-composite tau integral   8.3464579915865477E+02
 SKALA_GPW| Active atom-composite max gradient   1.3595797499131456E+03
   187 OT DIIS     0.10E+00  289.3     0.00000062      -838.8466107903 -3.12E-08
 SKALA_GPW| Atom-composite cross support/maxima   2.607069088142E+00   3.621515167362E+01   4.181443469008E+02   8.844722821946E+02
 SKALA_GPW| Active atom-composite XC energy  -1.2021021463231956E+02
 SKALA_GPW| Active atom-composite electrons   1.3800007114314249E+02
 SKALA_GPW| Active atom-composite density range  -3.2037291702432902E-09   9.7571774282621831E+01
 SKALA_GPW| Active atom-composite tau range  -5.1301696802388508E-08   2.5820119821796497E+03
 SKALA_GPW| Active atom-composite tau integral   8.3464579791245660E+02
 SKALA_GPW| Active atom-composite max gradient   1.3595797625510868E+03
   188 OT DIIS     0.10E+00  287.8     0.00000061      -838.8466108111 -2.08E-08
 SKALA_GPW| Atom-composite cross support/maxima   2.607069088142E+00   3.621515218442E+01   4.181443413811E+02   8.844723196364E+02
 SKALA_GPW| Active atom-composite XC energy  -1.2021021458700200E+02
 SKALA_GPW| Active atom-composite electrons   1.3800007114317850E+02
 SKALA_GPW| Active atom-composite density range  -3.2037331857752784E-09   9.7571772192070938E+01
 SKALA_GPW| Active atom-composite tau range  -5.1301771556623223E-08   2.5820119238755938E+03
 SKALA_GPW| Active atom-composite tau integral   8.3464579563707287E+02
 SKALA_GPW| Active atom-composite max gradient   1.3595797338612058E+03
   189 OT DIIS     0.10E+00  287.8     0.00000060      -838.8466108512 -4.01E-08
 SKALA_GPW| Atom-composite cross support/maxima   2.607069088142E+00   3.621515345467E+01   4.181443412077E+02   8.844723965837E+02
 SKALA_GPW| Active atom-composite XC energy  -1.2021021477579704E+02
 SKALA_GPW| Active atom-composite electrons   1.3800007114321500E+02
 SKALA_GPW| Active atom-composite density range  -3.2037378414337578E-09   9.7571772806580711E+01
 SKALA_GPW| Active atom-composite tau range  -5.1301841318720450E-08   2.5820119277695148E+03
 SKALA_GPW| Active atom-composite tau integral   8.3464579909495558E+02
 SKALA_GPW| Active atom-composite max gradient   1.3595797303605516E+03
   190 OT DIIS     0.10E+00  288.0     0.00000060      -838.8466108817 -3.05E-08
 SKALA_GPW| Atom-composite cross support/maxima   2.607069088142E+00   3.621515335403E+01   4.181443402244E+02   8.844724129068E+02
 SKALA_GPW| Active atom-composite XC energy  -1.2021021526967959E+02
 SKALA_GPW| Active atom-composite electrons   1.3800007114326635E+02
 SKALA_GPW| Active atom-composite density range  -3.2037405963566227E-09   9.7571775098659046E+01
 SKALA_GPW| Active atom-composite tau range  -5.1301873984938157E-08   2.5820120367389291E+03
 SKALA_GPW| Active atom-composite tau integral   8.3464580729922102E+02
 SKALA_GPW| Active atom-composite max gradient   1.3595797713634149E+03
   191 OT DIIS     0.10E+00  288.7     0.00000059      -838.8466109184 -3.67E-08
 SKALA_GPW| Atom-composite cross support/maxima   2.607069088142E+00   3.621515281770E+01   4.181443372631E+02   8.844723997262E+02
 SKALA_GPW| Active atom-composite XC energy  -1.2021021569253875E+02
 SKALA_GPW| Active atom-composite electrons   1.3800007114331171E+02
 SKALA_GPW| Active atom-composite density range  -3.2037418450775856E-09   9.7571775449117283E+01
 SKALA_GPW| Active atom-composite tau range  -5.1301887124100688E-08   2.5820121806811976E+03
 SKALA_GPW| Active atom-composite tau integral   8.3464581453833864E+02
 SKALA_GPW| Active atom-composite max gradient   1.3595798304639618E+03
   192 OT DIIS     0.10E+00  288.0     0.00000058      -838.8466109463 -2.79E-08
 SKALA_GPW| Atom-composite cross support/maxima   2.607069088142E+00   3.621515213945E+01   4.181443336725E+02   8.844723927789E+02
 SKALA_GPW| Active atom-composite XC energy  -1.2021021593253387E+02
 SKALA_GPW| Active atom-composite electrons   1.3800007114336404E+02
 SKALA_GPW| Active atom-composite density range  -3.2037413473439573E-09   9.7571774439909689E+01
 SKALA_GPW| Active atom-composite tau range  -5.1301877358095873E-08   2.5820122581140881E+03
 SKALA_GPW| Active atom-composite tau integral   8.3464581808486435E+02
 SKALA_GPW| Active atom-composite max gradient   1.3595798576353673E+03
   193 OT DIIS     0.10E+00  288.7     0.00000058      -838.8466109636 -1.73E-08
 SKALA_GPW| Atom-composite cross support/maxima   2.607069088142E+00   3.621515205154E+01   4.181443293966E+02   8.844724302603E+02
 SKALA_GPW| Active atom-composite XC energy  -1.2021021596120670E+02
 SKALA_GPW| Active atom-composite electrons   1.3800007114341724E+02
 SKALA_GPW| Active atom-composite density range  -3.2037393213605564E-09   9.7571772006209471E+01
 SKALA_GPW| Active atom-composite tau range  -5.1301826419304664E-08   2.5820122351114478E+03
 SKALA_GPW| Active atom-composite tau integral   8.3464581851683170E+02
 SKALA_GPW| Active atom-composite max gradient   1.3595798419530779E+03
   194 OT DIIS     0.10E+00  287.3     0.00000057      -838.8466109896 -2.60E-08
 SKALA_GPW| Atom-composite cross support/maxima   2.607069088142E+00   3.621515288275E+01   4.181443306313E+02   8.844725167516E+02
 SKALA_GPW| Active atom-composite XC energy  -1.2021021593467192E+02
 SKALA_GPW| Active atom-composite electrons   1.3800007114346391E+02
 SKALA_GPW| Active atom-composite density range  -3.2037359218964178E-09   9.7571771342077341E+01
 SKALA_GPW| Active atom-composite tau range  -5.1301708852834181E-08   2.5820121784290632E+03
 SKALA_GPW| Active atom-composite tau integral   8.3464581984733411E+02
 SKALA_GPW| Active atom-composite max gradient   1.3595798102229335E+03
   195 OT DIIS     0.10E+00  288.4     0.00000056      -838.8466110132 -2.36E-08
 SKALA_GPW| Atom-composite cross support/maxima   2.607069088142E+00   3.621515326080E+01   4.181443327180E+02   8.844725851001E+02
 SKALA_GPW| Active atom-composite XC energy  -1.2021021614893941E+02
 SKALA_GPW| Active atom-composite electrons   1.3800007114352533E+02
 SKALA_GPW| Active atom-composite density range  -3.2037310848642458E-09   9.7571773166970033E+01
 SKALA_GPW| Active atom-composite tau range  -5.1301501065619710E-08   2.5820122223804183E+03
 SKALA_GPW| Active atom-composite tau integral   8.3464582741179584E+02
 SKALA_GPW| Active atom-composite max gradient   1.3595798221240279E+03
   196 OT DIIS     0.10E+00  288.7     0.00000056      -838.8466110476 -3.44E-08
 SKALA_GPW| Atom-composite cross support/maxima   2.607069088142E+00   3.621515314885E+01   4.181443343535E+02   8.844726042241E+02
 SKALA_GPW| Active atom-composite XC energy  -1.2021021639070476E+02
 SKALA_GPW| Active atom-composite electrons   1.3800007114360326E+02
 SKALA_GPW| Active atom-composite density range  -3.2037260202491937E-09   9.7571774365335145E+01
 SKALA_GPW| Active atom-composite tau range  -5.1301278073192977E-08   2.5820123657206573E+03
 SKALA_GPW| Active atom-composite tau integral   8.3464583618034567E+02
 SKALA_GPW| Active atom-composite max gradient   1.3595798796339727E+03
   197 OT DIIS     0.10E+00  288.0     0.00000055      -838.8466110765 -2.89E-08
 SKALA_GPW| Atom-composite cross support/maxima   2.607069088142E+00   3.621515239955E+01   4.181443311338E+02   8.844725903505E+02
 SKALA_GPW| Active atom-composite XC energy  -1.2021021646298226E+02
 SKALA_GPW| Active atom-composite electrons   1.3800007114367600E+02
 SKALA_GPW| Active atom-composite density range  -3.2037205627073321E-09   9.7571773177962498E+01
 SKALA_GPW| Active atom-composite tau range  -5.1301057415229949E-08   2.5820124763528579E+03
 SKALA_GPW| Active atom-composite tau integral   8.3464584114821560E+02
 SKALA_GPW| Active atom-composite max gradient   1.3595799231791609E+03
   198 OT DIIS     0.10E+00  288.1     0.00000054      -838.8466111199 -4.34E-08
 SKALA_GPW| Atom-composite cross support/maxima   2.607069088142E+00   3.621515272794E+01   4.181443290880E+02   8.844726227449E+02
 SKALA_GPW| Active atom-composite XC energy  -1.2021021617010202E+02
 SKALA_GPW| Active atom-composite electrons   1.3800007114374978E+02
 SKALA_GPW| Active atom-composite density range  -3.2037153768731976E-09   9.7571769655023587E+01
 SKALA_GPW| Active atom-composite tau range  -5.1300848276452299E-08   2.5820124828419657E+03
 SKALA_GPW| Active atom-composite tau integral   8.3464584066729003E+02
 SKALA_GPW| Active atom-composite max gradient   1.3595799228568114E+03
   199 OT DIIS     0.10E+00  285.1     0.00000053      -838.8466111453 -2.54E-08
 SKALA_GPW| Atom-composite cross support/maxima   2.607069088142E+00   3.621515353471E+01   4.181443299871E+02   8.844726841953E+02
 SKALA_GPW| Active atom-composite XC energy  -1.2021021590936456E+02
 SKALA_GPW| Active atom-composite electrons   1.3800007114377505E+02
 SKALA_GPW| Active atom-composite density range  -3.2037122614525412E-09   9.7571768345745753E+01
 SKALA_GPW| Active atom-composite tau range  -5.1300698373137793E-08   2.5820124203246705E+03
 SKALA_GPW| Active atom-composite tau integral   8.3464583956888373E+02
 SKALA_GPW| Active atom-composite max gradient   1.3595798912859245E+03
   200 OT DIIS     0.10E+00  286.3     0.00000053      -838.8466111862 -4.09E-08

  Leaving inner SCF loop after reaching   200 steps.


  Electronic density on regular grids:       -100.1338349670       37.8661650330
  Core density on regular grids:              138.0000000000        0.0000000000
  Hard and soft densities (Lebedev):        -8406.5298906919    -8368.6637257282
  Total Rho_soft + Rho1_hard - Rho1_soft     -137.9999999307
  Total charge density (r-space):               0.0000000693
  Total Rho_soft + Rho0_soft (g-space):         0.0000000661

  Overlap energy of the core charge distribution:               0.00007770921711
  Self energy of the core charge distribution:               -680.73115833150996
  Core Hamiltonian energy:                                   -137.77274509736074
  Hartree energy:                                             342.93508311166846
  Exchange-correlation energy:                                  0.00000000000000
  Dispersion energy:                                           -0.08272851451601

  GAPW| Exc from hard and soft atomic rho1:                  -120.21021590936456
  GAPW| local Eh = 1 center integrals:                       -242.98492415432327

  Total energy:                                              -838.84661118618908

  outer SCF iter =    1 RMS gradient =   0.53E-06 energy =       -838.8466111862

  ----------------------------------- OT ---------------------------------------
  Minimizer      : DIIS                : direct inversion
                                         in the iterative subspace
                                         using   7 DIIS vectors
                                         safer DIIS on
  Preconditioner : FULL_ALL            : diagonalization, state selective
  Precond_solver : DEFAULT
  stepsize       :    0.10000000                  energy_gap     :    0.00100000
  eps_taylor     :   0.10000E-15                  max_taylor     :             4
  ----------------------------------- OT ---------------------------------------

  Step     Update method      Time    Convergence         Total energy    Change
  ------------------------------------------------------------------------------
 SKALA_GPW| Atom-composite cross support/maxima   2.607069088142E+00   3.621515442299E+01   4.181443314863E+02   8.844727379477E+02
 SKALA_GPW| Active atom-composite XC energy  -1.2021021579383135E+02
 SKALA_GPW| Active atom-composite electrons   1.3800007114378047E+02
 SKALA_GPW| Active atom-composite density range  -3.2037112986839762E-09   9.7571768476864776E+01
 SKALA_GPW| Active atom-composite tau range  -5.1300594202365965E-08   2.5820124229874132E+03
 SKALA_GPW| Active atom-composite tau integral   8.3464584182914803E+02
 SKALA_GPW| Active atom-composite max gradient   1.3595798909234961E+03
     1 OT DIIS     0.10E+00  574.6     0.00000866      -838.8466112086 -2.24E-08
 SKALA_GPW| Atom-composite cross support/maxima   2.607069088142E+00   3.621516445584E+01   4.181442362237E+02   8.844735665478E+02
 SKALA_GPW| Active atom-composite XC energy  -1.2021020868694644E+02
 SKALA_GPW| Active atom-composite electrons   1.3800007114484004E+02
 SKALA_GPW| Active atom-composite density range  -3.2036857673488722E-09   9.7571763409269778E+01
 SKALA_GPW| Active atom-composite tau range  -5.1298396356861725E-08   2.5820145975479072E+03
 SKALA_GPW| Active atom-composite tau integral   8.3464589378916469E+02
 SKALA_GPW| Active atom-composite max gradient   1.3595807136570463E+03
     2 OT DIIS     0.10E+00  290.0     0.00000515      -838.8466118771 -6.68E-07
 SKALA_GPW| Atom-composite cross support/maxima   2.607069088142E+00   3.621516921066E+01   4.181443117887E+02   8.844744074703E+02
 SKALA_GPW| Active atom-composite XC energy  -1.2021021612147520E+02
 SKALA_GPW| Active atom-composite electrons   1.3800007114668765E+02
 SKALA_GPW| Active atom-composite density range  -3.2036192038289718E-09   9.7571776793046055E+01
 SKALA_GPW| Active atom-composite tau range  -5.1296665539111538E-08   2.5820151924597926E+03
 SKALA_GPW| Active atom-composite tau integral   8.3464607018995264E+02
 SKALA_GPW| Active atom-composite max gradient   1.3595808445218111E+03
     3 OT DIIS     0.10E+00  287.5     0.00000041      -838.8466124978 -6.21E-07

  *** SCF run converged in     3 steps ***


  Electronic density on regular grids:       -100.1338425497       37.8661574503
  Core density on regular grids:              138.0000000000        0.0000000000
  Hard and soft densities (Lebedev):        -8406.5155082566    -8368.6493508751
  Total Rho_soft + Rho1_hard - Rho1_soft     -137.9999999312
  Total charge density (r-space):               0.0000000688
  Total Rho_soft + Rho0_soft (g-space):         0.0000000656

  Overlap energy of the core charge distribution:               0.00007770921711
  Self energy of the core charge distribution:               -680.73115833150996
  Core Hamiltonian energy:                                   -137.77280277167478
  Hartree energy:                                             342.93518789813254
  Exchange-correlation energy:                                  0.00000000000000
  Dispersion energy:                                           -0.08272851451601

  GAPW| Exc from hard and soft atomic rho1:                  -120.21021612147520
  GAPW| local Eh = 1 center integrals:                       -242.98497236601978

  Total energy:                                              -838.84661249784619

  outer SCF iter =    2 RMS gradient =   0.41E-06 energy =       -838.8466124978
  outer SCF loop converged in   2 iterations or  203 steps


 !-----------------------------------------------------------------------------!
                     Mulliken Population Analysis

 #  Atom  Element  Kind  Atomic population                           Net charge
       1     C        1          6.142889                             -0.142889
       2     N        2          7.305044                             -0.305044
       3     B        3          4.690169                              0.309831
       4     N        2          7.289822                             -0.289822
       5     B        3          4.848302                              0.151698
       6     N        2          7.290519                             -0.290519
       7     B        3          4.847318                              0.152682
       8     N        2          7.410109                             -0.410109
       9     B        3          4.787910                              0.212090
      10     B        3          4.688695                              0.311305
      11     N        2          7.303932                             -0.303932
      12     C        1          6.143880                             -0.143880
      13     B        3          4.692411                              0.307589
      14     N        2          7.302978                             -0.302978
      15     B        3          4.789345                              0.210655
      16     N        2          7.409456                             -0.409456
      17     N        2          7.289506                             -0.289506
      18     B        3          4.848124                              0.151876
      19     C        1          6.143708                             -0.143708
      20     B        3          4.787491                              0.212509
      21     N        2          7.408539                             -0.408539
      22     H        4          0.754229                              0.245771
      23     H        4          1.024997                             -0.024997
      24     H        4          0.878069                              0.121931
      25     H        4          1.025056                             -0.025056
      26     H        4          0.754175                              0.245825
      27     H        4          0.869537                              0.130463
      28     H        4          1.025393                             -0.025393
      29     H        4          0.754189                              0.245811
      30     H        4          0.877857                              0.122143
      31     H        4          0.877529                              0.122471
      32     H        4          0.869580                              0.130420
      33     H        4          0.869243                              0.130757
 # Total charge                            138.000000                  0.000000

 !-----------------------------------------------------------------------------!

 !-----------------------------------------------------------------------------!
                           Hirshfeld Charges

  #Atom  Element  Kind  Ref Charge     Population                    Net charge
      1       C      1       6.000          6.867                        -0.867
      2       N      2       7.000          7.284                        -0.284
      3       B      3       5.000          4.714                         0.286
      4       N      2       7.000          7.300                        -0.300
      5       B      3       5.000          4.772                         0.228
      6       N      2       7.000          7.300                        -0.300
      7       B      3       5.000          4.772                         0.228
      8       N      2       7.000          7.699                        -0.699
      9       B      3       5.000          5.307                        -0.307
     10       B      3       5.000          4.714                         0.286
     11       N      2       7.000          7.284                        -0.284
     12       C      1       6.000          6.867                        -0.867
     13       B      3       5.000          4.713                         0.287
     14       N      2       7.000          7.284                        -0.284
     15       B      3       5.000          5.308                        -0.308
     16       N      2       7.000          7.698                        -0.698
     17       N      2       7.000          7.300                        -0.300
     18       B      3       5.000          4.772                         0.228
     19       C      1       6.000          6.867                        -0.867
     20       B      3       5.000          5.307                        -0.307
     21       N      2       7.000          7.698                        -0.698
     22       H      4       1.000          0.450                         0.550
     23       H      4       1.000          0.561                         0.439
     24       H      4       1.000          0.519                         0.481
     25       H      4       1.000          0.561                         0.439
     26       H      4       1.000          0.450                         0.550
     27       H      4       1.000          0.518                         0.482
     28       H      4       1.000          0.561                         0.439
     29       H      4       1.000          0.450                         0.550
     30       H      4       1.000          0.519                         0.481
     31       H      4       1.000          0.519                         0.481
     32       H      4       1.000          0.518                         0.482
     33       H      4       1.000          0.518                         0.482

  Total Charge                                                            0.029
 !-----------------------------------------------------------------------------!

 ENERGY| Total FORCE_EVAL ( QS ) energy [hartree]           -838.846612497846195

 -------------------------------------------------------------------------------
 -                                                                             -
 -                                DBCSR STATISTICS                             -
 -                                                                             -
 -------------------------------------------------------------------------------
 COUNTER                                    TOTAL       BLAS       SMM       ACC
 flops    30 x     5 x     5                36000     100.0%      0.0%      0.0%     
 flops    57 x     5 x     5               119700     100.0%      0.0%      0.0%     
 flops    30 x    32 x    32              2949120     100.0%      0.0%      0.0%     
 flops    57 x    32 x    32              9805824     100.0%      0.0%      0.0%     
 flops     5 x    69 x    69             85555170     100.0%      0.0%      0.0%     
 flops    30 x     5 x    30            558576000     100.0%      0.0%      0.0%     
 flops     5 x    69 x  1557            874504620     100.0%      0.0%      0.0%     
 flops    32 x    69 x    69           1095106176     100.0%      0.0%      0.0%     
 flops    57 x     5 x    30           1857265200     100.0%      0.0%      0.0%     
 flops    30 x     5 x    57           1857265200     100.0%      0.0%      0.0%     
 flops    30 x    30 x    69           1976270400     100.0%      0.0%      0.0%     
 flops   117 x    69 x    69           3392355330     100.0%      0.0%      0.0%     
 flops    87 x    69 x    69           5045041260     100.0%      0.0%      0.0%     
 flops    57 x    30 x    69           6065629920     100.0%      0.0%      0.0%     
 flops    30 x    57 x    69           6065629920     100.0%      0.0%      0.0%     
 flops    57 x     5 x    57           6175406790     100.0%      0.0%      0.0%     
 flops   114 x    69 x    69           6610743720     100.0%      0.0%      0.0%     
 flops    30 x    32 x    30           7149772800     100.0%      0.0%      0.0%     
 flops    32 x    69 x  1557          11193659136     100.0%      0.0%      0.0%     
 flops    57 x    57 x    69          21128610888     100.0%      0.0%      0.0%     
 flops    57 x    32 x    30          23772994560     100.0%      0.0%      0.0%     
 flops    30 x    32 x    57          23772994560     100.0%      0.0%      0.0%     
 flops   117 x    69 x  1557          30921366060     100.0%      0.0%      0.0%     
 flops    87 x    69 x  1557          45985621320     100.0%      0.0%      0.0%     
 flops   114 x    69 x  1557          60257021040     100.0%      0.0%      0.0%     
 flops    57 x    32 x    57          79045206912     100.0%      0.0%      0.0%     
 flops inhomo. stacks                           0       0.0%      0.0%      0.0%
 flops total                       344.899508E+09     100.0%      0.0%      0.0%
 flops max/rank                    344.899508E+09     100.0%      0.0%      0.0%
 matmuls inhomo. stacks                         0       0.0%      0.0%      0.0%
 matmuls total                            1551927     100.0%      0.0%      0.0%
 number of processed stacks                 80472     100.0%      0.0%      0.0%
 average stack size                                    19.3       0.0       0.0
 marketing flops                   377.952698E+09
 -------------------------------------------------------------------------------
 # multiplications                           4675
 max memory usage/rank              86.103532E+09
 # max total images/rank                        1
 # max 3D layers                                1
 # MPI messages exchanged                       0
 -------------------------------------------------------------------------------

 -------------------------------------------------------------------------------
 -                                                                             -
 -                                GRID STATISTICS                              -
 -                                                                             -
 -------------------------------------------------------------------------------
 LP    KERNEL             BACKEND                              COUNT     PERCENT
 7     collocate ortho    CPU                                1248888      11.01%
 7     integrate ortho    CPU                                1242766      10.95%
 8     collocate ortho    CPU                                 874548       7.71%
 8     integrate ortho    CPU                                 870261       7.67%
 5     collocate ortho    CPU                                 708900       6.25%
 5     integrate ortho    CPU                                 705425       6.22%
 10    collocate ortho    CPU                                 692172       6.10%
 10    integrate ortho    CPU                                 688779       6.07%
 9     collocate ortho    CPU                                 658716       5.81%
 9     integrate ortho    CPU                                 655487       5.78%
 6     collocate ortho    CPU                                 639540       5.64%
 6     integrate ortho    CPU                                 636405       5.61%
 4     collocate ortho    CPU                                 550392       4.85%
 4     integrate ortho    CPU                                 547694       4.83%
 3     collocate ortho    CPU                                 154224       1.36%
 3     integrate ortho    CPU                                 153468       1.35%
 2     collocate ortho    CPU                                 105468       0.93%
 2     integrate ortho    CPU                                 104951       0.92%
 1     collocate ortho    CPU                                  35496       0.31%
 1     integrate ortho    CPU                                  35322       0.31%
 0     collocate ortho    CPU                                  12240       0.11%
 0     integrate ortho    CPU                                  12180       0.11%
 4     collocate general  CPU                                   6699       0.06%
 4     integrate general  CPU                                   6699       0.06%
 0     collocate general  CPU                                     66       0.00%
 0     integrate general  CPU                                     33       0.00%
 -------------------------------------------------------------------------------

 -------------------------------------------------------------------------------
 -                                                                             -
 -                          OFFLOAD MEMPOOL STATISTICS                         -
 -                                                                             -
 -------------------------------------------------------------------------------
 Memory consumption                Number of allocations  Used [MiB]  Size [MiB]
 Host                                                  8        2161           0
 -------------------------------------------------------------------------------

 MEMORY| Estimated peak process memory [MiB]                               65100

 -------------------------------------------------------------------------------
 ----                             MULTIGRID INFO                            ----
 -------------------------------------------------------------------------------
 count for grid        1:         167694          cutoff [a.u.]          320.00
 count for grid        2:         105308          cutoff [a.u.]          106.67
 count for grid        3:          69712          cutoff [a.u.]           35.56
 count for grid        4:          22674          cutoff [a.u.]           11.85
 count for grid        5:           1130          cutoff [a.u.]            3.95
 total gridlevel count  :         366518

 -------------------------------------------------------------------------------
 -                                                                             -
 -                           R E F E R E N C E S                               -
 -                                                                             -
 -------------------------------------------------------------------------------
 
 CP2K version 2026.2 (Development Version), the CP2K developers group (2026).
 CP2K is freely available from https://www.cp2k.org/ .
 
 M. Iannuzzi, J. Wilhelm, F. Stein, A. Bussy, H. Elgabarty, D. Golze, A. Hehn, 
 M. Graml, S. Marek, B. Sertcan Gökmen, C. Schran, H. Forbert, R. Z. 
 Khaliullin, A. Kozhevnikov, M. Taillefumier, R. Meli, V. V. Rybkin, M. Brehm, 
 R. Schade, O. Schütt, J. V. Pototschnig, H. Mirhosseini, A. Knüpfer, D. Marx, 
 M. Krack, J. Hutter, T. D. Kühne.
 J. Phys. Chem. B 130, 1237-1310 (2026).
 The CP2K Program Package Made Simple.
 https://doi.org/10.1021/acs.jpcb.5c05851

 L. Wittmann, I. Gordiy, M. Friede, B. Helmich-Paris, S. Grimme, A. Hansen, M. 
 Bursch.
 Phys. Chem. Chem. Phys. 26, 21379-21394 (2024).
 Extension of the D3 and D4 London dispersion corrections to the full actinides 
 series.
 https://doi.org/10.1039/d4cp01514b

 T. D. Kühne, M. Iannuzzi, M. Del Ben, V. V. Rybkin, P. Seewald, F. Stein, T. 
 Laino, R. Z. Khaliullin, O. Schütt, F. Schiffmann, D. Golze, J. Wilhelm, S. 
 Chulkov, M. H. Bani-Hashemian, V. Weber, U. Borstnik, M. Taillefumier, A. S. 
 Jakobovits, A. Lazzaro, H. Pabst, T. Müller, R. Schade, M. Guidon, S. 
 Andermatt, N. Holmberg, G. K. Schenter, A. Hehn, A. Bussy, F. Belleflamme, G. 
 Tabacchi, A. Glöß, M. Lass, I. Bethune, C. J. Mundy, C. Plessl, M. Watkins, 
 J. VandeVondele, M. Krack, J. Hutter.
 J. Chem. Phys. 152, 194103 (2020).
 CP2K: An electronic structure and molecular dynamics software package - 
 Quickstep: Efficient and accurate electronic structure calculations.
 https://doi.org/10.1063/5.0007045

 L. Goerigk, A. Hansen, C. Bauer, S. Ehrlich, A. Najibi, S. Grimme.
 Phys. Chem. Chem. Phys. 19, 32184-32215 (2017).
 A look at the density functional theory zoo with the advanced GMTKN55 database 
 for general main group thermochemistry, kinetics and noncovalent interactions.
 https://doi.org/10.1039/C7CP04913G

 O. Schuett, P. Messmer, J. Hutter, J. VandeVondele.
 Electronic Structure Calculations on Graphics Processing Units, 173-190 (2016).
 GPU-Accelerated Sparse Matrix-Matrix Multiplication for Linear Scaling Density 
 Functional Theory.
 https://doi.org/10.1002/9781118670712.ch8

 U. Borstnik, J. VandeVondele, V. Weber, J. Hutter.
 Parallel Comput. 40, 47-58 (2014).
 Sparse matrix multiplication: The distributed block-compressed sparse row 
 library.
 https://doi.org/10.1016/j.parco.2014.03.012

 S. Grimme, S. Ehrlich, L. Goerigk.
 J. Comput. Chem. 32, 1456 (2011).
 Effect of the damping function in dispersion corrected density functional 
 theory.
 https://doi.org/10.1002/jcc.21759

 S. Grimme, J. Antony, S. Ehrlich, H. Krieg.
 J. Chem. Phys. 132, 154104 (2010).
 A consistent and accurate ab initio parametrization of density functional 
 dispersion correction (DFT-D) for the 94 elements H-Pu.
 https://doi.org/10.1063/1.3382344

 J. VandeVondele, J. Hutter.
 J. Chem. Phys. 127, 114105 (2007).
 Gaussian basis sets for accurate calculations on molecular systems in gas and 
 condensed phases.
 https://doi.org/10.1063/1.2770708

 M. Frigo, S. G. Johnson.
 Proc. IEEE 93, 216-231 (2005).
 The design and implementation of FFTW3.
 https://doi.org/10.1109/JPROC.2004.840301

 J. VandeVondele, J. Hutter.
 J. Chem. Phys. 118, 4365-4369 (2003).
 An efficient orbital transformation method for electronic structure 
 calculations.
 https://doi.org/10.1063/1.1543154

 M. Krack, M. Parrinello.
 Phys. Chem. Chem. Phys. 2, 2105-2112 (2000).
 All-electron ab-initio molecular dynamics.
 https://doi.org/10.1039/b001167n

 G. Lippert, J. Hutter, M. Parrinello.
 Theor. Chem. Acc. 103, 124-140 (1999).
 The Gaussian and augmented-plane-wave density functional method for ab initio 
 molecular dynamics simulations.
 https://doi.org/10.1007/s002140050523


 -------------------------------------------------------------------------------
 -                                                                             -
 -                                T I M I N G                                  -
 -                                                                             -
 -------------------------------------------------------------------------------
 SUBROUTINE                       CALLS  ASD         SELF TIME        TOTAL TIME
                                MAXIMUM       AVERAGE  MAXIMUM  AVERAGE  MAXIMUM
 CP2K                                 1  1.0     2.71     2.71 60440.73 60440.73
 qs_energies                          1  2.0     0.02     0.02 60408.17 60408.17
 scf_env_do_scf                       1  3.0     0.00     0.00 60392.10 60392.10
 scf_env_do_scf_inner_loop          203  4.0     0.49     0.49 59707.53 59707.53
 qs_ks_update_qs_env                205  5.0     0.00     0.00 58065.38 58065.38
 rebuild_ks_matrix                  203  6.0     0.00     0.00 58063.85 58063.85
 qs_ks_build_kohn_sham_matrix       203  7.0     0.09     0.09 58063.85 58063.85
 calculate_vxc_atom                 203  8.0 20814.79 20814.79 55113.36 55113.36
 skala_atom_torch_backward          812  9.0  8260.46  8260.46  8260.46  8260.46
 calc_tau_atom                    20097  9.0  7518.72  7518.72  7518.72  7518.72
 skala_atom_torch_forward           812  9.0     0.32     0.32  5505.89  5505.89
 torch_model_forward_mol_tensor     812 10.0  5505.57  5505.57  5505.57  5505.57
 gaVxcgb_GC                       13398  9.0  5504.89  5504.89  5504.89  5504.89
 fft_wrap_pw1pw2                   6305  9.6     0.17     0.17  5447.53  5447.53
 fft_wrap_pw1pw2_320               3049 10.7  1533.76  1533.76  5151.15  5151.15
 dgaVtaudgb                       13398  9.0  4443.09  4443.09  4443.09  4443.09
 qs_rho_update_rho_low              204  5.0     0.01     0.01  2322.16  2322.16
 calculate_rho_elec                 408  6.0   184.33   184.33  2285.29  2285.29
 xc_pw_derive                      1218  9.5     0.02     0.02  2217.05  2217.05
 fft3d_s                           6306 11.6  1931.27  1931.27  1931.31  1931.31
 density_rs2pw                      408  7.0     0.04     0.04  1638.90  1638.90
 xc_pw_divergence                   203  9.0     0.01     0.01  1499.41  1499.41
 pw_scatter_s                      3047 12.1  1307.38  1307.38  1307.38  1307.38
 -------------------------------------------------------------------------------

 The number of warnings for this run is : 0
 
 -------------------------------------------------------------------------------
  **** **** ******  **  PROGRAM ENDED AT                 2026-09-16 15:18:57.285
 ***** ** ***  *** **   PROGRAM RAN ON                                    cge016
 **    ****   ******    PROGRAM RAN BY                                  kuehne88
 ***** **    ** ** **   PROGRAM PROCESS ID                                698292
  **** **  *******  **  PROGRAM STOPPED IN /bigdata/casus/fwuk/shared/kuehne88-n
                                           ative-skala/common70-ae-qzvpp-2026091
                                           5/runs/7787b7b0fd755fad7281db9619befa
                                           7bf6e6e9ca/qzvpp
