 DBCSR| CPU Multiplication driver                                           BLAS (U)
 DBCSR| Multrec recursion limit                                              512 (U)
 DBCSR| Multiplication stack size                                          30000 (D)
 DBCSR| Maximum elements for images                                    UNLIMITED (U)
 DBCSR| Multiplicative factor virtual images                                   1 (U)
 DBCSR| Use multiplication densification                                       F (D)
 DBCSR| Multiplication size stacks                                             3 (U)
 DBCSR| Use memory pool for CPU allocation                                     F (U)
 DBCSR| Number of 3D layers                                               SINGLE (U)
 DBCSR| Use MPI memory allocation                                              F (U)
 DBCSR| Use RMA algorithm                                                      F (U)
 DBCSR| Use Communication thread                                               T (U)
 DBCSR| Communication thread load                                              0 (D)
 DBCSR| MPI: My process id                                                     0
 DBCSR| MPI: Number of processes                                               1
 DBCSR| OMP: Current number of threads                                        32
 DBCSR| OMP: Max number of threads                                            32
 DBCSR| ACC: Number of devices/node                                            1
 DBCSR| ACC: Number of stack-buffers per thread                                8 (U)
 DBCSR| ACC: Avoid driver after busy                                           F (U)
 DBCSR| ACC: Process inhomogeneous stacks                                      T (U)
 DBCSR| ACC: Min. flop for processing                                          0 (U)
 DBCSR| ACC: Use G2G algorithm                                                 F (D)
 DBCSR| ACC: Min. flop for sorting                                          4000 (U)
 DBCSR| ACC: Number of binning bins                                         4096 (U)
 DBCSR| ACC: Size of binning bins                                             16 (U)
 DBCSR| ACC: GPU backend is enabled                                            T (D)
 DBCSR| Split modifier for TAS multiplication algorithm                  1.0E+00 (U)


  **** **** ******  **  PROGRAM STARTED AT               2026-08-25 03:50:32.618
 ***** ** ***  *** **   PROGRAM STARTED ON                                 gh003
 **    ****   ******    PROGRAM STARTED BY                              kuehne88
 ***** **    ** ** **   PROGRAM PROCESS ID                               2121008
  **** **  *******  **  PROGRAM STARTED IN /data/home2/kuehne88/cp2k-native-skal
                                           a/validation-uzh/diet-production-p25/
                                           gapwxc-gth-one-center/b2ce4f64b872966
                                           df0477799d122be7eb65d495d

 CP2K| version string:                 CP2K version 2026.2 (Development Version)
 CP2K| source code revision number:                                   c1bff3eeb8
 CP2K| cp2kflags: omp fftw3 parallel scalapack mpi_f08 dbcsr_acc spglib openblas
 CP2K|             libtorch libtorch_cuda offload_cuda
 CP2K| is freely available from                            https://www.cp2k.org/
 CP2K| Program compiled at                                   2026-08-22 00:15:05
 CP2K| Program compiled on                                                ctu011
 CP2K| Program compiled for                                               x86_64
 CP2K| Data directory path    /home/kuehne88/cp2k-native-skala/install/cp2k-h100
 CP2K| Input file name                                                 input.inp

 GLOBAL| Force Environment number                                              1
 GLOBAL| Basis set file name                             BASIS_MOLOPT_UZH_2026.2
 GLOBAL| Potential file name                                POTENTIAL_UZH_2026.2
 GLOBAL| MM Potential file name                                     MM_POTENTIAL
 GLOBAL| Coordinate file name                                      __STD_INPUT__
 GLOBAL| Method name                                                        CP2K
 GLOBAL| Project name                                b2ce4f64b872_gapwxc_gth_paw
 GLOBAL| Run type                                                         ENERGY
 GLOBAL| FFT library                                                       FFTW3
 GLOBAL| Diagonalization library                                       ScaLAPACK
 GLOBAL| Cholesky decomposition library                                ScaLAPACK
 GLOBAL| DGEMM library                                                      BLAS
 GLOBAL| Direct generalized diagonalization requested                          F
 GLOBAL| Orthonormality check for eigenvectors                          DISABLED
 GLOBAL| Matrix multiplication library                                 ScaLAPACK
 GLOBAL| All-to-all communication in single precision                          F
 GLOBAL| FFTs using library dependent lengths                                  F
 GLOBAL| Grid backend                                                       AUTO
 GLOBAL| Global print level                                               MEDIUM
 GLOBAL| MPI I/O enabled                                                       T
 GLOBAL| Total number of message passing processes                             1
 GLOBAL| Number of distributed systems (nodes)                                 1
 GLOBAL| Number of threads for this process                                   32
 GLOBAL| This output is from process                                           0
 GLOBAL| OpenMP stack size per thread (OMP_STACKSIZE)                       512M
 GLOBAL| CPU model name                          AMD EPYC 9654 96-Core Processor

 MEMORY| system memory details [Kb]
 MEMORY|                        rank 0           min           max       average
 MEMORY| MemTotal           2377692460    2377692460    2377692460    2377692460
 MEMORY| MemFree            2152568256    2152568256    2152568256    2152568256
 MEMORY| Buffers                     0             0             0             0
 MEMORY| Cached              186978364     186978364     186978364     186978364
 MEMORY| Slab                  3295644       3295644       3295644       3295644
 MEMORY| SReclaimable          1200380       1200380       1200380       1200380
 MEMORY| MemLikelyFree      2340747000    2340747000    2340747000    2340747000


 *** Fundamental physical constants (SI units) ***

 *** Literature: B. J. Mohr and B. N. Taylor,
 ***             CODATA recommended values of the fundamental physical
 ***             constants: 2006, Web Version 5.1
 ***             http://physics.nist.gov/constants

 Speed of light in vacuum [m/s]                             2.99792458000000E+08
 Magnetic constant or permeability of vacuum [N/A**2]       1.25663706143592E-06
 Electric constant or permittivity of vacuum [F/m]          8.85418781762039E-12
 Planck constant (h) [J*s]                                  6.62606896000000E-34
 Planck constant (h-bar) [J*s]                              1.05457162825177E-34
 Elementary charge [C]                                      1.60217648700000E-19
 Electron mass [kg]                                         9.10938215000000E-31
 Electron g factor [ ]                                     -2.00231930436220E+00
 Proton mass [kg]                                           1.67262163700000E-27
 Fine-structure constant                                    7.29735253760000E-03
 Rydberg constant [1/m]                                     1.09737315685270E+07
 Avogadro constant [1/mol]                                  6.02214179000000E+23
 Boltzmann constant [J/K]                                   1.38065040000000E-23
 Atomic mass unit [kg]                                      1.66053878200000E-27
 Bohr radius [m]                                            5.29177208590000E-11

 *** Conversion factors ***

 [u] -> [a.u.]                                              1.82288848426455E+03
 [Angstrom] -> [Bohr] = [a.u.]                              1.88972613288564E+00
 [a.u.] = [Bohr] -> [Angstrom]                              5.29177208590000E-01
 [a.u.] -> [s]                                              2.41888432650478E-17
 [a.u.] -> [fs]                                             2.41888432650478E-02
 [a.u.] -> [J]                                              4.35974393937059E-18
 [a.u.] -> [N]                                              8.23872205491840E-08
 [a.u.] -> [K]                                              3.15774647902944E+05
 [a.u.] -> [kJ/mol]                                         2.62549961709828E+03
 [a.u.] -> [kcal/mol]                                       6.27509468713739E+02
 [a.u.] -> [Pa]                                             2.94210107994716E+13
 [a.u.] -> [bar]                                            2.94210107994716E+08
 [a.u.] -> [atm]                                            2.90362800883016E+08
 [a.u.] -> [eV]                                             2.72113838565563E+01
 [a.u.] -> [Hz]                                             6.57968392072181E+15
 [a.u.] -> [1/cm] (wave numbers)                            2.19474631370540E+05
 [a.u./Bohr**2] -> [1/cm]                                   5.14048714338585E+03
 

 CELL| Volume [angstrom^3]:                                         24360.000000
 CELL| Vector a [angstrom]:      29.000     0.000     0.000   |a| =    29.000000
 CELL| Vector b [angstrom]:       0.000    28.000     0.000   |b| =    28.000000
 CELL| Vector c [angstrom]:       0.000     0.000    30.000   |c| =    30.000000
 CELL| Angle (b,c), alpha [degree]:                                    90.000000
 CELL| Angle (a,c), beta  [degree]:                                    90.000000
 CELL| Angle (a,b), gamma [degree]:                                    90.000000
 CELL| Numerically orthorhombic:                                             YES
 CELL| Periodicity                                                          NONE

 CELL_REF| Volume [angstrom^3]:                                     24360.000000
 CELL_REF| Vector a [angstrom    29.000     0.000     0.000   |a| =    29.000000
 CELL_REF| Vector b [angstrom     0.000    28.000     0.000   |b| =    28.000000
 CELL_REF| Vector c [angstrom     0.000     0.000    30.000   |c| =    30.000000
 CELL_REF| Angle (b,c), alpha [degree]:                                90.000000
 CELL_REF| Angle (a,c), beta  [degree]:                                90.000000
 CELL_REF| Angle (a,b), gamma [degree]:                                90.000000
 CELL_REF| Numerically orthorhombic:                                         YES
 CELL_REF| Periodicity                                                      NONE

 GENERATE|  Preliminary Number of Bonds generated:                             0
 GENERATE|  Achieved consistency in connectivity generation.

 *******************************************************************************
 *******************************************************************************
 **                                                                           **
 **     #####                         ##              ##                      **
 **    ##   ##            ##          ##              ##                      **
 **   ##     ##                       ##            ######                    **
 **   ##     ##  ##   ##  ##   #####  ##  ##   ####   ##    #####    #####    **
 **   ##     ##  ##   ##  ##  ##      ## ##   ##      ##   ##   ##  ##   ##   **
 **   ##  ## ##  ##   ##  ##  ##      ####     ###    ##   ######   ######    **
 **    ##  ###   ##   ##  ##  ##      ## ##      ##   ##   ##       ##        **
 **     #######   #####   ##   #####  ##  ##  ####    ##    #####   ##        **
 **           ##                                                    ##        **
 **                                                                           **
 **                                                ... make the atoms dance   **
 **                                                                           **
 **            Copyright (C) by CP2K developers group (2000-2026)             **
 **                      J. Chem. Phys. 152, 194103 (2020)                    **
 **                                                                           **
 *******************************************************************************

 DFT| Spin restricted Kohn-Sham (RKS) calculation                            RKS
 DFT| Multiplicity                                                             1
 DFT| Number of spin states                                                    1
 DFT| Charge                                                                   0
 DFT| Self-interaction correction (SIC)                                       NO
 DFT| Cutoffs: density                                              1.000000E-10
 DFT|          gradient                                             1.000000E-10
 DFT|          tau                                                  1.000000E-10
 DFT|          cutoff_smoothing_range                               0.000000E+00
 DFT| XC density smoothing                                                  NONE
 DFT| XC derivatives                                                          PW

 FUNCTIONAL| GAUXC:
 FUNCTIONAL| Functional computed by GauXC Skala model SKALA                     

 vdW POTENTIAL|                                                   Pair Potential
 vdW POTENTIAL|          DFT-D3 (Version 3.1)
 vdW POTENTIAL|          Potential Form: S. Grimme et al, JCP 132: 154104 (2010)
 vdW POTENTIAL|          BJ Damping: S. Grimme et al, JCC 32: 1456 (2011)
 vdW POTENTIAL|          Cutoff Radius [Bohr]:                             37.79
 vdW POTENTIAL|          s6 Scaling Factor:                               1.0000
 vdW POTENTIAL|          a1 Damping Factor:                               0.3981
 vdW POTENTIAL|          s8 Scaling Factor:                               1.9889
 vdW POTENTIAL|          a2 Damping Factor:                               4.4211
 vdW POTENTIAL|          Cutoff for CN calculation:                   0.1000E-05

 QS| Method:                                                             GAPW_XC
 QS| Density plane wave grid type                        NON-SPHERICAL FULLSPACE
 QS| Number of grid levels:                                                    5
 QS| Density cutoff [a.u.]:                                                200.0
 QS| Multi grid cutoff [a.u.]: 1) grid level                               200.0
 QS|                           2) grid level                                66.7
 QS|                           3) grid level                                22.2
 QS|                           4) grid level                                 7.4
 QS|                           5) grid level                                 2.5
 QS| Grid level progression factor:                                          3.0
 QS| Relative density cutoff [a.u.]:                                        30.0
 QS| Interaction thresholds: eps_pgf_orb:                                1.0E-06
 QS|                         eps_filter_matrix:                          0.0E+00
 QS|                         eps_core_charge:                            1.0E-14
 QS|                         eps_rho_gspace:                             1.0E-12
 QS|                         eps_rho_rspace:                             1.0E-12
 QS|                         eps_gvg_rspace:                             1.0E-06
 QS|                         eps_ppl:                                    1.0E-02
 QS|                         eps_ppnl:                                   1.0E-08
 QS| GAPW_XC|      One center basis extended with primitives (small:s)
 QS| GAPW_XC|                eps_fit:                                    1.0E-04
 QS| GAPW_XC|                eps_iso:                                    1.0E-12
 QS| GAPW_XC|                eps_svd:                                    1.0E-08
 QS| GAPW_XC|atom-r-grid: quadrature:                 GC_LOG                        
 QS| GAPW_XC|   atom-s-grid:  max l :                                          6


 ATOMIC KIND INFORMATION

  1. Atomic kind: H                                     Number of atoms:       9

     Orbital Basis Set                                   TZV2P-MOLOPT-PBE-GTH-q1

       Number of orbital shell sets:                                           1
       Number of orbital shells:                                               6
       Number of primitive Cartesian functions:                                5
       Number of Cartesian basis functions:                                   15
       Number of spherical basis functions:                                   14
       Norm type:                                                              2

       Normalised Cartesian orbitals:

                        Set   Shell   Orbital            Exponent    Coefficient

                          1       1    2s                9.586642       0.069481
                                                         2.202360       0.112147
                                                         0.604094       0.130550
                                                         0.146498       0.088477
                                                         0.139526       0.035929

                          1       2    3s                9.586642      -0.087313
                                                         2.202360      -0.117928
                                                         0.604094      -0.099372
                                                         0.146498      -0.105375
                                                         0.139526       0.287433

                          1       3    4s                9.586642       0.882480
                                                         2.202360       0.096105
                                                         0.604094      -0.739894
                                                         0.146498       0.120904
                                                         0.139526       0.013904

                          1       4    3px               9.586642      -2.186125
                                                         2.202360       1.112625
                                                         0.604094       0.330981
                                                         0.146498       0.087385
                                                         0.139526      -0.016905
                          1       4    3py               9.586642      -2.186125
                                                         2.202360       1.112625
                                                         0.604094       0.330981
                                                         0.146498       0.087385
                                                         0.139526      -0.016905
                          1       4    3pz               9.586642      -2.186125
                                                         2.202360       1.112625
                                                         0.604094       0.330981
                                                         0.146498       0.087385
                                                         0.139526      -0.016905

                          1       5    4px               9.586642       1.866908
                                                         2.202360       0.174551
                                                         0.604094       0.060190
                                                         0.146498       0.014182
                                                         0.139526       0.100545
                          1       5    4py               9.586642       1.866908
                                                         2.202360       0.174551
                                                         0.604094       0.060190
                                                         0.146498       0.014182
                                                         0.139526       0.100545
                          1       5    4pz               9.586642       1.866908
                                                         2.202360       0.174551
                                                         0.604094       0.060190
                                                         0.146498       0.014182
                                                         0.139526       0.100545

                          1       6    4dx2              9.586642       0.111501
                                                         2.202360      -0.020603
                                                         0.604094      -0.012612
                                                         0.146498      -0.000171
                                                         0.139526       0.052995
                          1       6    4dxy              9.586642       0.193125
                                                         2.202360      -0.035686
                                                         0.604094      -0.021844
                                                         0.146498      -0.000296
                                                         0.139526       0.091790
                          1       6    4dxz              9.586642       0.193125
                                                         2.202360      -0.035686
                                                         0.604094      -0.021844
                                                         0.146498      -0.000296
                                                         0.139526       0.091790
                          1       6    4dy2              9.586642       0.111501
                                                         2.202360      -0.020603
                                                         0.604094      -0.012612
                                                         0.146498      -0.000171
                                                         0.139526       0.052995
                          1       6    4dyz              9.586642       0.193125
                                                         2.202360      -0.035686
                                                         0.604094      -0.021844
                                                         0.146498      -0.000296
                                                         0.139526       0.091790
                          1       6    4dz2              9.586642       0.111501
                                                         2.202360      -0.020603
                                                         0.604094      -0.012612
                                                         0.146498      -0.000171
                                                         0.139526       0.052995

       Atomic covalent radius [Angstrom]:                                  0.320

       Atomic van der Waals radius [Angstrom]:                             1.090

     The atoms of this atomic kind are PAW atoms (GAPW):
       Hard Gaussian function radius:                                      1.000
       Rho0 radius:                                                        1.000
       Maximum GTO radius used for PAW projector construction:            24.566

     GAPW Soft Basis Set                            TZV2P-MOLOPT-PBE-GTH-q1_soft

       Number of orbital shell sets:                                           1
       Number of orbital shells:                                               6
       Number of primitive Cartesian functions:                                4
       Number of Cartesian basis functions:                                   15
       Number of spherical basis functions:                                   14
       Norm type:                                                              2

       Normalised Cartesian orbitals:

                        Set   Shell   Orbital            Exponent    Coefficient

                          1       1    2s                2.202360       0.112147
                                                         0.604094       0.130550
                                                         0.146498       0.088477
                                                         0.139526       0.035929

                          1       2    3s                2.202360      -0.117928
                                                         0.604094      -0.099372
                                                         0.146498      -0.105375
                                                         0.139526       0.287433

                          1       3    4s                2.202360       0.096105
                                                         0.604094      -0.739894
                                                         0.146498       0.120904
                                                         0.139526       0.013904

                          1       4    3px               2.202360       1.112625
                                                         0.604094       0.330981
                                                         0.146498       0.087385
                                                         0.139526      -0.016905
                          1       4    3py               2.202360       1.112625
                                                         0.604094       0.330981
                                                         0.146498       0.087385
                                                         0.139526      -0.016905
                          1       4    3pz               2.202360       1.112625
                                                         0.604094       0.330981
                                                         0.146498       0.087385
                                                         0.139526      -0.016905

                          1       5    4px               2.202360       0.174551
                                                         0.604094       0.060190
                                                         0.146498       0.014182
                                                         0.139526       0.100545
                          1       5    4py               2.202360       0.174551
                                                         0.604094       0.060190
                                                         0.146498       0.014182
                                                         0.139526       0.100545
                          1       5    4pz               2.202360       0.174551
                                                         0.604094       0.060190
                                                         0.146498       0.014182
                                                         0.139526       0.100545

                          1       6    4dx2              2.202360      -0.020603
                                                         0.604094      -0.012612
                                                         0.146498      -0.000171
                                                         0.139526       0.052995
                          1       6    4dxy              2.202360      -0.035686
                                                         0.604094      -0.021844
                                                         0.146498      -0.000296
                                                         0.139526       0.091790
                          1       6    4dxz              2.202360      -0.035686
                                                         0.604094      -0.021844
                                                         0.146498      -0.000296
                                                         0.139526       0.091790
                          1       6    4dy2              2.202360      -0.020603
                                                         0.604094      -0.012612
                                                         0.146498      -0.000171
                                                         0.139526       0.052995
                          1       6    4dyz              2.202360      -0.035686
                                                         0.604094      -0.021844
                                                         0.146498      -0.000296
                                                         0.139526       0.091790
                          1       6    4dz2              2.202360      -0.020603
                                                         0.604094      -0.012612
                                                         0.146498      -0.000171
                                                         0.139526       0.052995

     GTH Potential information for                                    GTH-PBE-q1

       Description:                       Goedecker-Teter-Hutter pseudopotential
                                           Goedecker et al., PRB 54, 1703 (1996)
                                          Hartwigsen et al., PRB 58, 3641 (1998)
                                                      Krack, TCA 114, 145 (2005)

       Gaussian exponent of the core charge distribution:              12.426182
       Electronic configuration (s p d ...):                       1   0   0   0

       Parameters of the local part of the GTH pseudopotential:

                          rloc        C1          C2          C3          C4
                        0.200593   -4.178068    0.724409

  2. Atomic kind: C                                     Number of atoms:       6

     Orbital Basis Set                                   TZV2P-MOLOPT-PBE-GTH-q4

       Number of orbital shell sets:                                           1
       Number of orbital shells:                                               9
       Number of primitive Cartesian functions:                                5
       Number of Cartesian basis functions:                                   34
       Number of spherical basis functions:                                   29
       Norm type:                                                              2

       Normalised Cartesian orbitals:

                        Set   Shell   Orbital            Exponent    Coefficient

                          1       1    2s                5.599010      -0.388516
                                                         2.008517      -0.222960
                                                         0.755557       0.256069
                                                         0.292158       0.177682
                                                         0.105328       0.019401

                          1       2    3s                5.599010       0.700337
                                                         2.008517       0.202467
                                                         0.755557      -0.073086
                                                         0.292158      -0.004274
                                                         0.105328       0.122810

                          1       3    4s                5.599010      -2.176345
                                                         2.008517      -0.220775
                                                         0.755557       0.109238
                                                         0.292158      -0.129517
                                                         0.105328       0.038801

                          1       4    3px               5.599010      -0.769001
                                                         2.008517      -0.634471
                                                         0.755557      -0.400220
                                                         0.292158      -0.124705
                                                         0.105328      -0.014325
                          1       4    3py               5.599010      -0.769001
                                                         2.008517      -0.634471
                                                         0.755557      -0.400220
                                                         0.292158      -0.124705
                                                         0.105328      -0.014325
                          1       4    3pz               5.599010      -0.769001
                                                         2.008517      -0.634471
                                                         0.755557      -0.400220
                                                         0.292158      -0.124705
                                                         0.105328      -0.014325

                          1       5    4px               5.599010       0.895802
                                                         2.008517       0.817480
                                                         0.755557       0.269326
                                                         0.292158       0.009009
                                                         0.105328      -0.085852
                          1       5    4py               5.599010       0.895802
                                                         2.008517       0.817480
                                                         0.755557       0.269326
                                                         0.292158       0.009009
                                                         0.105328      -0.085852
                          1       5    4pz               5.599010       0.895802
                                                         2.008517       0.817480
                                                         0.755557       0.269326
                                                         0.292158       0.009009
                                                         0.105328      -0.085852

                          1       6    5px               5.599010       1.029767
                                                         2.008517       2.903527
                                                         0.755557       0.336187
                                                         0.292158      -0.258025
                                                         0.105328       0.023472
                          1       6    5py               5.599010       1.029767
                                                         2.008517       2.903527
                                                         0.755557       0.336187
                                                         0.292158      -0.258025
                                                         0.105328       0.023472
                          1       6    5pz               5.599010       1.029767
                                                         2.008517       2.903527
                                                         0.755557       0.336187
                                                         0.292158      -0.258025
                                                         0.105328       0.023472

                          1       7    4dx2              5.599010      -4.629244
                                                         2.008517       1.670071
                                                         0.755557       0.309368
                                                         0.292158       0.124707
                                                         0.105328      -0.001260
                          1       7    4dxy              5.599010      -8.018085
                                                         2.008517       2.892648
                                                         0.755557       0.535841
                                                         0.292158       0.215998
                                                         0.105328      -0.002182
                          1       7    4dxz              5.599010      -8.018085
                                                         2.008517       2.892648
                                                         0.755557       0.535841
                                                         0.292158       0.215998
                                                         0.105328      -0.002182
                          1       7    4dy2              5.599010      -4.629244
                                                         2.008517       1.670071
                                                         0.755557       0.309368
                                                         0.292158       0.124707
                                                         0.105328      -0.001260
                          1       7    4dyz              5.599010      -8.018085
                                                         2.008517       2.892648
                                                         0.755557       0.535841
                                                         0.292158       0.215998
                                                         0.105328      -0.002182
                          1       7    4dz2              5.599010      -4.629244
                                                         2.008517       1.670071
                                                         0.755557       0.309368
                                                         0.292158       0.124707
                                                         0.105328      -0.001260

                          1       8    5dx2              5.599010      -0.765539
                                                         2.008517       0.044731
                                                         0.755557       0.033894
                                                         0.292158       0.006499
                                                         0.105328       0.031042
                          1       8    5dxy              5.599010      -1.325952
                                                         2.008517       0.077477
                                                         0.755557       0.058707
                                                         0.292158       0.011257
                                                         0.105328       0.053766
                          1       8    5dxz              5.599010      -1.325952
                                                         2.008517       0.077477
                                                         0.755557       0.058707
                                                         0.292158       0.011257
                                                         0.105328       0.053766
                          1       8    5dy2              5.599010      -0.765539
                                                         2.008517       0.044731
                                                         0.755557       0.033894
                                                         0.292158       0.006499
                                                         0.105328       0.031042
                          1       8    5dyz              5.599010      -1.325952
                                                         2.008517       0.077477
                                                         0.755557       0.058707
                                                         0.292158       0.011257
                                                         0.105328       0.053766
                          1       8    5dz2              5.599010      -0.765539
                                                         2.008517       0.044731
                                                         0.755557       0.033894
                                                         0.292158       0.006499
                                                         0.105328       0.031042

                          1       9    5fx3              5.599010      -0.150044
                                                         2.008517      -0.042629
                                                         0.755557       0.009866
                                                         0.292158       0.091648
                                                         0.105328       0.000020
                          1       9    5fx2y             5.599010      -0.335509
                                                         2.008517      -0.095321
                                                         0.755557       0.022061
                                                         0.292158       0.204931
                                                         0.105328       0.000045
                          1       9    5fx2z             5.599010      -0.335509
                                                         2.008517      -0.095321
                                                         0.755557       0.022061
                                                         0.292158       0.204931
                                                         0.105328       0.000045
                          1       9    5fxy2             5.599010      -0.335509
                                                         2.008517      -0.095321
                                                         0.755557       0.022061
                                                         0.292158       0.204931
                                                         0.105328       0.000045
                          1       9    5fxyz             5.599010      -0.581119
                                                         2.008517      -0.165100
                                                         0.755557       0.038210
                                                         0.292158       0.354951
                                                         0.105328       0.000078
                          1       9    5fxz2             5.599010      -0.335509
                                                         2.008517      -0.095321
                                                         0.755557       0.022061
                                                         0.292158       0.204931
                                                         0.105328       0.000045
                          1       9    5fy3              5.599010      -0.150044
                                                         2.008517      -0.042629
                                                         0.755557       0.009866
                                                         0.292158       0.091648
                                                         0.105328       0.000020
                          1       9    5fy2z             5.599010      -0.335509
                                                         2.008517      -0.095321
                                                         0.755557       0.022061
                                                         0.292158       0.204931
                                                         0.105328       0.000045
                          1       9    5fyz2             5.599010      -0.335509
                                                         2.008517      -0.095321
                                                         0.755557       0.022061
                                                         0.292158       0.204931
                                                         0.105328       0.000045
                          1       9    5fz3              5.599010      -0.150044
                                                         2.008517      -0.042629
                                                         0.755557       0.009866
                                                         0.292158       0.091648
                                                         0.105328       0.000020

       Atomic covalent radius [Angstrom]:                                  0.770

       Atomic van der Waals radius [Angstrom]:                             1.700

     The atoms of this atomic kind are PAW atoms (GAPW):
       Hard Gaussian function radius:                                      1.520
       Rho0 radius:                                                        1.520
       Maximum GTO radius used for PAW projector construction:            24.566

     GAPW Soft Basis Set                            TZV2P-MOLOPT-PBE-GTH-q4_soft

       Number of orbital shell sets:                                           1
       Number of orbital shells:                                               9
       Number of primitive Cartesian functions:                                4
       Number of Cartesian basis functions:                                   34
       Number of spherical basis functions:                                   29
       Norm type:                                                              2

       Normalised Cartesian orbitals:

                        Set   Shell   Orbital            Exponent    Coefficient

                          1       1    2s                2.008517      -0.222960
                                                         0.755557       0.256069
                                                         0.292158       0.177682
                                                         0.105328       0.019401

                          1       2    3s                2.008517       0.202467
                                                         0.755557      -0.073086
                                                         0.292158      -0.004274
                                                         0.105328       0.122810

                          1       3    4s                2.008517      -0.220775
                                                         0.755557       0.109238
                                                         0.292158      -0.129517
                                                         0.105328       0.038801

                          1       4    3px               2.008517      -0.634471
                                                         0.755557      -0.400220
                                                         0.292158      -0.124705
                                                         0.105328      -0.014325
                          1       4    3py               2.008517      -0.634471
                                                         0.755557      -0.400220
                                                         0.292158      -0.124705
                                                         0.105328      -0.014325
                          1       4    3pz               2.008517      -0.634471
                                                         0.755557      -0.400220
                                                         0.292158      -0.124705
                                                         0.105328      -0.014325

                          1       5    4px               2.008517       0.817480
                                                         0.755557       0.269326
                                                         0.292158       0.009009
                                                         0.105328      -0.085852
                          1       5    4py               2.008517       0.817480
                                                         0.755557       0.269326
                                                         0.292158       0.009009
                                                         0.105328      -0.085852
                          1       5    4pz               2.008517       0.817480
                                                         0.755557       0.269326
                                                         0.292158       0.009009
                                                         0.105328      -0.085852

                          1       6    5px               2.008517       2.903527
                                                         0.755557       0.336187
                                                         0.292158      -0.258025
                                                         0.105328       0.023472
                          1       6    5py               2.008517       2.903527
                                                         0.755557       0.336187
                                                         0.292158      -0.258025
                                                         0.105328       0.023472
                          1       6    5pz               2.008517       2.903527
                                                         0.755557       0.336187
                                                         0.292158      -0.258025
                                                         0.105328       0.023472

                          1       7    4dx2              2.008517       1.670071
                                                         0.755557       0.309368
                                                         0.292158       0.124707
                                                         0.105328      -0.001260
                          1       7    4dxy              2.008517       2.892648
                                                         0.755557       0.535841
                                                         0.292158       0.215998
                                                         0.105328      -0.002182
                          1       7    4dxz              2.008517       2.892648
                                                         0.755557       0.535841
                                                         0.292158       0.215998
                                                         0.105328      -0.002182
                          1       7    4dy2              2.008517       1.670071
                                                         0.755557       0.309368
                                                         0.292158       0.124707
                                                         0.105328      -0.001260
                          1       7    4dyz              2.008517       2.892648
                                                         0.755557       0.535841
                                                         0.292158       0.215998
                                                         0.105328      -0.002182
                          1       7    4dz2              2.008517       1.670071
                                                         0.755557       0.309368
                                                         0.292158       0.124707
                                                         0.105328      -0.001260

                          1       8    5dx2              2.008517       0.044731
                                                         0.755557       0.033894
                                                         0.292158       0.006499
                                                         0.105328       0.031042
                          1       8    5dxy              2.008517       0.077477
                                                         0.755557       0.058707
                                                         0.292158       0.011257
                                                         0.105328       0.053766
                          1       8    5dxz              2.008517       0.077477
                                                         0.755557       0.058707
                                                         0.292158       0.011257
                                                         0.105328       0.053766
                          1       8    5dy2              2.008517       0.044731
                                                         0.755557       0.033894
                                                         0.292158       0.006499
                                                         0.105328       0.031042
                          1       8    5dyz              2.008517       0.077477
                                                         0.755557       0.058707
                                                         0.292158       0.011257
                                                         0.105328       0.053766
                          1       8    5dz2              2.008517       0.044731
                                                         0.755557       0.033894
                                                         0.292158       0.006499
                                                         0.105328       0.031042

                          1       9    5fx3              2.008517      -0.042629
                                                         0.755557       0.009866
                                                         0.292158       0.091648
                                                         0.105328       0.000020
                          1       9    5fx2y             2.008517      -0.095321
                                                         0.755557       0.022061
                                                         0.292158       0.204931
                                                         0.105328       0.000045
                          1       9    5fx2z             2.008517      -0.095321
                                                         0.755557       0.022061
                                                         0.292158       0.204931
                                                         0.105328       0.000045
                          1       9    5fxy2             2.008517      -0.095321
                                                         0.755557       0.022061
                                                         0.292158       0.204931
                                                         0.105328       0.000045
                          1       9    5fxyz             2.008517      -0.165100
                                                         0.755557       0.038210
                                                         0.292158       0.354951
                                                         0.105328       0.000078
                          1       9    5fxz2             2.008517      -0.095321
                                                         0.755557       0.022061
                                                         0.292158       0.204931
                                                         0.105328       0.000045
                          1       9    5fy3              2.008517      -0.042629
                                                         0.755557       0.009866
                                                         0.292158       0.091648
                                                         0.105328       0.000020
                          1       9    5fy2z             2.008517      -0.095321
                                                         0.755557       0.022061
                                                         0.292158       0.204931
                                                         0.105328       0.000045
                          1       9    5fyz2             2.008517      -0.095321
                                                         0.755557       0.022061
                                                         0.292158       0.204931
                                                         0.105328       0.000045
                          1       9    5fz3              2.008517      -0.042629
                                                         0.755557       0.009866
                                                         0.292158       0.091648
                                                         0.105328       0.000020

     GTH Potential information for                                    GTH-PBE-q4

       Description:                       Goedecker-Teter-Hutter pseudopotential
                                           Goedecker et al., PRB 54, 1703 (1996)
                                          Hartwigsen et al., PRB 58, 3641 (1998)
                                                      Krack, TCA 114, 145 (2005)

       Gaussian exponent of the core charge distribution:               4.362265
       Electronic configuration (s p d ...):                       2   2   0   0

       Parameters of the local part of the GTH pseudopotential:

                          rloc        C1          C2          C3          C4
                        0.338555   -8.804552    1.338377

       Parameters of the non-local part of the GTH pseudopotential:

                   l      r(l)      h(i,j,l)

                   0    0.302610    9.622862

  3. Atomic kind: N                                     Number of atoms:       1

     Orbital Basis Set                                   TZV2P-MOLOPT-PBE-GTH-q5

       Number of orbital shell sets:                                           1
       Number of orbital shells:                                               9
       Number of primitive Cartesian functions:                                5
       Number of Cartesian basis functions:                                   34
       Number of spherical basis functions:                                   29
       Norm type:                                                              2

       Normalised Cartesian orbitals:

                        Set   Shell   Orbital            Exponent    Coefficient

                          1       1    2s                7.677291      -0.433945
                                                         2.819662      -0.225884
                                                         1.091144       0.281004
                                                         0.431009       0.272485
                                                         0.138938       0.015194

                          1       2    3s                7.677291       0.166796
                                                         2.819662       0.071789
                                                         1.091144      -0.075890
                                                         0.431009      -0.026983
                                                         0.138938       0.175604

                          1       3    4s                7.677291      -2.778831
                                                         2.819662      -0.627092
                                                         1.091144       0.528782
                                                         0.431009      -0.229325
                                                         0.138938       0.013164

                          1       4    3px               7.677291      -1.160805
                                                         2.819662      -0.968875
                                                         1.091144      -0.555552
                                                         0.431009      -0.214049
                                                         0.138938      -0.025189
                          1       4    3py               7.677291      -1.160805
                                                         2.819662      -0.968875
                                                         1.091144      -0.555552
                                                         0.431009      -0.214049
                                                         0.138938      -0.025189
                          1       4    3pz               7.677291      -1.160805
                                                         2.819662      -0.968875
                                                         1.091144      -0.555552
                                                         0.431009      -0.214049
                                                         0.138938      -0.025189

                          1       5    4px               7.677291       1.006840
                                                         2.819662       0.803085
                                                         1.091144       0.516640
                                                         0.431009       0.089613
                                                         0.138938      -0.129545
                          1       5    4py               7.677291       1.006840
                                                         2.819662       0.803085
                                                         1.091144       0.516640
                                                         0.431009       0.089613
                                                         0.138938      -0.129545
                          1       5    4pz               7.677291       1.006840
                                                         2.819662       0.803085
                                                         1.091144       0.516640
                                                         0.431009       0.089613
                                                         0.138938      -0.129545

                          1       6    5px               7.677291       2.926325
                                                         2.819662       2.482327
                                                         1.091144       1.352293
                                                         0.431009      -0.498852
                                                         0.138938       0.020139
                          1       6    5py               7.677291       2.926325
                                                         2.819662       2.482327
                                                         1.091144       1.352293
                                                         0.431009      -0.498852
                                                         0.138938       0.020139
                          1       6    5pz               7.677291       2.926325
                                                         2.819662       2.482327
                                                         1.091144       1.352293
                                                         0.431009      -0.498852
                                                         0.138938       0.020139

                          1       7    4dx2              7.677291       2.735993
                                                         2.819662       0.863524
                                                         1.091144       0.633376
                                                         0.431009       0.247924
                                                         0.138938       0.003429
                          1       7    4dxy              7.677291       4.738879
                                                         2.819662       1.495667
                                                         1.091144       1.097040
                                                         0.431009       0.429417
                                                         0.138938       0.005939
                          1       7    4dxz              7.677291       4.738879
                                                         2.819662       1.495667
                                                         1.091144       1.097040
                                                         0.431009       0.429417
                                                         0.138938       0.005939
                          1       7    4dy2              7.677291       2.735993
                                                         2.819662       0.863524
                                                         1.091144       0.633376
                                                         0.431009       0.247924
                                                         0.138938       0.003429
                          1       7    4dyz              7.677291       4.738879
                                                         2.819662       1.495667
                                                         1.091144       1.097040
                                                         0.431009       0.429417
                                                         0.138938       0.005939
                          1       7    4dz2              7.677291       2.735993
                                                         2.819662       0.863524
                                                         1.091144       0.633376
                                                         0.431009       0.247924
                                                         0.138938       0.003429

                          1       8    5dx2              7.677291       0.711513
                                                         2.819662      -0.221827
                                                         1.091144      -0.090019
                                                         0.431009      -0.030116
                                                         0.138938       0.054690
                          1       8    5dxy              7.677291       1.232378
                                                         2.819662      -0.384215
                                                         1.091144      -0.155918
                                                         0.431009      -0.052163
                                                         0.138938       0.094727
                          1       8    5dxz              7.677291       1.232378
                                                         2.819662      -0.384215
                                                         1.091144      -0.155918
                                                         0.431009      -0.052163
                                                         0.138938       0.094727
                          1       8    5dy2              7.677291       0.711513
                                                         2.819662      -0.221827
                                                         1.091144      -0.090019
                                                         0.431009      -0.030116
                                                         0.138938       0.054690
                          1       8    5dyz              7.677291       1.232378
                                                         2.819662      -0.384215
                                                         1.091144      -0.155918
                                                         0.431009      -0.052163
                                                         0.138938       0.094727
                          1       8    5dz2              7.677291       0.711513
                                                         2.819662      -0.221827
                                                         1.091144      -0.090019
                                                         0.431009      -0.030116
                                                         0.138938       0.054690

                          1       9    5fx3              7.677291      -1.237806
                                                         2.819662      -0.068561
                                                         1.091144       0.003479
                                                         0.431009       0.222292
                                                         0.138938      -0.000119
                          1       9    5fx2y             7.677291      -2.767819
                                                         2.819662      -0.153307
                                                         1.091144       0.007780
                                                         0.431009       0.497060
                                                         0.138938      -0.000265
                          1       9    5fx2z             7.677291      -2.767819
                                                         2.819662      -0.153307
                                                         1.091144       0.007780
                                                         0.431009       0.497060
                                                         0.138938      -0.000265
                          1       9    5fxy2             7.677291      -2.767819
                                                         2.819662      -0.153307
                                                         1.091144       0.007780
                                                         0.431009       0.497060
                                                         0.138938      -0.000265
                          1       9    5fxyz             7.677291      -4.794003
                                                         2.819662      -0.265535
                                                         1.091144       0.013476
                                                         0.431009       0.860933
                                                         0.138938      -0.000460
                          1       9    5fxz2             7.677291      -2.767819
                                                         2.819662      -0.153307
                                                         1.091144       0.007780
                                                         0.431009       0.497060
                                                         0.138938      -0.000265
                          1       9    5fy3              7.677291      -1.237806
                                                         2.819662      -0.068561
                                                         1.091144       0.003479
                                                         0.431009       0.222292
                                                         0.138938      -0.000119
                          1       9    5fy2z             7.677291      -2.767819
                                                         2.819662      -0.153307
                                                         1.091144       0.007780
                                                         0.431009       0.497060
                                                         0.138938      -0.000265
                          1       9    5fyz2             7.677291      -2.767819
                                                         2.819662      -0.153307
                                                         1.091144       0.007780
                                                         0.431009       0.497060
                                                         0.138938      -0.000265
                          1       9    5fz3              7.677291      -1.237806
                                                         2.819662      -0.068561
                                                         1.091144       0.003479
                                                         0.431009       0.222292
                                                         0.138938      -0.000119

       Atomic covalent radius [Angstrom]:                                  0.750

       Atomic van der Waals radius [Angstrom]:                             1.550

     The atoms of this atomic kind are PAW atoms (GAPW):
       Hard Gaussian function radius:                                      1.400
       Rho0 radius:                                                        1.400
       Maximum GTO radius used for PAW projector construction:            24.566

     GAPW Soft Basis Set                            TZV2P-MOLOPT-PBE-GTH-q5_soft

       Number of orbital shell sets:                                           1
       Number of orbital shells:                                               9
       Number of primitive Cartesian functions:                                4
       Number of Cartesian basis functions:                                   34
       Number of spherical basis functions:                                   29
       Norm type:                                                              2

       Normalised Cartesian orbitals:

                        Set   Shell   Orbital            Exponent    Coefficient

                          1       1    2s                2.819662      -0.225884
                                                         1.091144       0.281004
                                                         0.431009       0.272485
                                                         0.138938       0.015194

                          1       2    3s                2.819662       0.071789
                                                         1.091144      -0.075890
                                                         0.431009      -0.026983
                                                         0.138938       0.175604

                          1       3    4s                2.819662      -0.627092
                                                         1.091144       0.528782
                                                         0.431009      -0.229325
                                                         0.138938       0.013164

                          1       4    3px               2.819662      -0.968875
                                                         1.091144      -0.555552
                                                         0.431009      -0.214049
                                                         0.138938      -0.025189
                          1       4    3py               2.819662      -0.968875
                                                         1.091144      -0.555552
                                                         0.431009      -0.214049
                                                         0.138938      -0.025189
                          1       4    3pz               2.819662      -0.968875
                                                         1.091144      -0.555552
                                                         0.431009      -0.214049
                                                         0.138938      -0.025189

                          1       5    4px               2.819662       0.803085
                                                         1.091144       0.516640
                                                         0.431009       0.089613
                                                         0.138938      -0.129545
                          1       5    4py               2.819662       0.803085
                                                         1.091144       0.516640
                                                         0.431009       0.089613
                                                         0.138938      -0.129545
                          1       5    4pz               2.819662       0.803085
                                                         1.091144       0.516640
                                                         0.431009       0.089613
                                                         0.138938      -0.129545

                          1       6    5px               2.819662       2.482327
                                                         1.091144       1.352293
                                                         0.431009      -0.498852
                                                         0.138938       0.020139
                          1       6    5py               2.819662       2.482327
                                                         1.091144       1.352293
                                                         0.431009      -0.498852
                                                         0.138938       0.020139
                          1       6    5pz               2.819662       2.482327
                                                         1.091144       1.352293
                                                         0.431009      -0.498852
                                                         0.138938       0.020139

                          1       7    4dx2              2.819662       0.863524
                                                         1.091144       0.633376
                                                         0.431009       0.247924
                                                         0.138938       0.003429
                          1       7    4dxy              2.819662       1.495667
                                                         1.091144       1.097040
                                                         0.431009       0.429417
                                                         0.138938       0.005939
                          1       7    4dxz              2.819662       1.495667
                                                         1.091144       1.097040
                                                         0.431009       0.429417
                                                         0.138938       0.005939
                          1       7    4dy2              2.819662       0.863524
                                                         1.091144       0.633376
                                                         0.431009       0.247924
                                                         0.138938       0.003429
                          1       7    4dyz              2.819662       1.495667
                                                         1.091144       1.097040
                                                         0.431009       0.429417
                                                         0.138938       0.005939
                          1       7    4dz2              2.819662       0.863524
                                                         1.091144       0.633376
                                                         0.431009       0.247924
                                                         0.138938       0.003429

                          1       8    5dx2              2.819662      -0.221827
                                                         1.091144      -0.090019
                                                         0.431009      -0.030116
                                                         0.138938       0.054690
                          1       8    5dxy              2.819662      -0.384215
                                                         1.091144      -0.155918
                                                         0.431009      -0.052163
                                                         0.138938       0.094727
                          1       8    5dxz              2.819662      -0.384215
                                                         1.091144      -0.155918
                                                         0.431009      -0.052163
                                                         0.138938       0.094727
                          1       8    5dy2              2.819662      -0.221827
                                                         1.091144      -0.090019
                                                         0.431009      -0.030116
                                                         0.138938       0.054690
                          1       8    5dyz              2.819662      -0.384215
                                                         1.091144      -0.155918
                                                         0.431009      -0.052163
                                                         0.138938       0.094727
                          1       8    5dz2              2.819662      -0.221827
                                                         1.091144      -0.090019
                                                         0.431009      -0.030116
                                                         0.138938       0.054690

                          1       9    5fx3              2.819662      -0.068561
                                                         1.091144       0.003479
                                                         0.431009       0.222292
                                                         0.138938      -0.000119
                          1       9    5fx2y             2.819662      -0.153307
                                                         1.091144       0.007780
                                                         0.431009       0.497060
                                                         0.138938      -0.000265
                          1       9    5fx2z             2.819662      -0.153307
                                                         1.091144       0.007780
                                                         0.431009       0.497060
                                                         0.138938      -0.000265
                          1       9    5fxy2             2.819662      -0.153307
                                                         1.091144       0.007780
                                                         0.431009       0.497060
                                                         0.138938      -0.000265
                          1       9    5fxyz             2.819662      -0.265535
                                                         1.091144       0.013476
                                                         0.431009       0.860933
                                                         0.138938      -0.000460
                          1       9    5fxz2             2.819662      -0.153307
                                                         1.091144       0.007780
                                                         0.431009       0.497060
                                                         0.138938      -0.000265
                          1       9    5fy3              2.819662      -0.068561
                                                         1.091144       0.003479
                                                         0.431009       0.222292
                                                         0.138938      -0.000119
                          1       9    5fy2z             2.819662      -0.153307
                                                         1.091144       0.007780
                                                         0.431009       0.497060
                                                         0.138938      -0.000265
                          1       9    5fyz2             2.819662      -0.153307
                                                         1.091144       0.007780
                                                         0.431009       0.497060
                                                         0.138938      -0.000265
                          1       9    5fz3              2.819662      -0.068561
                                                         1.091144       0.003479
                                                         0.431009       0.222292
                                                         0.138938      -0.000119

     GTH Potential information for                                    GTH-PBE-q5

       Description:                       Goedecker-Teter-Hutter pseudopotential
                                           Goedecker et al., PRB 54, 1703 (1996)
                                          Hartwigsen et al., PRB 58, 3641 (1998)
                                                      Krack, TCA 114, 145 (2005)

       Gaussian exponent of the core charge distribution:               6.206770
       Electronic configuration (s p d ...):                       2   3   0   0

       Parameters of the local part of the GTH pseudopotential:

                          rloc        C1          C2          C3          C4
                        0.283826  -12.415174    1.868136

       Parameters of the non-local part of the GTH pseudopotential:

                   l      r(l)      h(i,j,l)

                   0    0.255418   13.631249


 MOLECULE KIND INFORMATION


 All atoms are their own molecule, skipping detailed information


 TOTAL NUMBERS AND MAXIMUM NUMBERS

  Total number of            - Atomic kinds:                                   3
                             - Atoms:                                         16
                             - Shell sets:                                    16
                             - Shells:                                       117
                             - Primitive Cartesian functions:                 80
                             - Cartesian basis functions:                    373
                             - Spherical basis functions:                    329

  Maximum angular momentum of- Orbital basis functions:                        3
                             - Local part of the GTH pseudopotential:          2
                             - Non-local part of the GTH pseudopotential:      0


 MODULE QUICKSTEP: ATOMIC COORDINATES IN ANGSTROM

   Atom Kind Element         X             Y             Z       Z(eff)     Mass
      1    1 H     1     12.524600     15.365300     16.343070   1.0000   1.0079
      2    2 C     6     13.378790     15.312810     15.684220   4.0000  12.0107
      3    2 C     6     14.722180     15.027560     16.099450   4.0000  12.0107
      4    2 C     6     13.378790     15.312810     14.315780   4.0000  12.0107
      5    1 H     1     16.475400     15.004530     15.000000   1.0000   1.0079
      6    3 N     7     15.527740     15.356050     15.000000   5.0000  14.0067
      7    2 C     6     14.722180     12.964120     15.706600   4.0000  12.0107
      8    1 H     1     15.108890     15.167870     17.100190   1.0000   1.0079
      9    2 C     6     14.722180     12.964120     14.293400   4.0000  12.0107
     10    1 H     1     12.524600     15.365300     13.656930   1.0000   1.0079
     11    2 C     6     14.722180     15.027560     13.900550   4.0000  12.0107
     12    1 H     1     15.108890     15.167870     12.899810   1.0000   1.0079
     13    1 H     1     13.837650     12.634700     13.761980   1.0000   1.0079
     14    1 H     1     13.837650     12.634700     16.238020   1.0000   1.0079
     15    1 H     1     15.647800     12.733210     16.225780   1.0000   1.0079
     16    1 H     1     15.647800     12.733210     13.774220   1.0000   1.0079



 SCF PARAMETERS         Density guess:                                    ATOMIC
                        --------------------------------------------------------
                        max_scf:                                             200
                        max_scf_history:                                       0
                        max_diis:                                              4
                        --------------------------------------------------------
                        eps_scf:                                        1.00E-07
                        eps_scf_history:                                0.00E+00
                        eps_diis:                                       0.00E+00
                        eps_eigval:                                     1.00E-05
                        --------------------------------------------------------
                        level_shift [a.u.]:                             0.000000
                        --------------------------------------------------------
                        Outer loop SCF in use 
                        No variables optimised in outer loop
                        eps_scf                                         1.00E-07
                        max_scf                                               20
                        No outer loop optimization
                        step_size                                       5.00E-01

 PW_GRID| Information for grid number                                          1
 PW_GRID| Cutoff [a.u.]                                                    200.0
 PW_GRID| spherical cutoff:                                                   NO
 PW_GRID|   Bounds   1           -180     179                Points:         360
 PW_GRID|   Bounds   2           -180     179                Points:         360
 PW_GRID|   Bounds   3           -187     187                Points:         375
 PW_GRID| Volume element (a.u.^3)  0.3382E-02     Volume (a.u.^3)    164389.4304
 PW_GRID| Grid span                                                    FULLSPACE

 PW_GRID| Information for grid number                                          2
 PW_GRID| Number of the reference grid                                         1
 PW_GRID| Cutoff [a.u.]                                                     66.7
 PW_GRID| spherical cutoff:                                                   NO
 PW_GRID|   Bounds   1           -108     107                Points:         216
 PW_GRID|   Bounds   2           -100      99                Points:         200
 PW_GRID|   Bounds   3           -108     107                Points:         216
 PW_GRID| Volume element (a.u.^3)  0.1762E-01     Volume (a.u.^3)    164389.4304
 PW_GRID| Grid span                                                    FULLSPACE

 PW_GRID| Information for grid number                                          3
 PW_GRID| Number of the reference grid                                         1
 PW_GRID| Cutoff [a.u.]                                                     22.2
 PW_GRID| spherical cutoff:                                                   NO
 PW_GRID|   Bounds   1            -60      59                Points:         120
 PW_GRID|   Bounds   2            -60      59                Points:         120
 PW_GRID|   Bounds   3            -62      62                Points:         125
 PW_GRID| Volume element (a.u.^3)  0.9133E-01     Volume (a.u.^3)    164389.4304
 PW_GRID| Grid span                                                    FULLSPACE

 PW_GRID| Information for grid number                                          4
 PW_GRID| Number of the reference grid                                         1
 PW_GRID| Cutoff [a.u.]                                                      7.4
 PW_GRID| spherical cutoff:                                                   NO
 PW_GRID|   Bounds   1            -36      35                Points:          72
 PW_GRID|   Bounds   2            -36      35                Points:          72
 PW_GRID|   Bounds   3            -36      35                Points:          72
 PW_GRID| Volume element (a.u.^3)  0.4404         Volume (a.u.^3)    164389.4304
 PW_GRID| Grid span                                                    FULLSPACE

 PW_GRID| Information for grid number                                          5
 PW_GRID| Number of the reference grid                                         1
 PW_GRID| Cutoff [a.u.]                                                      2.5
 PW_GRID| spherical cutoff:                                                   NO
 PW_GRID|   Bounds   1            -20      19                Points:          40
 PW_GRID|   Bounds   2            -20      19                Points:          40
 PW_GRID|   Bounds   3            -22      22                Points:          45
 PW_GRID| Volume element (a.u.^3)   2.283         Volume (a.u.^3)    164389.4304
 PW_GRID| Grid span                                                    FULLSPACE

 POISSON| Solver                                                        ANALYTIC
 POISSON| Periodicity                                                       NONE

 RS_GRID| Information for grid number                                          1
 RS_GRID|   Bounds   1           -180     179                Points:         360
 RS_GRID|   Bounds   2           -180     179                Points:         360
 RS_GRID|   Bounds   3           -187     187                Points:         375

 RS_GRID| Information for grid number                                          2
 RS_GRID|   Bounds   1           -108     107                Points:         216
 RS_GRID|   Bounds   2           -100      99                Points:         200
 RS_GRID|   Bounds   3           -108     107                Points:         216

 RS_GRID| Information for grid number                                          3
 RS_GRID|   Bounds   1            -60      59                Points:         120
 RS_GRID|   Bounds   2            -60      59                Points:         120
 RS_GRID|   Bounds   3            -62      62                Points:         125

 RS_GRID| Information for grid number                                          4
 RS_GRID|   Bounds   1            -36      35                Points:          72
 RS_GRID|   Bounds   2            -36      35                Points:          72
 RS_GRID|   Bounds   3            -36      35                Points:          72

 RS_GRID| Information for grid number                                          5
 RS_GRID|   Bounds   1            -20      19                Points:          40
 RS_GRID|   Bounds   2            -20      19                Points:          40
 RS_GRID|   Bounds   3            -22      22                Points:          45

 Extrapolation method: initial_guess

 Atomic guess: The first density matrix is obtained in terms of atomic orbitals
               and electronic configurations assigned to each atomic kind

 Guess for atomic kind: H

 Electronic structure
    Total number of core electrons                                          0.00
    Total number of valence electrons                                       1.00
    Total number of electrons                                               1.00
    Multiplicity                                                   not specified
    S      1.00


 *******************************************************************************
                  Iteration          Convergence                     Energy [au]
 *******************************************************************************
                          1        0.471942E-02                  -0.424095106469
                          2        0.464819E-03                  -0.424113671871
                          3        0.190364E-04                  -0.424114007136
                          4        0.633677E-08                  -0.424114007691

 Energy components [Hartree]           Total Energy ::           -0.424114007691
                                        Band Energy ::           -0.198799540676
                                     Kinetic Energy ::            0.462903625467
                                   Potential Energy ::           -0.887017633158
                                      Virial (-V/T) ::            1.916203685515
                                        Core Energy ::           -0.479182004469
                                          XC Energy ::           -0.244447840446
                                     Coulomb Energy ::            0.299515837225
                       Total Pseudopotential Energy ::           -0.960851778720
                       Local Pseudopotential Energy ::           -0.960851778720
                    Nonlocal Pseudopotential Energy ::            0.000000000000
                                        Confinement ::            0.187661487833

 Orbital energies  State     L     Occupation   Energy[a.u.]          Energy[eV]

                       1     0          1.000      -0.198800           -5.409611


 Total Electron Density at R=0:                                         0.230125

 Guess for atomic kind: C

 Electronic structure
    Total number of core electrons                                          2.00
    Total number of valence electrons                                       4.00
    Total number of electrons                                               6.00
    Multiplicity                                                   not specified
    S   [  2.00] 2.00
    P      2.00


 *******************************************************************************
                  Iteration          Convergence                     Energy [au]
 *******************************************************************************
                          1        0.117779                      -5.273315477849
                          2        0.811746E-01                  -5.277882950325
                          3        0.375808E-03                  -5.282044538817
                          4        0.116303E-03                  -5.282044581600
                          5        0.136159E-06                  -5.282044589276

 Energy components [Hartree]           Total Energy ::           -5.282044589276
                                        Band Energy ::           -1.313808155897
                                     Kinetic Energy ::            3.394620915655
                                   Potential Energy ::           -8.676665504931
                                      Virial (-V/T) ::            2.556004255119
                                        Core Energy ::           -8.294411848339
                                          XC Energy ::           -1.378447971455
                                     Coulomb Energy ::            4.390815230518
                       Total Pseudopotential Energy ::          -11.723548360395
                       Local Pseudopotential Energy ::          -12.387857835263
                    Nonlocal Pseudopotential Energy ::            0.664309474867
                                        Confinement ::            0.345155964011

 Orbital energies  State     L     Occupation   Energy[a.u.]          Energy[eV]

                       1     0          2.000      -0.483294          -13.151096

                       1     1          2.000      -0.173610           -4.724173


 Total Electron Density at R=0:                                         0.000017

 Guess for atomic kind: N

 Electronic structure
    Total number of core electrons                                          2.00
    Total number of valence electrons                                       5.00
    Total number of electrons                                               7.00
    Multiplicity                                                   not specified
    S   [  2.00] 2.00
    P      3.00


 *******************************************************************************
                  Iteration          Convergence                     Energy [au]
 *******************************************************************************
                          1        0.356600                      -9.510600665386
                          2        0.308859                      -9.519080047284
                          3        0.631309E-02                  -9.545348162419
                          4        0.439764E-03                  -9.545362760673
                          5        0.218505E-05                  -9.545362808311
                          6        0.103156E-05                  -9.545362808313
                          7        0.932751E-09                  -9.545362808313

 Energy components [Hartree]           Total Energy ::           -9.545362808313
                                        Band Energy ::           -2.055889234955
                                     Kinetic Energy ::            6.745978583143
                                   Potential Energy ::          -16.291341391456
                                      Virial (-V/T) ::            2.414970814192
                                        Core Energy ::          -15.540228649107
                                          XC Energy ::           -2.163003654562
                                     Coulomb Energy ::            8.157869495356
                       Total Pseudopotential Energy ::          -22.323521655047
                       Local Pseudopotential Energy ::          -23.273152293080
                    Nonlocal Pseudopotential Energy ::            0.949630638033
                                        Confinement ::            0.373144227969

 Orbital energies  State     L     Occupation   Energy[a.u.]          Energy[eV]

                       1     0          2.000      -0.663602          -18.057540

                       1     1          3.000      -0.242895           -6.609504


 Total Electron Density at R=0:                                         0.000122
 Re-scaling the density matrix to get the right number of electrons
                  # Electrons              Trace(P)               Scaling factor
                           38                38.000                        1.000

 Number of electrons:                                                         38
 Number of occupied orbitals:                                                 19
 Number of molecular orbitals:                                                19

 Number of orbital functions:                                                329
 Number of independent orbital functions:                                    329


 SCF WAVEFUNCTION OPTIMIZATION

  ----------------------------------- OT ---------------------------------------
  Minimizer      : DIIS                : direct inversion
                                         in the iterative subspace
                                         using   7 DIIS vectors
                                         safer DIIS on
  Preconditioner : FULL_ALL            : diagonalization, state selective
  Precond_solver : DEFAULT
  stepsize       :    0.10000000                  energy_gap     :    0.00100000
  eps_taylor     :   0.10000E-15                  max_taylor     :             4
  ----------------------------------- OT ---------------------------------------

  Step     Update method      Time    Convergence         Total energy    Change
  ------------------------------------------------------------------------------
 SKALA_GPW| Atom-composite cross support/maxima   2.607069088142E+00   9.038360060019E-02   6.126705442150E-01   2.665358200058E+00

 SKALA_GPW| Native grid Torch CUDA device 0 of 1 requested -1
 SKALA_GPW| Native grid Torch CUDA rank devices 0:0
 SKALA_GPW| Active atom-composite XC energy  -1.4734154381238181E+01
 SKALA_GPW| Active atom-composite electrons   3.7999916996865771E+01
 SKALA_GPW| Active atom-composite density range  -7.9972040826118968E-09   4.3846746588336705E-01
 SKALA_GPW| Active atom-composite tau range  -1.1010166308015397E-07   5.8024794602134708E+00
 SKALA_GPW| Active atom-composite tau integral   3.6913506255920176E+01
 SKALA_GPW| Active atom-composite max gradient   1.3337391146207587E+00
     1 OT DIIS     0.10E+00   88.0     0.23263704       -44.4288796396 -4.44E+01
 SKALA_GPW| Atom-composite cross support/maxima   2.607069088142E+00   2.170624145633E+00   7.117608059456E+00   1.022350816241E+01
 SKALA_GPW| Active atom-composite XC energy  -1.3823614340438445E+01
 SKALA_GPW| Active atom-composite electrons   3.7999956565938426E+01
 SKALA_GPW| Active atom-composite density range  -2.1791415287673132E-07   1.7167112637444442E+00
 SKALA_GPW| Active atom-composite tau range  -4.4584151823901631E-07   1.5088146176863965E+01
 SKALA_GPW| Active atom-composite tau integral   5.2371664701816812E+01
 SKALA_GPW| Active atom-composite max gradient   5.9921716213829734E+00
     2 OT DIIS     0.10E+00   90.0     0.15117286       -34.1661037424  1.03E+01
 SKALA_GPW| Atom-composite cross support/maxima   2.607069088142E+00   1.707912597337E+00   7.013966593069E+00   1.193258712543E+01
 SKALA_GPW| Active atom-composite XC energy  -1.4283606183323180E+01
 SKALA_GPW| Active atom-composite electrons   3.7999931995280932E+01
 SKALA_GPW| Active atom-composite density range  -3.0639031532721122E-07   1.5307552274301808E+00
 SKALA_GPW| Active atom-composite tau range  -6.1482456924521678E-07   1.4285097709523177E+01
 SKALA_GPW| Active atom-composite tau integral   4.9828238255926614E+01
 SKALA_GPW| Active atom-composite max gradient   5.1158339282218659E+00
     3 OT DIIS     0.10E+00   89.5     0.11308554       -38.0206994633 -3.85E+00
 SKALA_GPW| Atom-composite cross support/maxima   2.607069088142E+00   1.407682117455E+00   5.956388041662E+00   1.053232064982E+01
 SKALA_GPW| Active atom-composite XC energy  -1.5428988248342726E+01
 SKALA_GPW| Active atom-composite electrons   3.7999929915102115E+01
 SKALA_GPW| Active atom-composite density range  -2.4845158447555030E-07   1.3135385342782060E+00
 SKALA_GPW| Active atom-composite tau range  -4.9589336611261500E-07   1.2107746715210835E+01
 SKALA_GPW| Active atom-composite tau integral   4.7470417917786484E+01
 SKALA_GPW| Active atom-composite max gradient   4.2936600958925792E+00
     4 OT DIIS     0.10E+00   89.1     0.21068114       -41.0135631334 -2.99E+00
 SKALA_GPW| Atom-composite cross support/maxima   2.607069088142E+00   1.343320462205E+00   5.887961006036E+00   1.031680429220E+01
 SKALA_GPW| Active atom-composite XC energy  -1.5895372763412698E+01
 SKALA_GPW| Active atom-composite electrons   3.7999927403221669E+01
 SKALA_GPW| Active atom-composite density range  -2.4016672876354276E-07   1.2606740449779403E+00
 SKALA_GPW| Active atom-composite tau range  -4.7827571295614067E-07   1.1908511570913783E+01
 SKALA_GPW| Active atom-composite tau integral   4.7309543035843568E+01
 SKALA_GPW| Active atom-composite max gradient   4.1302000642028895E+00
     5 OT DIIS     0.10E+00   89.2     0.08032878       -41.6542937311 -6.41E-01
 SKALA_GPW| Atom-composite cross support/maxima   2.607069088142E+00   9.388066438902E-01   3.952138663900E+00   7.291867572572E+00
 SKALA_GPW| Active atom-composite XC energy  -1.4753014937210033E+01
 SKALA_GPW| Active atom-composite electrons   3.7999922225038688E+01
 SKALA_GPW| Active atom-composite density range  -1.7930863276850214E-07   8.7622163176823697E-01
 SKALA_GPW| Active atom-composite tau range  -3.5707518496679098E-07   8.3993845414742729E+00
 SKALA_GPW| Active atom-composite tau integral   4.4590620919165772E+01
 SKALA_GPW| Active atom-composite max gradient   2.8484487465456692E+00
     6 OT DIIS     0.10E+00   89.4     0.10577210       -42.4502633102 -7.96E-01
 SKALA_GPW| Atom-composite cross support/maxima   2.607069088142E+00   4.908617459805E-01   2.179622882551E+00   4.189251600073E+00
 SKALA_GPW| Active atom-composite XC energy  -1.5714155002777023E+01
 SKALA_GPW| Active atom-composite electrons   3.7999920257221923E+01
 SKALA_GPW| Active atom-composite density range  -1.1694392528007462E-07   4.2511807842212962E-01
 SKALA_GPW| Active atom-composite tau range  -2.3037147263281711E-07   6.3809694432959239E+00
 SKALA_GPW| Active atom-composite tau integral   4.1795080289863343E+01
 SKALA_GPW| Active atom-composite max gradient   1.4280712019004309E+00
     7 OT DIIS     0.10E+00   88.2     0.07038433       -45.0240965549 -2.57E+00
 SKALA_GPW| Atom-composite cross support/maxima   2.607069088142E+00   7.001955616175E-02   5.373977378187E-01   2.744196591684E+00
 SKALA_GPW| Active atom-composite XC energy  -1.5805028137280305E+01
 SKALA_GPW| Active atom-composite electrons   3.7999918117570424E+01
 SKALA_GPW| Active atom-composite density range  -2.5201104662348777E-08   3.8203229032009128E-01
 SKALA_GPW| Active atom-composite tau range  -1.0266384633371445E-07   6.2912087669724457E+00
 SKALA_GPW| Active atom-composite tau integral   3.8816696513147910E+01
 SKALA_GPW| Active atom-composite max gradient   1.2947974428392452E+00
     8 OT DIIS     0.10E+00   89.1     0.05227608       -47.3018804697 -2.28E+00
 SKALA_GPW| Atom-composite cross support/maxima   2.607069088142E+00   6.966870298420E-02   5.081818130303E-01   2.699223044058E+00
 SKALA_GPW| Active atom-composite XC energy  -1.5920665972386915E+01
 SKALA_GPW| Active atom-composite electrons   3.7999920869645393E+01
 SKALA_GPW| Active atom-composite density range  -8.2698290985422537E-09   3.6915688962770771E-01
 SKALA_GPW| Active atom-composite tau range  -9.4925566662400821E-08   6.2117782826903465E+00
 SKALA_GPW| Active atom-composite tau integral   3.8897410232167012E+01
 SKALA_GPW| Active atom-composite max gradient   1.2627806592526563E+00
     9 OT DIIS     0.10E+00   89.0     0.03480001       -48.2069184211 -9.05E-01
 SKALA_GPW| Atom-composite cross support/maxima   2.607069088142E+00   8.160046625636E-02   5.026614942906E-01   2.679740883804E+00
 SKALA_GPW| Active atom-composite XC energy  -1.5965188265651870E+01
 SKALA_GPW| Active atom-composite electrons   3.7999922492688256E+01
 SKALA_GPW| Active atom-composite density range  -6.6849089446791242E-09   3.6325106890164149E-01
 SKALA_GPW| Active atom-composite tau range  -1.0308658360674399E-07   6.2140596666440304E+00
 SKALA_GPW| Active atom-composite tau integral   3.8893956255841125E+01
 SKALA_GPW| Active atom-composite max gradient   1.2474844527553075E+00
    10 OT DIIS     0.10E+00   88.9     0.02237660       -48.4528740701 -2.46E-01
 SKALA_GPW| Atom-composite cross support/maxima   2.607069088142E+00   6.184051934053E-02   5.032082804587E-01   2.695071170170E+00
 SKALA_GPW| Active atom-composite XC energy  -1.5928665388415791E+01
 SKALA_GPW| Active atom-composite electrons   3.7999922339357390E+01
 SKALA_GPW| Active atom-composite density range  -5.7798849909915681E-09   3.6289581354190209E-01
 SKALA_GPW| Active atom-composite tau range  -1.0354413860222064E-07   6.2397501875242618E+00
 SKALA_GPW| Active atom-composite tau integral   3.8477069863839517E+01
 SKALA_GPW| Active atom-composite max gradient   1.2484171008978246E+00
    11 OT DIIS     0.10E+00   89.4     0.01894352       -48.5434260857 -9.06E-02
 SKALA_GPW| Atom-composite cross support/maxima   2.607069088142E+00   5.976879192305E-02   4.968594785058E-01   2.674085426610E+00
 SKALA_GPW| Active atom-composite XC energy  -1.5955339254728663E+01
 SKALA_GPW| Active atom-composite electrons   3.7999922939353503E+01
 SKALA_GPW| Active atom-composite density range  -5.7893284443882878E-09   3.5525740797638827E-01
 SKALA_GPW| Active atom-composite tau range  -1.0023175250679287E-07   6.2417822618285292E+00
 SKALA_GPW| Active atom-composite tau integral   3.8384575122439415E+01
 SKALA_GPW| Active atom-composite max gradient   1.2300136195257894E+00
    12 OT DIIS     0.10E+00   89.8     0.01587109       -48.7416327538 -1.98E-01
 SKALA_GPW| Atom-composite cross support/maxima   2.607069088142E+00   5.979382573758E-02   4.912871349923E-01   2.646595021483E+00
 SKALA_GPW| Active atom-composite XC energy  -1.6009080192140040E+01
 SKALA_GPW| Active atom-composite electrons   3.7999924335909910E+01
 SKALA_GPW| Active atom-composite density range  -5.7825584567342795E-09   3.4840170420896666E-01
 SKALA_GPW| Active atom-composite tau range  -9.6854700067878864E-08   6.2177159869063239E+00
 SKALA_GPW| Active atom-composite tau integral   3.8553491727255569E+01
 SKALA_GPW| Active atom-composite max gradient   1.2097088981327917E+00
    13 OT DIIS     0.10E+00   90.0     0.00904177       -48.8728746577 -1.31E-01
 SKALA_GPW| Atom-composite cross support/maxima   2.607069088142E+00   5.979869965283E-02   4.886146331021E-01   2.632192401535E+00
 SKALA_GPW| Active atom-composite XC energy  -1.6023928540146827E+01
 SKALA_GPW| Active atom-composite electrons   3.7999924606142585E+01
 SKALA_GPW| Active atom-composite density range  -5.7762800890543928E-09   3.4340410323171811E-01
 SKALA_GPW| Active atom-composite tau range  -9.2765923563956836E-08   6.2159649383007975E+00
 SKALA_GPW| Active atom-composite tau integral   3.8507046178938751E+01
 SKALA_GPW| Active atom-composite max gradient   1.1947874947729680E+00
    14 OT DIIS     0.10E+00   90.3     0.00795521       -48.9488998917 -7.60E-02
 SKALA_GPW| Atom-composite cross support/maxima   2.607069088142E+00   5.964519814667E-02   4.864279208452E-01   2.626835337452E+00
 SKALA_GPW| Active atom-composite XC energy  -1.6032910110349814E+01
 SKALA_GPW| Active atom-composite electrons   3.7999924602376410E+01
 SKALA_GPW| Active atom-composite density range  -5.7442581906426769E-09   3.4072758830724387E-01
 SKALA_GPW| Active atom-composite tau range  -8.9049940868388779E-08   6.2165709478598803E+00
 SKALA_GPW| Active atom-composite tau integral   3.8501975586364530E+01
 SKALA_GPW| Active atom-composite max gradient   1.1852999200155632E+00
    15 OT DIIS     0.10E+00   90.1     0.00598497       -48.9891655202 -4.03E-02
 SKALA_GPW| Atom-composite cross support/maxima   2.607069088142E+00   5.970210569632E-02   4.842562745486E-01   2.621554720126E+00
 SKALA_GPW| Active atom-composite XC energy  -1.6042205442742706E+01
 SKALA_GPW| Active atom-composite electrons   3.7999924731893159E+01
 SKALA_GPW| Active atom-composite density range  -5.6679246810780167E-09   3.3778427616772971E-01
 SKALA_GPW| Active atom-composite tau range  -8.4865917801892765E-08   6.2164303929010680E+00
 SKALA_GPW| Active atom-composite tau integral   3.8517713799249172E+01
 SKALA_GPW| Active atom-composite max gradient   1.1752723106962271E+00
    16 OT DIIS     0.10E+00   89.2     0.00501300       -49.0233193535 -3.42E-02
 SKALA_GPW| Atom-composite cross support/maxima   2.607069088142E+00   5.976138573559E-02   4.825150910575E-01   2.619306393424E+00
 SKALA_GPW| Active atom-composite XC energy  -1.6046633281609978E+01
 SKALA_GPW| Active atom-composite electrons   3.7999924699206133E+01
 SKALA_GPW| Active atom-composite density range  -5.6380477935351494E-09   3.3543326085052322E-01
 SKALA_GPW| Active atom-composite tau range  -8.1648924205834718E-08   6.2174919165665594E+00
 SKALA_GPW| Active atom-composite tau integral   3.8514990437618245E+01
 SKALA_GPW| Active atom-composite max gradient   1.1674546173215479E+00
    17 OT DIIS     0.10E+00   89.9     0.00417901       -49.0470120133 -2.37E-02
 SKALA_GPW| Atom-composite cross support/maxima   2.607069088142E+00   5.978838517164E-02   4.814225357670E-01   2.620122413717E+00
 SKALA_GPW| Active atom-composite XC energy  -1.6047495577469924E+01
 SKALA_GPW| Active atom-composite electrons   3.7999924683752972E+01
 SKALA_GPW| Active atom-composite density range  -5.5913517983422257E-09   3.3350350793166539E-01
 SKALA_GPW| Active atom-composite tau range  -7.8992835834632539E-08   6.2219240593864900E+00
 SKALA_GPW| Active atom-composite tau integral   3.8504626595677301E+01
 SKALA_GPW| Active atom-composite max gradient   1.1614251222608574E+00
    18 OT DIIS     0.10E+00   89.1     0.00365463       -49.0670022555 -2.00E-02
 SKALA_GPW| Atom-composite cross support/maxima   2.607069088142E+00   5.980468861739E-02   4.802718307501E-01   2.622429967550E+00
 SKALA_GPW| Active atom-composite XC energy  -1.6048124656965960E+01
 SKALA_GPW| Active atom-composite electrons   3.7999924631500534E+01
 SKALA_GPW| Active atom-composite density range  -5.5502538427883730E-09   3.3196132270408107E-01
 SKALA_GPW| Active atom-composite tau range  -7.7049049467817193E-08   6.2256017978523008E+00
 SKALA_GPW| Active atom-composite tau integral   3.8499329425182488E+01
 SKALA_GPW| Active atom-composite max gradient   1.1565118728704131E+00
    19 OT DIIS     0.10E+00   89.4     0.00310452       -49.0818397848 -1.48E-02
 SKALA_GPW| Atom-composite cross support/maxima   2.607069088142E+00   5.978961788898E-02   4.790197229576E-01   2.620940531717E+00
 SKALA_GPW| Active atom-composite XC energy  -1.6048873324190339E+01
 SKALA_GPW| Active atom-composite electrons   3.7999924692132915E+01
 SKALA_GPW| Active atom-composite density range  -5.5297351114249670E-09   3.3037841565319809E-01
 SKALA_GPW| Active atom-composite tau range  -7.6282112066907864E-08   6.2263732628329000E+00
 SKALA_GPW| Active atom-composite tau integral   3.8500175027918544E+01
 SKALA_GPW| Active atom-composite max gradient   1.1511180949169000E+00
    20 OT DIIS     0.10E+00   89.8     0.00284730       -49.0940448511 -1.22E-02
 SKALA_GPW| Atom-composite cross support/maxima   2.607069088142E+00   5.976895751609E-02   4.782826559123E-01   2.623142248946E+00
 SKALA_GPW| Active atom-composite XC energy  -1.6049386853235688E+01
 SKALA_GPW| Active atom-composite electrons   3.7999924720884529E+01
 SKALA_GPW| Active atom-composite density range  -5.5166863873351187E-09   3.2936610658301657E-01
 SKALA_GPW| Active atom-composite tau range  -7.5997783855050548E-08   6.2296194733069532E+00
 SKALA_GPW| Active atom-composite tau integral   3.8498848216897827E+01
 SKALA_GPW| Active atom-composite max gradient   1.1478522568167431E+00
    21 OT DIIS     0.10E+00   88.7     0.00247954       -49.1046318199 -1.06E-02
 SKALA_GPW| Atom-composite cross support/maxima   2.607069088142E+00   5.972128921896E-02   4.774551746865E-01   2.624160775260E+00
 SKALA_GPW| Active atom-composite XC energy  -1.6050863026860878E+01
 SKALA_GPW| Active atom-composite electrons   3.7999924730488964E+01
 SKALA_GPW| Active atom-composite density range  -5.5096057023932670E-09   3.2823993557465336E-01
 SKALA_GPW| Active atom-composite tau range  -7.6773404997075839E-08   6.2327738406375630E+00
 SKALA_GPW| Active atom-composite tau integral   3.8500393526449301E+01
 SKALA_GPW| Active atom-composite max gradient   1.1441801560912854E+00
    22 OT DIIS     0.10E+00   90.4     0.00227514       -49.1163142937 -1.17E-02
 SKALA_GPW| Atom-composite cross support/maxima   2.607069088142E+00   5.971872033966E-02   4.769206447273E-01   2.624241558823E+00
 SKALA_GPW| Active atom-composite XC energy  -1.6051872107484897E+01
 SKALA_GPW| Active atom-composite electrons   3.7999924750513919E+01
 SKALA_GPW| Active atom-composite density range  -5.5122148642373622E-09   3.2759375543566871E-01
 SKALA_GPW| Active atom-composite tau range  -7.7334255035082061E-08   6.2336524368518687E+00
 SKALA_GPW| Active atom-composite tau integral   3.8501892780337634E+01
 SKALA_GPW| Active atom-composite max gradient   1.1420051567882910E+00
    23 OT DIIS     0.10E+00   88.8     0.00209065       -49.1226843907 -6.37E-03
 SKALA_GPW| Atom-composite cross support/maxima   2.607069088142E+00   5.973521785233E-02   4.765739972102E-01   2.624342016378E+00
 SKALA_GPW| Active atom-composite XC energy  -1.6053570379225437E+01
 SKALA_GPW| Active atom-composite electrons   3.7999924698134137E+01
 SKALA_GPW| Active atom-composite density range  -5.5173248008319361E-09   3.2705987169896816E-01
 SKALA_GPW| Active atom-composite tau range  -7.8423735498848083E-08   6.2345606505386169E+00
 SKALA_GPW| Active atom-composite tau integral   3.8505458768994750E+01
 SKALA_GPW| Active atom-composite max gradient   1.1402980428130713E+00
    24 OT DIIS     0.10E+00   89.2     0.00198707       -49.1301503847 -7.47E-03
 SKALA_GPW| Atom-composite cross support/maxima   2.607069088142E+00   5.970269417029E-02   4.763845082277E-01   2.624827215992E+00
 SKALA_GPW| Active atom-composite XC energy  -1.6055049745576277E+01
 SKALA_GPW| Active atom-composite electrons   3.7999924617923455E+01
 SKALA_GPW| Active atom-composite density range  -5.5229887271087954E-09   3.2680731496580151E-01
 SKALA_GPW| Active atom-composite tau range  -7.9323959305305442E-08   6.2353089725891220E+00
 SKALA_GPW| Active atom-composite tau integral   3.8507672704744785E+01
 SKALA_GPW| Active atom-composite max gradient   1.1394940793750736E+00
    25 OT DIIS     0.10E+00   88.7     0.00182244       -49.1359530461 -5.80E-03
 SKALA_GPW| Atom-composite cross support/maxima   2.607069088142E+00   5.965914193407E-02   4.762442582402E-01   2.625042887783E+00
 SKALA_GPW| Active atom-composite XC energy  -1.6056412575298470E+01
 SKALA_GPW| Active atom-composite electrons   3.7999924511113662E+01
 SKALA_GPW| Active atom-composite density range  -5.5257587781704218E-09   3.2656046944912992E-01
 SKALA_GPW| Active atom-composite tau range  -7.9945020195335312E-08   6.2354096552846645E+00
 SKALA_GPW| Active atom-composite tau integral   3.8508194840670747E+01
 SKALA_GPW| Active atom-composite max gradient   1.1387198518170607E+00
    26 OT DIIS     0.10E+00   89.1     0.00169586       -49.1424613529 -6.51E-03
 SKALA_GPW| Atom-composite cross support/maxima   2.607069088142E+00   5.961570710526E-02   4.762346059478E-01   2.625315168317E+00
 SKALA_GPW| Active atom-composite XC energy  -1.6057401214691499E+01
 SKALA_GPW| Active atom-composite electrons   3.7999924405466231E+01
 SKALA_GPW| Active atom-composite density range  -5.5315017647294955E-09   3.2651071602496429E-01
 SKALA_GPW| Active atom-composite tau range  -8.0347797812001693E-08   6.2355852687368092E+00
 SKALA_GPW| Active atom-composite tau integral   3.8508243490648923E+01
 SKALA_GPW| Active atom-composite max gradient   1.1385916330181509E+00
    27 OT DIIS     0.10E+00   89.5     0.00161797       -49.1475463318 -5.08E-03
 SKALA_GPW| Atom-composite cross support/maxima   2.607069088142E+00   5.954674546110E-02   4.762413198911E-01   2.625807421290E+00
 SKALA_GPW| Active atom-composite XC energy  -1.6057949007373360E+01
 SKALA_GPW| Active atom-composite electrons   3.7999924296882917E+01
 SKALA_GPW| Active atom-composite density range  -5.5294224093864594E-09   3.2650151953451995E-01
 SKALA_GPW| Active atom-composite tau range  -8.0242668513149963E-08   6.2356948672582782E+00
 SKALA_GPW| Active atom-composite tau integral   3.8506705855476241E+01
 SKALA_GPW| Active atom-composite max gradient   1.1386194990211609E+00
    28 OT DIIS     0.10E+00   89.0     0.00152888       -49.1528402155 -5.29E-03
 SKALA_GPW| Atom-composite cross support/maxima   2.607069088142E+00   5.952466087041E-02   4.763068621683E-01   2.626492440902E+00
 SKALA_GPW| Active atom-composite XC energy  -1.6058293765153479E+01
 SKALA_GPW| Active atom-composite electrons   3.7999924188500508E+01
 SKALA_GPW| Active atom-composite density range  -5.5296308767848927E-09   3.2664611288540285E-01
 SKALA_GPW| Active atom-composite tau range  -7.9967877004473322E-08   6.2359316666382831E+00
 SKALA_GPW| Active atom-composite tau integral   3.8502920642271860E+01
 SKALA_GPW| Active atom-composite max gradient   1.1391238490933682E+00
    29 OT DIIS     0.10E+00   89.1     0.00144098       -49.1576341729 -4.79E-03
 SKALA_GPW| Atom-composite cross support/maxima   2.607069088142E+00   5.951736817238E-02   4.762373554374E-01   2.627001631013E+00
 SKALA_GPW| Active atom-composite XC energy  -1.6058489529414643E+01
 SKALA_GPW| Active atom-composite electrons   3.7999924125019206E+01
 SKALA_GPW| Active atom-composite density range  -5.5272113407256551E-09   3.2671870866670127E-01
 SKALA_GPW| Active atom-composite tau range  -7.9472019540223083E-08   6.2363068527594869E+00
 SKALA_GPW| Active atom-composite tau integral   3.8500261407682288E+01
 SKALA_GPW| Active atom-composite max gradient   1.1393799376033047E+00
    30 OT DIIS     0.10E+00   88.6     0.00136758       -49.1628489240 -5.21E-03
 SKALA_GPW| Atom-composite cross support/maxima   2.607069088142E+00   5.951706979324E-02   4.761737788363E-01   2.627605411992E+00
 SKALA_GPW| Active atom-composite XC energy  -1.6058229305240744E+01
 SKALA_GPW| Active atom-composite electrons   3.7999924086522320E+01
 SKALA_GPW| Active atom-composite density range  -5.5227579972229519E-09   3.2684409344957455E-01
 SKALA_GPW| Active atom-composite tau range  -7.8894528180849066E-08   6.2365700747593245E+00
 SKALA_GPW| Active atom-composite tau integral   3.8494942350598350E+01
 SKALA_GPW| Active atom-composite max gradient   1.1397724638965321E+00
    31 OT DIIS     0.10E+00   89.2     0.00129851       -49.1663596864 -3.51E-03
 SKALA_GPW| Atom-composite cross support/maxima   2.607069088142E+00   5.950417458465E-02   4.758581243408E-01   2.627760022142E+00
 SKALA_GPW| Active atom-composite XC energy  -1.6058109711145590E+01
 SKALA_GPW| Active atom-composite electrons   3.7999924058812908E+01
 SKALA_GPW| Active atom-composite density range  -5.5143700267697081E-09   3.2691220290327488E-01
 SKALA_GPW| Active atom-composite tau range  -7.8064935597740226E-08   6.2366461659799093E+00
 SKALA_GPW| Active atom-composite tau integral   3.8489506592745840E+01
 SKALA_GPW| Active atom-composite max gradient   1.1399211849556825E+00
    32 OT DIIS     0.10E+00   89.1     0.00123270       -49.1714020942 -5.04E-03
 SKALA_GPW| Atom-composite cross support/maxima   2.607069088142E+00   5.949124024229E-02   4.755504681985E-01   2.627060032607E+00
 SKALA_GPW| Active atom-composite XC energy  -1.6058014643069324E+01
 SKALA_GPW| Active atom-composite electrons   3.7999924061308441E+01
 SKALA_GPW| Active atom-composite density range  -5.5064932459836716E-09   3.2694020157226283E-01
 SKALA_GPW| Active atom-composite tau range  -7.7455439793899132E-08   6.2362397755682890E+00
 SKALA_GPW| Active atom-composite tau integral   3.8485506222970301E+01
 SKALA_GPW| Active atom-composite max gradient   1.1399394531278018E+00
    33 OT DIIS     0.10E+00   88.6     0.00115876       -49.1751709456 -3.77E-03
 SKALA_GPW| Atom-composite cross support/maxima   2.607069088142E+00   5.946568683372E-02   4.751143661478E-01   2.625697805519E+00
 SKALA_GPW| Active atom-composite XC energy  -1.6057836285340155E+01
 SKALA_GPW| Active atom-composite electrons   3.7999924059822568E+01
 SKALA_GPW| Active atom-composite density range  -5.4968483253880002E-09   3.2692883675791773E-01
 SKALA_GPW| Active atom-composite tau range  -7.6929267450255718E-08   6.2359109501933423E+00
 SKALA_GPW| Active atom-composite tau integral   3.8479739163444478E+01
 SKALA_GPW| Active atom-composite max gradient   1.1398221606741914E+00
    34 OT DIIS     0.10E+00   88.3     0.00108073       -49.1788409660 -3.67E-03
 SKALA_GPW| Atom-composite cross support/maxima   2.607069088142E+00   5.943873745816E-02   4.746888350037E-01   2.624100411270E+00
 SKALA_GPW| Active atom-composite XC energy  -1.6057878933156228E+01
 SKALA_GPW| Active atom-composite electrons   3.7999924052284577E+01
 SKALA_GPW| Active atom-composite density range  -5.4858860229830110E-09   3.2688755390258939E-01
 SKALA_GPW| Active atom-composite tau range  -7.6551508864445203E-08   6.2354145803975225E+00
 SKALA_GPW| Active atom-composite tau integral   3.8475889951337003E+01
 SKALA_GPW| Active atom-composite max gradient   1.1396469478435192E+00
    35 OT DIIS     0.10E+00   89.0     0.00102930       -49.1818687938 -3.03E-03
 SKALA_GPW| Atom-composite cross support/maxima   2.607069088142E+00   5.940710695981E-02   4.742084848539E-01   2.622030696016E+00
 SKALA_GPW| Active atom-composite XC energy  -1.6058077880990922E+01
 SKALA_GPW| Active atom-composite electrons   3.7999924038478689E+01
 SKALA_GPW| Active atom-composite density range  -5.4779996818483687E-09   3.2682122048389683E-01
 SKALA_GPW| Active atom-composite tau range  -7.6462989482972841E-08   6.2348843142973420E+00
 SKALA_GPW| Active atom-composite tau integral   3.8472802225515842E+01
 SKALA_GPW| Active atom-composite max gradient   1.1393854418473501E+00
    36 OT DIIS     0.10E+00   88.8     0.00095740       -49.1848133795 -2.94E-03
 SKALA_GPW| Atom-composite cross support/maxima   2.607069088142E+00   5.937760678616E-02   4.738053544423E-01   2.620021626664E+00
 SKALA_GPW| Active atom-composite XC energy  -1.6058121225651604E+01
 SKALA_GPW| Active atom-composite electrons   3.7999924013227307E+01
 SKALA_GPW| Active atom-composite density range  -5.4706968756411365E-09   3.2673596943699423E-01
 SKALA_GPW| Active atom-composite tau range  -7.6540706375536745E-08   6.2345812735410426E+00
 SKALA_GPW| Active atom-composite tau integral   3.8469710239684204E+01
 SKALA_GPW| Active atom-composite max gradient   1.1391046937232385E+00
    37 OT DIIS     0.10E+00   88.6     0.00089506       -49.1870901529 -2.28E-03
 SKALA_GPW| Atom-composite cross support/maxima   2.607069088142E+00   5.935069063955E-02   4.733544152231E-01   2.617997277647E+00
 SKALA_GPW| Active atom-composite XC energy  -1.6058485160561251E+01
 SKALA_GPW| Active atom-composite electrons   3.7999923964148493E+01
 SKALA_GPW| Active atom-composite density range  -5.4646524822697505E-09   3.2662903336417737E-01
 SKALA_GPW| Active atom-composite tau range  -7.6816149340942662E-08   6.2339412068474136E+00
 SKALA_GPW| Active atom-composite tau integral   3.8468137594024213E+01
 SKALA_GPW| Active atom-composite max gradient   1.1387653145363479E+00
    38 OT DIIS     0.10E+00   88.6     0.00083909       -49.1894873673 -2.40E-03
 SKALA_GPW| Atom-composite cross support/maxima   2.607069088142E+00   5.933484456894E-02   4.730596566317E-01   2.616675412193E+00
 SKALA_GPW| Active atom-composite XC energy  -1.6058603432732191E+01
 SKALA_GPW| Active atom-composite electrons   3.7999923923404076E+01
 SKALA_GPW| Active atom-composite density range  -5.4626229980276305E-09   3.2653405616280257E-01
 SKALA_GPW| Active atom-composite tau range  -7.7142224608515863E-08   6.2337080829523543E+00
 SKALA_GPW| Active atom-composite tau integral   3.8467073053842093E+01
 SKALA_GPW| Active atom-composite max gradient   1.1384695651885690E+00
    39 OT DIIS     0.10E+00   88.8     0.00079839       -49.1909808446 -1.49E-03
 SKALA_GPW| Atom-composite cross support/maxima   2.607069088142E+00   5.932422835162E-02   4.727465916076E-01   2.615269901087E+00
 SKALA_GPW| Active atom-composite XC energy  -1.6058836031259393E+01
 SKALA_GPW| Active atom-composite electrons   3.7999923875866131E+01
 SKALA_GPW| Active atom-composite density range  -5.4614872397050762E-09   3.2642637239064021E-01
 SKALA_GPW| Active atom-composite tau range  -7.7518975426988815E-08   6.2332430349295826E+00
 SKALA_GPW| Active atom-composite tau integral   3.8467371873080168E+01
 SKALA_GPW| Active atom-composite max gradient   1.1381272027592615E+00
    40 OT DIIS     0.10E+00   88.5     0.00074741       -49.1926114370 -1.63E-03
 SKALA_GPW| Atom-composite cross support/maxima   2.607069088142E+00   5.931794508092E-02   4.724950342992E-01   2.614390847963E+00
 SKALA_GPW| Active atom-composite XC energy  -1.6059016267569447E+01
 SKALA_GPW| Active atom-composite electrons   3.7999923837343431E+01
 SKALA_GPW| Active atom-composite density range  -5.4615466900996124E-09   3.2634285281682129E-01
 SKALA_GPW| Active atom-composite tau range  -7.7774523242938033E-08   6.2327059868495613E+00
 SKALA_GPW| Active atom-composite tau integral   3.8467657347973557E+01
 SKALA_GPW| Active atom-composite max gradient   1.1378545215562879E+00
    41 OT DIIS     0.10E+00   87.9     0.00070823       -49.1938390964 -1.23E-03
 SKALA_GPW| Atom-composite cross support/maxima   2.607069088142E+00   5.932008083810E-02   4.723235324085E-01   2.613953805529E+00
 SKALA_GPW| Active atom-composite XC energy  -1.6059006580589173E+01
 SKALA_GPW| Active atom-composite electrons   3.7999923803625663E+01
 SKALA_GPW| Active atom-composite density range  -5.4639502381459509E-09   3.2627161814506633E-01
 SKALA_GPW| Active atom-composite tau range  -7.8004443558514911E-08   6.2325257874556330E+00
 SKALA_GPW| Active atom-composite tau integral   3.8467698634596481E+01
 SKALA_GPW| Active atom-composite max gradient   1.1376280684983540E+00
    42 OT DIIS     0.10E+00   88.1     0.00067620       -49.1948644179 -1.03E-03
 SKALA_GPW| Atom-composite cross support/maxima   2.607069088142E+00   5.932140528248E-02   4.721802431142E-01   2.613553052284E+00
 SKALA_GPW| Active atom-composite XC energy  -1.6059099706953447E+01
 SKALA_GPW| Active atom-composite electrons   3.7999923783574296E+01
 SKALA_GPW| Active atom-composite density range  -5.4671562904545984E-09   3.2623188522942403E-01
 SKALA_GPW| Active atom-composite tau range  -7.8156701962319945E-08   6.2322788119479098E+00
 SKALA_GPW| Active atom-composite tau integral   3.8468733013358566E+01
 SKALA_GPW| Active atom-composite max gradient   1.1374837085456204E+00
    43 OT DIIS     0.10E+00   89.2     0.00064549       -49.1957367123 -8.72E-04
 SKALA_GPW| Atom-composite cross support/maxima   2.607069088142E+00   5.932245368895E-02   4.720824283299E-01   2.613331545919E+00
 SKALA_GPW| Active atom-composite XC energy  -1.6059197136442869E+01
 SKALA_GPW| Active atom-composite electrons   3.7999923770890526E+01
 SKALA_GPW| Active atom-composite density range  -5.4694627483795204E-09   3.2621134108414973E-01
 SKALA_GPW| Active atom-composite tau range  -7.8214281295358590E-08   6.2320699222593472E+00
 SKALA_GPW| Active atom-composite tau integral   3.8469824515497038E+01
 SKALA_GPW| Active atom-composite max gradient   1.1374210467428518E+00
    44 OT DIIS     0.10E+00   88.8     0.00062081       -49.1964487440 -7.12E-04
 SKALA_GPW| Atom-composite cross support/maxima   2.607069088142E+00   5.932419222441E-02   4.720024533723E-01   2.613282265492E+00
 SKALA_GPW| Active atom-composite XC energy  -1.6059258390477879E+01
 SKALA_GPW| Active atom-composite electrons   3.7999923764516041E+01
 SKALA_GPW| Active atom-composite density range  -5.4720627566911404E-09   3.2621628529973545E-01
 SKALA_GPW| Active atom-composite tau range  -7.8220714920725705E-08   6.2319297811316794E+00
 SKALA_GPW| Active atom-composite tau integral   3.8470392463676511E+01
 SKALA_GPW| Active atom-composite max gradient   1.1374362901977935E+00
    45 OT DIIS     0.10E+00   88.8     0.00059654       -49.1970478014 -5.99E-04
 SKALA_GPW| Atom-composite cross support/maxima   2.607069088142E+00   5.932149576000E-02   4.719249729104E-01   2.613015114401E+00
 SKALA_GPW| Active atom-composite XC energy  -1.6059359229851012E+01
 SKALA_GPW| Active atom-composite electrons   3.7999923760228327E+01
 SKALA_GPW| Active atom-composite density range  -5.4733312185577699E-09   3.2625488166601546E-01
 SKALA_GPW| Active atom-composite tau range  -7.8148637630474033E-08   6.2317326049591468E+00
 SKALA_GPW| Active atom-composite tau integral   3.8471067908961565E+01
 SKALA_GPW| Active atom-composite max gradient   1.1375627798384811E+00
    46 OT DIIS     0.10E+00   88.8     0.00057332       -49.1977588923 -7.11E-04
 SKALA_GPW| Atom-composite cross support/maxima   2.607069088142E+00   5.931877888428E-02   4.718605819175E-01   2.612822357705E+00
 SKALA_GPW| Active atom-composite XC energy  -1.6059482531652300E+01
 SKALA_GPW| Active atom-composite electrons   3.7999923756993532E+01
 SKALA_GPW| Active atom-composite density range  -5.4732419612174341E-09   3.2630605071912866E-01
 SKALA_GPW| Active atom-composite tau range  -7.8043075835949363E-08   6.2315666864824850E+00
 SKALA_GPW| Active atom-composite tau integral   3.8471638427813133E+01
 SKALA_GPW| Active atom-composite max gradient   1.1377355169211896E+00
    47 OT DIIS     0.10E+00   88.9     0.00056114       -49.1983371725 -5.78E-04
 SKALA_GPW| Atom-composite cross support/maxima   2.607069088142E+00   5.931457524439E-02   4.717962288104E-01   2.612597397547E+00
 SKALA_GPW| Active atom-composite XC energy  -1.6059610317667907E+01
 SKALA_GPW| Active atom-composite electrons   3.7999923752704568E+01
 SKALA_GPW| Active atom-composite density range  -5.4719049497675073E-09   3.2637208019116515E-01
 SKALA_GPW| Active atom-composite tau range  -7.7897676914656342E-08   6.2313077246323303E+00
 SKALA_GPW| Active atom-composite tau integral   3.8471769916672940E+01
 SKALA_GPW| Active atom-composite max gradient   1.1379527467234762E+00
    48 OT DIIS     0.10E+00   88.3     0.00054226       -49.1988927555 -5.56E-04
 SKALA_GPW| Atom-composite cross support/maxima   2.607069088142E+00   5.931137734454E-02   4.717353541994E-01   2.612293580878E+00
 SKALA_GPW| Active atom-composite XC energy  -1.6059696004039868E+01
 SKALA_GPW| Active atom-composite electrons   3.7999923746260485E+01
 SKALA_GPW| Active atom-composite density range  -5.4698850192173264E-09   3.2642844202394833E-01
 SKALA_GPW| Active atom-composite tau range  -7.7770635310852649E-08   6.2311605248455635E+00
 SKALA_GPW| Active atom-composite tau integral   3.8471781769210395E+01
 SKALA_GPW| Active atom-composite max gradient   1.1381315792836539E+00
    49 OT DIIS     0.10E+00   89.0     0.00052713       -49.1993565408 -4.64E-04
 SKALA_GPW| Atom-composite cross support/maxima   2.607069088142E+00   5.930768913915E-02   4.716714269631E-01   2.611967313571E+00
 SKALA_GPW| Active atom-composite XC energy  -1.6059786979376106E+01
 SKALA_GPW| Active atom-composite electrons   3.7999923736923861E+01
 SKALA_GPW| Active atom-composite density range  -5.4671189243491144E-09   3.2649687191281151E-01
 SKALA_GPW| Active atom-composite tau range  -7.7629099600814394E-08   6.2309000656636497E+00
 SKALA_GPW| Active atom-composite tau integral   3.8471434914113630E+01
 SKALA_GPW| Active atom-composite max gradient   1.1383437366901186E+00
    50 OT DIIS     0.10E+00   88.8     0.00051634       -49.1998353624 -4.79E-04
 SKALA_GPW| Atom-composite cross support/maxima   2.607069088142E+00   5.930550661802E-02   4.715966901449E-01   2.611624540618E+00
 SKALA_GPW| Active atom-composite XC energy  -1.6059865710005077E+01
 SKALA_GPW| Active atom-composite electrons   3.7999923726976199E+01
 SKALA_GPW| Active atom-composite density range  -5.4640966782909025E-09   3.2654285543440587E-01
 SKALA_GPW| Active atom-composite tau range  -7.7514825196832223E-08   6.2306619567037815E+00
 SKALA_GPW| Active atom-composite tau integral   3.8471157265993888E+01
 SKALA_GPW| Active atom-composite max gradient   1.1384871256382607E+00
    51 OT DIIS     0.10E+00   88.4     0.00050468       -49.2002831520 -4.48E-04
 SKALA_GPW| Atom-composite cross support/maxima   2.607069088142E+00   5.930385311669E-02   4.715023215837E-01   2.611252743623E+00
 SKALA_GPW| Active atom-composite XC energy  -1.6059921927158516E+01
 SKALA_GPW| Active atom-composite electrons   3.7999923716434843E+01
 SKALA_GPW| Active atom-composite density range  -5.4615228424102494E-09   3.2658320239487659E-01
 SKALA_GPW| Active atom-composite tau range  -7.7425702552783296E-08   6.2304615173972575E+00
 SKALA_GPW| Active atom-composite tau integral   3.8470602845336884E+01
 SKALA_GPW| Active atom-composite max gradient   1.1386001245534083E+00
    52 OT DIIS     0.10E+00   88.9     0.00049374       -49.2007608471 -4.78E-04
 SKALA_GPW| Atom-composite cross support/maxima   2.607069088142E+00   5.930231845561E-02   4.714138779393E-01   2.610832064181E+00
 SKALA_GPW| Active atom-composite XC energy  -1.6059941344569836E+01
 SKALA_GPW| Active atom-composite electrons   3.7999923706576993E+01
 SKALA_GPW| Active atom-composite density range  -5.4593503215610742E-09   3.2660450820012910E-01
 SKALA_GPW| Active atom-composite tau range  -7.7390739518258115E-08   6.2302683574476418E+00
 SKALA_GPW| Active atom-composite tau integral   3.8469988386063406E+01
 SKALA_GPW| Active atom-composite max gradient   1.1386560156717609E+00
    53 OT DIIS     0.10E+00   89.3     0.00048261       -49.2012084289 -4.48E-04
 SKALA_GPW| Atom-composite cross support/maxima   2.607069088142E+00   5.930153558741E-02   4.712732710818E-01   2.610395609932E+00
 SKALA_GPW| Active atom-composite XC energy  -1.6059943588016324E+01
 SKALA_GPW| Active atom-composite electrons   3.7999923699245166E+01
 SKALA_GPW| Active atom-composite density range  -5.4581417128734123E-09   3.2659350561644473E-01
 SKALA_GPW| Active atom-composite tau range  -7.7427711102147125E-08   6.2301556602678900E+00
 SKALA_GPW| Active atom-composite tau integral   3.8469245967836713E+01
 SKALA_GPW| Active atom-composite max gradient   1.1386123757093254E+00
    54 OT DIIS     0.10E+00   89.0     0.00046906       -49.2017453209 -5.37E-04
 SKALA_GPW| Atom-composite cross support/maxima   2.607069088142E+00   5.929963789967E-02   4.711281459300E-01   2.609964815778E+00
 SKALA_GPW| Active atom-composite XC energy  -1.6059937619371471E+01
 SKALA_GPW| Active atom-composite electrons   3.7999923696261405E+01
 SKALA_GPW| Active atom-composite density range  -5.4578529617667834E-09   3.2656498253124305E-01
 SKALA_GPW| Active atom-composite tau range  -7.7513608343843346E-08   6.2301265201973735E+00
 SKALA_GPW| Active atom-composite tau integral   3.8468517618026212E+01
 SKALA_GPW| Active atom-composite max gradient   1.1385171303112203E+00
    55 OT DIIS     0.10E+00   89.2     0.00045938       -49.2022534029 -5.08E-04
 SKALA_GPW| Atom-composite cross support/maxima   2.607069088142E+00   5.929740078744E-02   4.709594469286E-01   2.609500813535E+00
 SKALA_GPW| Active atom-composite XC energy  -1.6059908018371630E+01
 SKALA_GPW| Active atom-composite electrons   3.7999923697425075E+01
 SKALA_GPW| Active atom-composite density range  -5.4586169227163472E-09   3.2651228381142183E-01
 SKALA_GPW| Active atom-composite tau range  -7.7669888014902192E-08   6.2302133274363598E+00
 SKALA_GPW| Active atom-composite tau integral   3.8467836552777868E+01
 SKALA_GPW| Active atom-composite max gradient   1.1383527883647888E+00
    56 OT DIIS     0.10E+00   89.1     0.00044938       -49.2027762555 -5.23E-04
 SKALA_GPW| Atom-composite cross support/maxima   2.607069088142E+00   5.929419965029E-02   4.707868756356E-01   2.609106872938E+00
 SKALA_GPW| Active atom-composite XC energy  -1.6059893458510516E+01
 SKALA_GPW| Active atom-composite electrons   3.7999923701589637E+01
 SKALA_GPW| Active atom-composite density range  -5.4599023869080992E-09   3.2644872650969881E-01
 SKALA_GPW| Active atom-composite tau range  -7.7847377301076736E-08   6.2302907198292967E+00
 SKALA_GPW| Active atom-composite tau integral   3.8467232805966361E+01
 SKALA_GPW| Active atom-composite max gradient   1.1381642409854913E+00
    57 OT DIIS     0.10E+00   88.9     0.00043751       -49.2032475533 -4.71E-04
 SKALA_GPW| Atom-composite cross support/maxima   2.607069088142E+00   5.929002439181E-02   4.705704505259E-01   2.608641447386E+00
 SKALA_GPW| Active atom-composite XC energy  -1.6059877388799208E+01
 SKALA_GPW| Active atom-composite electrons   3.7999923708823715E+01
 SKALA_GPW| Active atom-composite density range  -5.4614974309384101E-09   3.2636201566379930E-01
 SKALA_GPW| Active atom-composite tau range  -7.8061428806080920E-08   6.2305101597046484E+00
 SKALA_GPW| Active atom-composite tau integral   3.8466602867686412E+01
 SKALA_GPW| Active atom-composite max gradient   1.1379117510524028E+00
    58 OT DIIS     0.10E+00   88.8     0.00042712       -49.2037823233 -5.35E-04
 SKALA_GPW| Atom-composite cross support/maxima   2.607069088142E+00   5.928600481328E-02   4.703906403778E-01   2.608252790547E+00
 SKALA_GPW| Active atom-composite XC energy  -1.6059880409880222E+01
 SKALA_GPW| Active atom-composite electrons   3.7999923715658547E+01
 SKALA_GPW| Active atom-composite density range  -5.4632458198266429E-09   3.2629418732143062E-01
 SKALA_GPW| Active atom-composite tau range  -7.8241791081652073E-08   6.2306705838925645E+00
 SKALA_GPW| Active atom-composite tau integral   3.8466176215252517E+01
 SKALA_GPW| Active atom-composite max gradient   1.1377127623637293E+00
    59 OT DIIS     0.10E+00   88.9     0.00041668       -49.2042031834 -4.21E-04
 SKALA_GPW| Atom-composite cross support/maxima   2.607069088142E+00   5.928211969627E-02   4.702169947921E-01   2.607844836927E+00
 SKALA_GPW| Active atom-composite XC energy  -1.6059909369263526E+01
 SKALA_GPW| Active atom-composite electrons   3.7999923720356101E+01
 SKALA_GPW| Active atom-composite density range  -5.4641204773243057E-09   3.2623214699839603E-01
 SKALA_GPW| Active atom-composite tau range  -7.8379192042436045E-08   6.2307714018882887E+00
 SKALA_GPW| Active atom-composite tau integral   3.8465962422069779E+01
 SKALA_GPW| Active atom-composite max gradient   1.1375391130896650E+00
    60 OT DIIS     0.10E+00   89.3     0.00040725       -49.2046044851 -4.01E-04
 SKALA_GPW| Atom-composite cross support/maxima   2.607069088142E+00   5.927900147573E-02   4.700490447969E-01   2.607502592404E+00
 SKALA_GPW| Active atom-composite XC energy  -1.6059965065576961E+01
 SKALA_GPW| Active atom-composite electrons   3.7999923722568361E+01
 SKALA_GPW| Active atom-composite density range  -5.4646004020788700E-09   3.2618544182649961E-01
 SKALA_GPW| Active atom-composite tau range  -7.8455551025381882E-08   6.2308424768408770E+00
 SKALA_GPW| Active atom-composite tau integral   3.8465801201132393E+01
 SKALA_GPW| Active atom-composite max gradient   1.1374074597019277E+00
    61 OT DIIS     0.10E+00   88.8     0.00039908       -49.2049752907 -3.71E-04
 SKALA_GPW| Atom-composite cross support/maxima   2.607069088142E+00   5.927610140006E-02   4.698769828263E-01   2.607041154868E+00
 SKALA_GPW| Active atom-composite XC energy  -1.6060044124863012E+01
 SKALA_GPW| Active atom-composite electrons   3.7999923720000197E+01
 SKALA_GPW| Active atom-composite density range  -5.4642710186069015E-09   3.2615610995294120E-01
 SKALA_GPW| Active atom-composite tau range  -7.8471570731178115E-08   6.2308055069720911E+00
 SKALA_GPW| Active atom-composite tau integral   3.8465735055603325E+01
 SKALA_GPW| Active atom-composite max gradient   1.1373251271772746E+00
    62 OT DIIS     0.10E+00   88.5     0.00038844       -49.2054048365 -4.30E-04
 SKALA_GPW| Atom-composite cross support/maxima   2.607069088142E+00   5.927514433182E-02   4.697514527279E-01   2.606691868701E+00
 SKALA_GPW| Active atom-composite XC energy  -1.6060140997139680E+01
 SKALA_GPW| Active atom-composite electrons   3.7999923714537111E+01
 SKALA_GPW| Active atom-composite density range  -5.4634256735516558E-09   3.2615102072997437E-01
 SKALA_GPW| Active atom-composite tau range  -7.8428595035721980E-08   6.2306952301646383E+00
 SKALA_GPW| Active atom-composite tau integral   3.8465992565802480E+01
 SKALA_GPW| Active atom-composite max gradient   1.1373101566602797E+00
    63 OT DIIS     0.10E+00   89.2     0.00038123       -49.2057471574 -3.42E-04
 SKALA_GPW| Atom-composite cross support/maxima   2.607069088142E+00   5.927506671140E-02   4.696514889053E-01   2.606406711989E+00
 SKALA_GPW| Active atom-composite XC energy  -1.6060235341907543E+01
 SKALA_GPW| Active atom-composite electrons   3.7999923705918640E+01
 SKALA_GPW| Active atom-composite density range  -5.4620107062509183E-09   3.2616351327272014E-01
 SKALA_GPW| Active atom-composite tau range  -7.8331957324375230E-08   6.2305122950648322E+00
 SKALA_GPW| Active atom-composite tau integral   3.8466117687430412E+01
 SKALA_GPW| Active atom-composite max gradient   1.1373421118696474E+00
    64 OT DIIS     0.10E+00   88.9     0.00037523       -49.2060607078 -3.14E-04
 SKALA_GPW| Atom-composite cross support/maxima   2.607069088142E+00   5.927615230163E-02   4.695872841006E-01   2.606185117555E+00
 SKALA_GPW| Active atom-composite XC energy  -1.6060302038456626E+01
 SKALA_GPW| Active atom-composite electrons   3.7999923696447347E+01
 SKALA_GPW| Active atom-composite density range  -5.4606146443370542E-09   3.2619116612591637E-01
 SKALA_GPW| Active atom-composite tau range  -7.8220414648767629E-08   6.2303586209933268E+00
 SKALA_GPW| Active atom-composite tau integral   3.8466272382219778E+01
 SKALA_GPW| Active atom-composite max gradient   1.1374126217704581E+00
    65 OT DIIS     0.10E+00   89.2     0.00036867       -49.2063291616 -2.68E-04
 SKALA_GPW| Atom-composite cross support/maxima   2.607069088142E+00   5.927747766251E-02   4.695210630444E-01   2.605974133514E+00
 SKALA_GPW| Active atom-composite XC energy  -1.6060394301139880E+01
 SKALA_GPW| Active atom-composite electrons   3.7999923685999576E+01
 SKALA_GPW| Active atom-composite density range  -5.4591210118668637E-09   3.2622721680381150E-01
 SKALA_GPW| Active atom-composite tau range  -7.8103840448250667E-08   6.2301312477609656E+00
 SKALA_GPW| Active atom-composite tau integral   3.8466556357207111E+01
 SKALA_GPW| Active atom-composite max gradient   1.1375027764895242E+00
    66 OT DIIS     0.10E+00   88.4     0.00036328       -49.2066319146 -3.03E-04
 SKALA_GPW| Atom-composite cross support/maxima   2.607069088142E+00   5.927880191705E-02   4.694804820957E-01   2.605868921800E+00
 SKALA_GPW| Active atom-composite XC energy  -1.6060463902907173E+01
 SKALA_GPW| Active atom-composite electrons   3.7999923678146118E+01
 SKALA_GPW| Active atom-composite density range  -5.4576714814164151E-09   3.2625860937323842E-01
 SKALA_GPW| Active atom-composite tau range  -7.8006784321774902E-08   6.2299784180279714E+00
 SKALA_GPW| Active atom-composite tau integral   3.8466741920942304E+01
 SKALA_GPW| Active atom-composite max gradient   1.1375826506157027E+00
    67 OT DIIS     0.10E+00   89.0     0.00035800       -49.2068616787 -2.30E-04
 SKALA_GPW| Atom-composite cross support/maxima   2.607069088142E+00   5.927959091348E-02   4.694380878282E-01   2.605814066620E+00
 SKALA_GPW| Active atom-composite XC energy  -1.6060520127449784E+01
 SKALA_GPW| Active atom-composite electrons   3.7999923674029375E+01
 SKALA_GPW| Active atom-composite density range  -5.4569625815871094E-09   3.2628312674002652E-01
 SKALA_GPW| Active atom-composite tau range  -7.7962410179138560E-08   6.2298949668454782E+00
 SKALA_GPW| Active atom-composite tau integral   3.8466835754949862E+01
 SKALA_GPW| Active atom-composite max gradient   1.1376379168595903E+00
    68 OT DIIS     0.10E+00   89.1     0.00035347       -49.2070749231 -2.13E-04
 SKALA_GPW| Atom-composite cross support/maxima   2.607069088142E+00   5.927975725572E-02   4.693964234487E-01   2.605753516471E+00
 SKALA_GPW| Active atom-composite XC energy  -1.6060561900868787E+01
 SKALA_GPW| Active atom-composite electrons   3.7999923672527423E+01
 SKALA_GPW| Active atom-composite density range  -5.4564989695932795E-09   3.2629577233950591E-01
 SKALA_GPW| Active atom-composite tau range  -7.7967745938652533E-08   6.2298484459316050E+00
 SKALA_GPW| Active atom-composite tau integral   3.8466909085373139E+01
 SKALA_GPW| Active atom-composite max gradient   1.1376623336348062E+00
    69 OT DIIS     0.10E+00   88.9     0.00034989       -49.2072700729 -1.95E-04
 SKALA_GPW| Atom-composite cross support/maxima   2.607069088142E+00   5.927913837126E-02   4.693247588200E-01   2.605733066695E+00
 SKALA_GPW| Active atom-composite XC energy  -1.6060613438222020E+01
 SKALA_GPW| Active atom-composite electrons   3.7999923674990072E+01
 SKALA_GPW| Active atom-composite density range  -5.4564173479120820E-09   3.2629584514193194E-01
 SKALA_GPW| Active atom-composite tau range  -7.8031832919672302E-08   6.2298857793673790E+00
 SKALA_GPW| Active atom-composite tau integral   3.8466855207769790E+01
 SKALA_GPW| Active atom-composite max gradient   1.1376488220647301E+00
    70 OT DIIS     0.10E+00   87.7     0.00034540       -49.2075188297 -2.49E-04
 SKALA_GPW| Atom-composite cross support/maxima   2.607069088142E+00   5.927790531938E-02   4.692455690763E-01   2.605679310096E+00
 SKALA_GPW| Active atom-composite XC energy  -1.6060648973874834E+01
 SKALA_GPW| Active atom-composite electrons   3.7999923679990815E+01
 SKALA_GPW| Active atom-composite density range  -5.4566113146218019E-09   3.2628049143907084E-01
 SKALA_GPW| Active atom-composite tau range  -7.8128801320471359E-08   6.2299790485558058E+00
 SKALA_GPW| Active atom-composite tau integral   3.8466691044541186E+01
 SKALA_GPW| Active atom-composite max gradient   1.1375948112791874E+00
    71 OT DIIS     0.10E+00   88.8     0.00034216       -49.2077377732 -2.19E-04
 SKALA_GPW| Atom-composite cross support/maxima   2.607069088142E+00   5.927647947538E-02   4.691534323896E-01   2.605601127857E+00
 SKALA_GPW| Active atom-composite XC energy  -1.6060674785605435E+01
 SKALA_GPW| Active atom-composite electrons   3.7999923686302658E+01
 SKALA_GPW| Active atom-composite density range  -5.4571158676317446E-09   3.2625365536228235E-01
 SKALA_GPW| Active atom-composite tau range  -7.8258764727849367E-08   6.2301241441265347E+00
 SKALA_GPW| Active atom-composite tau integral   3.8466484777824064E+01
 SKALA_GPW| Active atom-composite max gradient   1.1375113155246772E+00
    72 OT DIIS     0.10E+00   88.7     0.00033948       -49.2079576977 -2.20E-04
 SKALA_GPW| Atom-composite cross support/maxima   2.607069088142E+00   5.927475755672E-02   4.690547966847E-01   2.605508193622E+00
 SKALA_GPW| Active atom-composite XC energy  -1.6060694549735835E+01
 SKALA_GPW| Active atom-composite electrons   3.7999923693194539E+01
 SKALA_GPW| Active atom-composite density range  -5.4576282038543644E-09   3.2621623304791070E-01
 SKALA_GPW| Active atom-composite tau range  -7.8390580748995702E-08   6.2302706404636989E+00
 SKALA_GPW| Active atom-composite tau integral   3.8466138228784793E+01
 SKALA_GPW| Active atom-composite max gradient   1.1374018763161229E+00
    73 OT DIIS     0.10E+00   87.9     0.00033617       -49.2081582101 -2.01E-04
 SKALA_GPW| Atom-composite cross support/maxima   2.607069088142E+00   5.927320156794E-02   4.689354519894E-01   2.605359628316E+00
 SKALA_GPW| Active atom-composite XC energy  -1.6060718273567865E+01
 SKALA_GPW| Active atom-composite electrons   3.7999923700450680E+01
 SKALA_GPW| Active atom-composite density range  -5.4580528882921752E-09   3.2617142077588496E-01
 SKALA_GPW| Active atom-composite tau range  -7.8517466119935694E-08   6.2304694144502264E+00
 SKALA_GPW| Active atom-composite tau integral   3.8465773818945195E+01
 SKALA_GPW| Active atom-composite max gradient   1.1372727306078252E+00
    74 OT DIIS     0.10E+00   88.7     0.00033320       -49.2083963291 -2.38E-04
 SKALA_GPW| Atom-composite cross support/maxima   2.607069088142E+00   5.927200330682E-02   4.688232262710E-01   2.605198409751E+00
 SKALA_GPW| Active atom-composite XC energy  -1.6060734049408410E+01
 SKALA_GPW| Active atom-composite electrons   3.7999923705832607E+01
 SKALA_GPW| Active atom-composite density range  -5.4585650532907029E-09   3.2612861337569266E-01
 SKALA_GPW| Active atom-composite tau range  -7.8623582043558400E-08   6.2306321063923615E+00
 SKALA_GPW| Active atom-composite tau integral   3.8465371439053932E+01
 SKALA_GPW| Active atom-composite max gradient   1.1371491246341785E+00
    75 OT DIIS     0.10E+00   88.3     0.00033035       -49.2086114675 -2.15E-04
 SKALA_GPW| Atom-composite cross support/maxima   2.607069088142E+00   5.927114507568E-02   4.687063095662E-01   2.604983500925E+00
 SKALA_GPW| Active atom-composite XC energy  -1.6060753169173136E+01
 SKALA_GPW| Active atom-composite electrons   3.7999923709376738E+01
 SKALA_GPW| Active atom-composite density range  -5.4586736077248177E-09   3.2608420888153694E-01
 SKALA_GPW| Active atom-composite tau range  -7.8692202313960483E-08   6.2307674526214702E+00
 SKALA_GPW| Active atom-composite tau integral   3.8464955338334988E+01
 SKALA_GPW| Active atom-composite max gradient   1.1370240312982371E+00
    76 OT DIIS     0.10E+00   88.5     0.00032739       -49.2088470300 -2.36E-04
 SKALA_GPW| Atom-composite cross support/maxima   2.607069088142E+00   5.927069202157E-02   4.685945158709E-01   2.604786572350E+00
 SKALA_GPW| Active atom-composite XC energy  -1.6060780588702947E+01
 SKALA_GPW| Active atom-composite electrons   3.7999923711474167E+01
 SKALA_GPW| Active atom-composite density range  -5.4587074696543040E-09   3.2604678267721021E-01
 SKALA_GPW| Active atom-composite tau range  -7.8715661724506405E-08   6.2308922962977693E+00
 SKALA_GPW| Active atom-composite tau integral   3.8464577795506464E+01
 SKALA_GPW| Active atom-composite max gradient   1.1369168598684816E+00
    77 OT DIIS     0.10E+00   88.6     0.00032439       -49.2090741133 -2.27E-04
 SKALA_GPW| Atom-composite cross support/maxima   2.607069088142E+00   5.927056214714E-02   4.684634463335E-01   2.604500388857E+00
 SKALA_GPW| Active atom-composite XC energy  -1.6060818913062981E+01
 SKALA_GPW| Active atom-composite electrons   3.7999923711027293E+01
 SKALA_GPW| Active atom-composite density range  -5.4584193251458543E-09   3.2600887894819064E-01
 SKALA_GPW| Active atom-composite tau range  -7.8700844590320449E-08   6.2309854034033751E+00
 SKALA_GPW| Active atom-composite tau integral   3.8464165327290424E+01
 SKALA_GPW| Active atom-composite max gradient   1.1368055048443537E+00
    78 OT DIIS     0.10E+00   88.5     0.00032044       -49.2093733710 -2.99E-04
 SKALA_GPW| Atom-composite cross support/maxima   2.607069088142E+00   5.927058274369E-02   4.683635723902E-01   2.604287783484E+00
 SKALA_GPW| Active atom-composite XC energy  -1.6060862621486667E+01
 SKALA_GPW| Active atom-composite electrons   3.7999923709172222E+01
 SKALA_GPW| Active atom-composite density range  -5.4580346574663922E-09   3.2598802842851382E-01
 SKALA_GPW| Active atom-composite tau range  -7.8658455251932809E-08   6.2310222925941137E+00
 SKALA_GPW| Active atom-composite tau integral   3.8463918492532898E+01
 SKALA_GPW| Active atom-composite max gradient   1.1367404415419400E+00
    79 OT DIIS     0.10E+00   88.7     0.00031764       -49.2096252021 -2.52E-04
 SKALA_GPW| Atom-composite cross support/maxima   2.607069088142E+00   5.927042807912E-02   4.682614797342E-01   2.604083013532E+00
 SKALA_GPW| Active atom-composite XC energy  -1.6060924075517804E+01
 SKALA_GPW| Active atom-composite electrons   3.7999923706848449E+01
 SKALA_GPW| Active atom-composite density range  -5.4574062340574446E-09   3.2597313286749330E-01
 SKALA_GPW| Active atom-composite tau range  -7.8592287785330424E-08   6.2310465273153746E+00
 SKALA_GPW| Active atom-composite tau integral   3.8463747239868731E+01
 SKALA_GPW| Active atom-composite max gradient   1.1366885164712954E+00
    80 OT DIIS     0.10E+00   89.0     0.00031503       -49.2098977003 -2.72E-04
 SKALA_GPW| Atom-composite cross support/maxima   2.607069088142E+00   5.927039227461E-02   4.681724972490E-01   2.603915189469E+00
 SKALA_GPW| Active atom-composite XC energy  -1.6060984373856666E+01
 SKALA_GPW| Active atom-composite electrons   3.7999923704041770E+01
 SKALA_GPW| Active atom-composite density range  -5.4568038872963794E-09   3.2596849750233203E-01
 SKALA_GPW| Active atom-composite tau range  -7.8527430793904603E-08   6.2310631739047615E+00
 SKALA_GPW| Active atom-composite tau integral   3.8463669548485775E+01
 SKALA_GPW| Active atom-composite max gradient   1.1366611940828837E+00
    81 OT DIIS     0.10E+00   88.9     0.00031185       -49.2101575073 -2.60E-04
 SKALA_GPW| Atom-composite cross support/maxima   2.607069088142E+00   5.926991132110E-02   4.680822471464E-01   2.603777792697E+00
 SKALA_GPW| Active atom-composite XC energy  -1.6061062696705889E+01
 SKALA_GPW| Active atom-composite electrons   3.7999923701860531E+01
 SKALA_GPW| Active atom-composite density range  -5.4562544918365953E-09   3.2596745951788503E-01
 SKALA_GPW| Active atom-composite tau range  -7.8487904046689624E-08   6.2310497389828594E+00
 SKALA_GPW| Active atom-composite tau integral   3.8463682030317990E+01
 SKALA_GPW| Active atom-composite max gradient   1.1366410761535493E+00
    82 OT DIIS     0.10E+00   88.1     0.00030880       -49.2104195871 -2.62E-04
 SKALA_GPW| Atom-composite cross support/maxima   2.607069088142E+00   5.926934842898E-02   4.680020967648E-01   2.603683539917E+00
 SKALA_GPW| Active atom-composite XC energy  -1.6061137948893460E+01
 SKALA_GPW| Active atom-composite electrons   3.7999923701391715E+01
 SKALA_GPW| Active atom-composite density range  -5.4556936706157498E-09   3.2596669063868844E-01
 SKALA_GPW| Active atom-composite tau range  -7.8471202898582029E-08   6.2310745432168950E+00
 SKALA_GPW| Active atom-composite tau integral   3.8463795445157771E+01
 SKALA_GPW| Active atom-composite max gradient   1.1366238823054173E+00
    83 OT DIIS     0.10E+00   88.7     0.00030580       -49.2106465045 -2.27E-04
 SKALA_GPW| Atom-composite cross support/maxima   2.607069088142E+00   5.926864492945E-02   4.679138898809E-01   2.603631287665E+00
 SKALA_GPW| Active atom-composite XC energy  -1.6061216130415158E+01
 SKALA_GPW| Active atom-composite electrons   3.7999923702409177E+01
 SKALA_GPW| Active atom-composite density range  -5.4554588488716865E-09   3.2596640444258285E-01
 SKALA_GPW| Active atom-composite tau range  -7.8501935058533960E-08   6.2311246166438350E+00
 SKALA_GPW| Active atom-composite tau integral   3.8463904379944132E+01
 SKALA_GPW| Active atom-composite max gradient   1.1366034972622088E+00
    84 OT DIIS     0.10E+00   88.4     0.00030339       -49.2108762745 -2.30E-04
 SKALA_GPW| Atom-composite cross support/maxima   2.607069088142E+00   5.926797555411E-02   4.678328661030E-01   2.603588017624E+00
 SKALA_GPW| Active atom-composite XC energy  -1.6061287908937157E+01
 SKALA_GPW| Active atom-composite electrons   3.7999923704019061E+01
 SKALA_GPW| Active atom-composite density range  -5.4552483628606539E-09   3.2596396256550825E-01
 SKALA_GPW| Active atom-composite tau range  -7.8568754755293933E-08   6.2311675298816267E+00
 SKALA_GPW| Active atom-composite tau integral   3.8464038889138578E+01
 SKALA_GPW| Active atom-composite max gradient   1.1365795718267582E+00
    85 OT DIIS     0.10E+00   88.4     0.00030073       -49.2110847500 -2.08E-04
 SKALA_GPW| Atom-composite cross support/maxima   2.607069088142E+00   5.926729101335E-02   4.677174973084E-01   2.603564991203E+00
 SKALA_GPW| Active atom-composite XC energy  -1.6061389262896501E+01
 SKALA_GPW| Active atom-composite electrons   3.7999923708305388E+01
 SKALA_GPW| Active atom-composite density range  -5.4552493888754952E-09   3.2595431859442070E-01
 SKALA_GPW| Active atom-composite tau range  -7.8688699860186791E-08   6.2312856967885990E+00
 SKALA_GPW| Active atom-composite tau integral   3.8464270908789359E+01
 SKALA_GPW| Active atom-composite max gradient   1.1365332431753137E+00
    86 OT DIIS     0.10E+00   88.5     0.00029736       -49.2113485877 -2.64E-04
 SKALA_GPW| Atom-composite cross support/maxima   2.607069088142E+00   5.926708474865E-02   4.676289000359E-01   2.603554349470E+00
 SKALA_GPW| Active atom-composite XC energy  -1.6061447098110847E+01
 SKALA_GPW| Active atom-composite electrons   3.7999923711926847E+01
 SKALA_GPW| Active atom-composite density range  -5.4553489913740608E-09   3.2594207956429722E-01
 SKALA_GPW| Active atom-composite tau range  -7.8803286309149674E-08   6.2314025331470724E+00
 SKALA_GPW| Active atom-composite tau integral   3.8464307072714021E+01
 SKALA_GPW| Active atom-composite max gradient   1.1364862241102989E+00
    87 OT DIIS     0.10E+00   90.5     0.00029539       -49.2115433412 -1.95E-04
 SKALA_GPW| Atom-composite cross support/maxima   2.607069088142E+00   5.926724461528E-02   4.675412494654E-01   2.603539132249E+00
 SKALA_GPW| Active atom-composite XC energy  -1.6061499605323885E+01
 SKALA_GPW| Active atom-composite electrons   3.7999923715234644E+01
 SKALA_GPW| Active atom-composite density range  -5.4555592007672591E-09   3.2592670793761386E-01
 SKALA_GPW| Active atom-composite tau range  -7.8921693107254179E-08   6.2315225542916242E+00
 SKALA_GPW| Active atom-composite tau integral   3.8464303604826171E+01
 SKALA_GPW| Active atom-composite max gradient   1.1364336776114237E+00
    88 OT DIIS     0.10E+00   89.1     0.00029345       -49.2117350024 -1.92E-04
 SKALA_GPW| Atom-composite cross support/maxima   2.607069088142E+00   5.926751608330E-02   4.674584908358E-01   2.603523542095E+00
 SKALA_GPW| Active atom-composite XC energy  -1.6061547402163956E+01
 SKALA_GPW| Active atom-composite electrons   3.7999923718281885E+01
 SKALA_GPW| Active atom-composite density range  -5.4557161268983872E-09   3.2590773186304617E-01
 SKALA_GPW| Active atom-composite tau range  -7.9021792757173714E-08   6.2316436146262362E+00
 SKALA_GPW| Active atom-composite tau integral   3.8464243581878392E+01
 SKALA_GPW| Active atom-composite max gradient   1.1363749872099889E+00
    89 OT DIIS     0.10E+00   88.9     0.00029152       -49.2119164608 -1.81E-04
 SKALA_GPW| Atom-composite cross support/maxima   2.607069088142E+00   5.926801975859E-02   4.673872803156E-01   2.603498164993E+00
 SKALA_GPW| Active atom-composite XC energy  -1.6061579915248309E+01
 SKALA_GPW| Active atom-composite electrons   3.7999923720943912E+01
 SKALA_GPW| Active atom-composite density range  -5.4558249262210098E-09   3.2588816776162899E-01
 SKALA_GPW| Active atom-composite tau range  -7.9092196571500330E-08   6.2317799784599028E+00
 SKALA_GPW| Active atom-composite tau integral   3.8464114099720597E+01
 SKALA_GPW| Active atom-composite max gradient   1.1363174703582613E+00
    90 OT DIIS     0.10E+00   89.2     0.00028981       -49.2120797320 -1.63E-04
 SKALA_GPW| Atom-composite cross support/maxima   2.607069088142E+00   5.926844336162E-02   4.673256825756E-01   2.603469055557E+00
 SKALA_GPW| Active atom-composite XC energy  -1.6061607130519238E+01
 SKALA_GPW| Active atom-composite electrons   3.7999923722261592E+01
 SKALA_GPW| Active atom-composite density range  -5.4559512828381757E-09   3.2587061127503936E-01
 SKALA_GPW| Active atom-composite tau range  -7.9137076378013189E-08   6.2318777857201981E+00
 SKALA_GPW| Active atom-composite tau integral   3.8463897948311988E+01
 SKALA_GPW| Active atom-composite max gradient   1.1362657566093779E+00
    91 OT DIIS     0.10E+00   88.0     0.00028798       -49.2122304981 -1.51E-04
 SKALA_GPW| Atom-composite cross support/maxima   2.607069088142E+00   5.926875256069E-02   4.672700508645E-01   2.603415009985E+00
 SKALA_GPW| Active atom-composite XC energy  -1.6061632212115985E+01
 SKALA_GPW| Active atom-composite electrons   3.7999923723066026E+01
 SKALA_GPW| Active atom-composite density range  -5.4558872317175596E-09   3.2585070312473235E-01
 SKALA_GPW| Active atom-composite tau range  -7.9147016248086652E-08   6.2319740626879092E+00
 SKALA_GPW| Active atom-composite tau integral   3.8463655243516001E+01
 SKALA_GPW| Active atom-composite max gradient   1.1362107517081530E+00
    92 OT DIIS     0.10E+00   88.3     0.00028668       -49.2123831183 -1.53E-04
 SKALA_GPW| Atom-composite cross support/maxima   2.607069088142E+00   5.926887947389E-02   4.672220050360E-01   2.603366898125E+00
 SKALA_GPW| Active atom-composite XC energy  -1.6061656901632869E+01
 SKALA_GPW| Active atom-composite electrons   3.7999923723948832E+01
 SKALA_GPW| Active atom-composite density range  -5.4558784986330256E-09   3.2583336791145129E-01
 SKALA_GPW| Active atom-composite tau range  -7.9130187201362202E-08   6.2320753517136609E+00
 SKALA_GPW| Active atom-composite tau integral   3.8463417217643403E+01
 SKALA_GPW| Active atom-composite max gradient   1.1361622955387833E+00
    93 OT DIIS     0.10E+00   88.8     0.00028515       -49.2125177903 -1.35E-04
 SKALA_GPW| Atom-composite cross support/maxima   2.607069088142E+00   5.926868207462E-02   4.671632337136E-01   2.603282867254E+00
 SKALA_GPW| Active atom-composite XC energy  -1.6061693852964328E+01
 SKALA_GPW| Active atom-composite electrons   3.7999923724445779E+01
 SKALA_GPW| Active atom-composite density range  -5.4557363690003218E-09   3.2581294687888385E-01
 SKALA_GPW| Active atom-composite tau range  -7.9095983410246181E-08   6.2321835274867547E+00
 SKALA_GPW| Active atom-composite tau integral   3.8463109530264425E+01
 SKALA_GPW| Active atom-composite max gradient   1.1361039235741761E+00
    94 OT DIIS     0.10E+00   88.1     0.00028331       -49.2126960642 -1.78E-04
 SKALA_GPW| Atom-composite cross support/maxima   2.607069088142E+00   5.926822952299E-02   4.671118907411E-01   2.603207575207E+00
 SKALA_GPW| Active atom-composite XC energy  -1.6061729185121198E+01
 SKALA_GPW| Active atom-composite electrons   3.7999923724892348E+01
 SKALA_GPW| Active atom-composite density range  -5.4556575746126171E-09   3.2579581414188563E-01
 SKALA_GPW| Active atom-composite tau range  -7.9057831673310263E-08   6.2322812534128618E+00
 SKALA_GPW| Active atom-composite tau integral   3.8462860171161125E+01
 SKALA_GPW| Active atom-composite max gradient   1.1360544287180236E+00
    95 OT DIIS     0.10E+00   88.6     0.00028219       -49.2128490730 -1.53E-04
 SKALA_GPW| Atom-composite cross support/maxima   2.607069088142E+00   5.926749304071E-02   4.670582931917E-01   2.603127955374E+00
 SKALA_GPW| Active atom-composite XC energy  -1.6061773289283973E+01
 SKALA_GPW| Active atom-composite electrons   3.7999923726027184E+01
 SKALA_GPW| Active atom-composite density range  -5.4555314873653155E-09   3.2578037070401933E-01
 SKALA_GPW| Active atom-composite tau range  -7.9020787173406767E-08   6.2323911281353466E+00
 SKALA_GPW| Active atom-composite tau integral   3.8462680308331002E+01
 SKALA_GPW| Active atom-composite max gradient   1.1360074579118025E+00
    96 OT DIIS     0.10E+00   88.2     0.00028091       -49.2130035715 -1.54E-04
 SKALA_GPW| Atom-composite cross support/maxima   2.607069088142E+00   5.926681851660E-02   4.669973890006E-01   2.603055955915E+00
 SKALA_GPW| Active atom-composite XC energy  -1.6061823888574995E+01
 SKALA_GPW| Active atom-composite electrons   3.7999923727457237E+01
 SKALA_GPW| Active atom-composite density range  -5.4555041443764756E-09   3.2576543971323590E-01
 SKALA_GPW| Active atom-composite tau range  -7.9006054964475174E-08   6.2325177947795538E+00
 SKALA_GPW| Active atom-composite tau integral   3.8462537608121821E+01
 SKALA_GPW| Active atom-composite max gradient   1.1359598641100255E+00
    97 OT DIIS     0.10E+00   88.2     0.00027959       -49.2131652730 -1.62E-04
 SKALA_GPW| Atom-composite cross support/maxima   2.607069088142E+00   5.926611745091E-02   4.669375728357E-01   2.603001545873E+00
 SKALA_GPW| Active atom-composite XC energy  -1.6061874817184272E+01
 SKALA_GPW| Active atom-composite electrons   3.7999923728755924E+01
 SKALA_GPW| Active atom-composite density range  -5.4555362573311136E-09   3.2575297723431051E-01
 SKALA_GPW| Active atom-composite tau range  -7.9012540578058104E-08   6.2326204727130143E+00
 SKALA_GPW| Active atom-composite tau integral   3.8462449083478788E+01
 SKALA_GPW| Active atom-composite max gradient   1.1359179104249151E+00
    98 OT DIIS     0.10E+00   88.3     0.00027846       -49.2133126908 -1.47E-04
 SKALA_GPW| Atom-composite cross support/maxima   2.607069088142E+00   5.926558632764E-02   4.668706114257E-01   2.602951162285E+00
 SKALA_GPW| Active atom-composite XC energy  -1.6061931521611509E+01
 SKALA_GPW| Active atom-composite electrons   3.7999923731072776E+01
 SKALA_GPW| Active atom-composite density range  -5.4555552549544312E-09   3.2574020877595566E-01
 SKALA_GPW| Active atom-composite tau range  -7.9040080014556139E-08   6.2327530810217375E+00
 SKALA_GPW| Active atom-composite tau integral   3.8462448472430971E+01
 SKALA_GPW| Active atom-composite max gradient   1.1358744065612822E+00
    99 OT DIIS     0.10E+00   88.7     0.00027706       -49.2134690530 -1.56E-04
 SKALA_GPW| Atom-composite cross support/maxima   2.607069088142E+00   5.926526445254E-02   4.667874190057E-01   2.602927948966E+00
 SKALA_GPW| Active atom-composite XC energy  -1.6061998483333184E+01
 SKALA_GPW| Active atom-composite electrons   3.7999923733687140E+01
 SKALA_GPW| Active atom-composite density range  -5.4557294044475061E-09   3.2572803564968961E-01
 SKALA_GPW| Active atom-composite tau range  -7.9103371149145958E-08   6.2329042998692650E+00
 SKALA_GPW| Active atom-composite tau integral   3.8462460257194422E+01
 SKALA_GPW| Active atom-composite max gradient   1.1358281504869590E+00
   100 OT DIIS     0.10E+00   88.1     0.00027598       -49.2136478042 -1.79E-04
 SKALA_GPW| Atom-composite cross support/maxima   2.607069088142E+00   5.926518071832E-02   4.667124103551E-01   2.602914482850E+00
 SKALA_GPW| Active atom-composite XC energy  -1.6062057072700703E+01
 SKALA_GPW| Active atom-composite electrons   3.7999923735802049E+01
 SKALA_GPW| Active atom-composite density range  -5.4558232533047603E-09   3.2571786401504815E-01
 SKALA_GPW| Active atom-composite tau range  -7.9182952082464136E-08   6.2330190446629476E+00
 SKALA_GPW| Active atom-composite tau integral   3.8462509366417443E+01
 SKALA_GPW| Active atom-composite max gradient   1.1357887542007581E+00
   101 OT DIIS     0.10E+00   88.4     0.00027452       -49.2138087610 -1.61E-04
 SKALA_GPW| Atom-composite cross support/maxima   2.607069088142E+00   5.926541901378E-02   4.666152364478E-01   2.602922767123E+00
 SKALA_GPW| Active atom-composite XC energy  -1.6062135461544933E+01
 SKALA_GPW| Active atom-composite electrons   3.7999923738962011E+01
 SKALA_GPW| Active atom-composite density range  -5.4559940192374814E-09   3.2570647814107129E-01
 SKALA_GPW| Active atom-composite tau range  -7.9289642168458193E-08   6.2331768130076348E+00
 SKALA_GPW| Active atom-composite tau integral   3.8462627302533313E+01
 SKALA_GPW| Active atom-composite max gradient   1.1357433150386629E+00
   102 OT DIIS     0.10E+00   88.9     0.00027275       -49.2140157128 -2.07E-04
 SKALA_GPW| Atom-composite cross support/maxima   2.607069088142E+00   5.926586568719E-02   4.665298984680E-01   2.602945376254E+00
 SKALA_GPW| Active atom-composite XC energy  -1.6062197438380355E+01
 SKALA_GPW| Active atom-composite electrons   3.7999923741043077E+01
 SKALA_GPW| Active atom-composite density range  -5.4560302772027335E-09   3.2569813967154398E-01
 SKALA_GPW| Active atom-composite tau range  -7.9386272897145667E-08   6.2333049755027092E+00
 SKALA_GPW| Active atom-composite tau integral   3.8462658696358673E+01
 SKALA_GPW| Active atom-composite max gradient   1.1357075288375935E+00
   103 OT DIIS     0.10E+00   88.4     0.00027160       -49.2142065575 -1.91E-04
 SKALA_GPW| Atom-composite cross support/maxima   2.607069088142E+00   5.926656825657E-02   4.664460547252E-01   2.602978884982E+00
 SKALA_GPW| Active atom-composite XC energy  -1.6062258877928244E+01
 SKALA_GPW| Active atom-composite electrons   3.7999923742924715E+01
 SKALA_GPW| Active atom-composite density range  -5.4560907712647160E-09   3.2569069379608773E-01
 SKALA_GPW| Active atom-composite tau range  -7.9484907908907811E-08   6.2334150790376590E+00
 SKALA_GPW| Active atom-composite tau integral   3.8462697528121964E+01
 SKALA_GPW| Active atom-composite max gradient   1.1356753787354352E+00
   104 OT DIIS     0.10E+00   88.0     0.00027020       -49.2144032039 -1.97E-04
 SKALA_GPW| Atom-composite cross support/maxima   2.607069088142E+00   5.926710667923E-02   4.663626488179E-01   2.603006190417E+00
 SKALA_GPW| Active atom-composite XC energy  -1.6062331630666801E+01
 SKALA_GPW| Active atom-composite electrons   3.7999923744512557E+01
 SKALA_GPW| Active atom-composite density range  -5.4559847846887838E-09   3.2568369348190218E-01
 SKALA_GPW| Active atom-composite tau range  -7.9557688424367632E-08   6.2335278574095305E+00
 SKALA_GPW| Active atom-composite tau integral   3.8462745068135973E+01
 SKALA_GPW| Active atom-composite max gradient   1.1356462714918663E+00
   105 OT DIIS     0.10E+00   88.7     0.00026862       -49.2146160927 -2.13E-04
 SKALA_GPW| Atom-composite cross support/maxima   2.607069088142E+00   5.926762894444E-02   4.663009097114E-01   2.603023618397E+00
 SKALA_GPW| Active atom-composite XC energy  -1.6062381011747529E+01
 SKALA_GPW| Active atom-composite electrons   3.7999923745543626E+01
 SKALA_GPW| Active atom-composite density range  -5.4558372536452547E-09   3.2567848284014311E-01
 SKALA_GPW| Active atom-composite tau range  -7.9595926135406875E-08   6.2336256046762184E+00
 SKALA_GPW| Active atom-composite tau integral   3.8462696241315342E+01
 SKALA_GPW| Active atom-composite max gradient   1.1356258305087481E+00
   106 OT DIIS     0.10E+00   89.2     0.00026741       -49.2147907140 -1.75E-04
 SKALA_GPW| Atom-composite cross support/maxima   2.607069088142E+00   5.926796269528E-02   4.662430447555E-01   2.603034393333E+00
 SKALA_GPW| Active atom-composite XC energy  -1.6062432867575740E+01
 SKALA_GPW| Active atom-composite electrons   3.7999923745883194E+01
 SKALA_GPW| Active atom-composite density range  -5.4557197490607879E-09   3.2567352079467515E-01
 SKALA_GPW| Active atom-composite tau range  -7.9614289170152511E-08   6.2337081246763706E+00
 SKALA_GPW| Active atom-composite tau integral   3.8462600998665138E+01
 SKALA_GPW| Active atom-composite max gradient   1.1356073906178397E+00
   107 OT DIIS     0.10E+00   88.1     0.00026580       -49.2149669795 -1.76E-04
 SKALA_GPW| Atom-composite cross support/maxima   2.607069088142E+00   5.926811188049E-02   4.661866384127E-01   2.603017006223E+00
 SKALA_GPW| Active atom-composite XC energy  -1.6062494850354348E+01
 SKALA_GPW| Active atom-composite electrons   3.7999923746188976E+01
 SKALA_GPW| Active atom-composite density range  -5.4554841016222488E-09   3.2566615671407623E-01
 SKALA_GPW| Active atom-composite tau range  -7.9605699251964811E-08   6.2338112355342039E+00
 SKALA_GPW| Active atom-composite tau integral   3.8462510165082080E+01
 SKALA_GPW| Active atom-composite max gradient   1.1355863704123084E+00
   108 OT DIIS     0.10E+00   88.6     0.00026464       -49.2151597177 -1.93E-04
 SKALA_GPW| Atom-composite cross support/maxima   2.607069088142E+00   5.926810371457E-02   4.661421297014E-01   2.602996814711E+00
 SKALA_GPW| Active atom-composite XC energy  -1.6062548192023684E+01
 SKALA_GPW| Active atom-composite electrons   3.7999923746651717E+01
 SKALA_GPW| Active atom-composite density range  -5.4554116494277039E-09   3.2565955509779565E-01
 SKALA_GPW| Active atom-composite tau range  -7.9578639623640609E-08   6.2339215825780405E+00
 SKALA_GPW| Active atom-composite tau integral   3.8462401811360287E+01
 SKALA_GPW| Active atom-composite max gradient   1.1355685908013331E+00
   109 OT DIIS     0.10E+00   88.7     0.00026324       -49.2153172685 -1.58E-04
 SKALA_GPW| Atom-composite cross support/maxima   2.607069088142E+00   5.926795731372E-02   4.660886027044E-01   2.602948405077E+00
 SKALA_GPW| Active atom-composite XC energy  -1.6062615395990129E+01
 SKALA_GPW| Active atom-composite electrons   3.7999923746906255E+01
 SKALA_GPW| Active atom-composite density range  -5.4553527920773971E-09   3.2564882955114866E-01
 SKALA_GPW| Active atom-composite tau range  -7.9544782887785428E-08   6.2340677660250208E+00
 SKALA_GPW| Active atom-composite tau integral   3.8462259088571088E+01
 SKALA_GPW| Active atom-composite max gradient   1.1355414432718298E+00
   110 OT DIIS     0.10E+00   88.5     0.00026150       -49.2155091153 -1.92E-04
 SKALA_GPW| Atom-composite cross support/maxima   2.607069088142E+00   5.926779967408E-02   4.660385300509E-01   2.602901674408E+00
 SKALA_GPW| Active atom-composite XC energy  -1.6062676185232498E+01
 SKALA_GPW| Active atom-composite electrons   3.7999923747267303E+01
 SKALA_GPW| Active atom-composite density range  -5.4554960799363769E-09   3.2563610629407058E-01
 SKALA_GPW| Active atom-composite tau range  -7.9522067299222032E-08   6.2342261164028372E+00
 SKALA_GPW| Active atom-composite tau integral   3.8462126595248094E+01
 SKALA_GPW| Active atom-composite max gradient   1.1355099525026580E+00
   111 OT DIIS     0.10E+00   88.1     0.00026050       -49.2156741294 -1.65E-04
 SKALA_GPW| Atom-composite cross support/maxima   2.607069088142E+00   5.926747098117E-02   4.659902142701E-01   2.602847882184E+00
 SKALA_GPW| Active atom-composite XC energy  -1.6062734322332464E+01
 SKALA_GPW| Active atom-composite electrons   3.7999923748095597E+01
 SKALA_GPW| Active atom-composite density range  -5.4556813887619345E-09   3.2562251426337147E-01
 SKALA_GPW| Active atom-composite tau range  -7.9503909636784132E-08   6.2344008188808866E+00
 SKALA_GPW| Active atom-composite tau integral   3.8462021810719492E+01
 SKALA_GPW| Active atom-composite max gradient   1.1354750662681345E+00
   112 OT DIIS     0.10E+00   88.8     0.00025930       -49.2158261565 -1.52E-04
 SKALA_GPW| Atom-composite cross support/maxima   2.607069088142E+00   5.926742126910E-02   4.659334487318E-01   2.602811920148E+00
 SKALA_GPW| Active atom-composite XC energy  -1.6062795919071938E+01
 SKALA_GPW| Active atom-composite electrons   3.7999923749287760E+01
 SKALA_GPW| Active atom-composite density range  -5.4559919966014301E-09   3.2560742646263241E-01
 SKALA_GPW| Active atom-composite tau range  -7.9516737117894025E-08   6.2345938954522353E+00
 SKALA_GPW| Active atom-composite tau integral   3.8461953558687377E+01
 SKALA_GPW| Active atom-composite max gradient   1.1354342193334168E+00
   113 OT DIIS     0.10E+00   88.4     0.00025805       -49.2159811031 -1.55E-04
 SKALA_GPW| Atom-composite cross support/maxima   2.607069088142E+00   5.926728471945E-02   4.658806153974E-01   2.602793195276E+00
 SKALA_GPW| Active atom-composite XC energy  -1.6062844211002268E+01
 SKALA_GPW| Active atom-composite electrons   3.7999923750080370E+01
 SKALA_GPW| Active atom-composite density range  -5.4563189366082504E-09   3.2559294911399161E-01
 SKALA_GPW| Active atom-composite tau range  -7.9547151322096252E-08   6.2347545096463808E+00
 SKALA_GPW| Active atom-composite tau integral   3.8461865195302657E+01
 SKALA_GPW| Active atom-composite max gradient   1.1353928844082646E+00
   114 OT DIIS     0.10E+00   88.0     0.00025725       -49.2161097373 -1.29E-04
 SKALA_GPW| Atom-composite cross support/maxima   2.607069088142E+00   5.926722948638E-02   4.658261243374E-01   2.602781001495E+00
 SKALA_GPW| Active atom-composite XC energy  -1.6062889382137691E+01
 SKALA_GPW| Active atom-composite electrons   3.7999923751788572E+01
 SKALA_GPW| Active atom-composite density range  -5.4566098111345130E-09   3.2557848571898546E-01
 SKALA_GPW| Active atom-composite tau range  -7.9593778140952298E-08   6.2349216028603163E+00
 SKALA_GPW| Active atom-composite tau integral   3.8461832792884820E+01
 SKALA_GPW| Active atom-composite max gradient   1.1353494420981458E+00
   115 OT DIIS     0.10E+00   88.2     0.00025605       -49.2162341794 -1.24E-04
 SKALA_GPW| Atom-composite cross support/maxima   2.607069088142E+00   5.926727250492E-02   4.657618587265E-01   2.602798213704E+00
 SKALA_GPW| Active atom-composite XC energy  -1.6062940038513439E+01
 SKALA_GPW| Active atom-composite electrons   3.7999923753799592E+01
 SKALA_GPW| Active atom-composite density range  -5.4569378996632818E-09   3.2556438181410041E-01
 SKALA_GPW| Active atom-composite tau range  -7.9661953980118781E-08   6.2350915468594348E+00
 SKALA_GPW| Active atom-composite tau integral   3.8461814444929509E+01
 SKALA_GPW| Active atom-composite max gradient   1.1353023569265215E+00
   116 OT DIIS     0.10E+00   88.5     0.00025521       -49.2163681426 -1.34E-04
 SKALA_GPW| Atom-composite cross support/maxima   2.607069088142E+00   5.926732244262E-02   4.657109618063E-01   2.602819690297E+00
 SKALA_GPW| Active atom-composite XC energy  -1.6062975444444433E+01
 SKALA_GPW| Active atom-composite electrons   3.7999923755241056E+01
 SKALA_GPW| Active atom-composite density range  -5.4570764804234341E-09   3.2555355547344472E-01
 SKALA_GPW| Active atom-composite tau range  -7.9728036479404577E-08   6.2351989893983761E+00
 SKALA_GPW| Active atom-composite tau integral   3.8461790645566893E+01
 SKALA_GPW| Active atom-composite max gradient   1.1352645336310987E+00
   117 OT DIIS     0.10E+00   88.3     0.00025431       -49.2164724250 -1.04E-04
 SKALA_GPW| Atom-composite cross support/maxima   2.607069088142E+00   5.926741339004E-02   4.656479185216E-01   2.602862453981E+00
 SKALA_GPW| Active atom-composite XC energy  -1.6063021414250365E+01
 SKALA_GPW| Active atom-composite electrons   3.7999923757678921E+01
 SKALA_GPW| Active atom-composite density range  -5.4571891299838757E-09   3.2554360411508770E-01
 SKALA_GPW| Active atom-composite tau range  -7.9805984774977616E-08   6.2353183727096315E+00
 SKALA_GPW| Active atom-composite tau integral   3.8461795466030630E+01
 SKALA_GPW| Active atom-composite max gradient   1.1352249424531327E+00
   118 OT DIIS     0.10E+00   88.9     0.00025321       -49.2166040182 -1.32E-04
 SKALA_GPW| Atom-composite cross support/maxima   2.607069088142E+00   5.926751323518E-02   4.655918496166E-01   2.602907700154E+00
 SKALA_GPW| Active atom-composite XC energy  -1.6063063667499286E+01
 SKALA_GPW| Active atom-composite electrons   3.7999923759836442E+01
 SKALA_GPW| Active atom-composite density range  -5.4571038841636740E-09   3.2553772808583303E-01
 SKALA_GPW| Active atom-composite tau range  -7.9867314551296116E-08   6.2354121608821060E+00
 SKALA_GPW| Active atom-composite tau integral   3.8461794270382150E+01
 SKALA_GPW| Active atom-composite max gradient   1.1351964739396410E+00
   119 OT DIIS     0.10E+00   88.8     0.00025254       -49.2167307800 -1.27E-04
 SKALA_GPW| Atom-composite cross support/maxima   2.607069088142E+00   5.926770673841E-02   4.655494973213E-01   2.602961610600E+00
 SKALA_GPW| Active atom-composite XC energy  -1.6063103987402961E+01
 SKALA_GPW| Active atom-composite electrons   3.7999923761762275E+01
 SKALA_GPW| Active atom-composite density range  -5.4569977733431202E-09   3.2553483558381574E-01
 SKALA_GPW| Active atom-composite tau range  -7.9923481532112720E-08   6.2354711807064653E+00
 SKALA_GPW| Active atom-composite tau integral   3.8461772439731170E+01
 SKALA_GPW| Active atom-composite max gradient   1.1351772460846583E+00
   120 OT DIIS     0.10E+00   88.8     0.00025167       -49.2168536343 -1.23E-04
 SKALA_GPW| Atom-composite cross support/maxima   2.607069088142E+00   5.926779116493E-02   4.655192331235E-01   2.602999696268E+00
 SKALA_GPW| Active atom-composite XC energy  -1.6063151612272506E+01
 SKALA_GPW| Active atom-composite electrons   3.7999923763441487E+01
 SKALA_GPW| Active atom-composite density range  -5.4568107185025907E-09   3.2553490885831154E-01
 SKALA_GPW| Active atom-composite tau range  -7.9952726328315675E-08   6.2355327048120177E+00
 SKALA_GPW| Active atom-composite tau integral   3.8461791873696789E+01
 SKALA_GPW| Active atom-composite max gradient   1.1351699271587941E+00
   121 OT DIIS     0.10E+00   88.5     0.00025079       -49.2169771032 -1.23E-04
 SKALA_GPW| Atom-composite cross support/maxima   2.607069088142E+00   5.926800937227E-02   4.654973456029E-01   2.603029036396E+00
 SKALA_GPW| Active atom-composite XC energy  -1.6063195444906675E+01
 SKALA_GPW| Active atom-composite electrons   3.7999923764965537E+01
 SKALA_GPW| Active atom-composite density range  -5.4566440850183409E-09   3.2553719152099431E-01
 SKALA_GPW| Active atom-composite tau range  -7.9964908855622588E-08   6.2355987050125030E+00
 SKALA_GPW| Active atom-composite tau integral   3.8461797606680292E+01
 SKALA_GPW| Active atom-composite max gradient   1.1351722370645880E+00
   122 OT DIIS     0.10E+00   88.4     0.00025019       -49.2170946933 -1.18E-04
 SKALA_GPW| Atom-composite cross support/maxima   2.607069088142E+00   5.926823993084E-02   4.654800713236E-01   2.603058896268E+00
 SKALA_GPW| Active atom-composite XC energy  -1.6063244658021734E+01
 SKALA_GPW| Active atom-composite electrons   3.7999923765635060E+01
 SKALA_GPW| Active atom-composite density range  -5.4565385491206679E-09   3.2554190918338560E-01
 SKALA_GPW| Active atom-composite tau range  -7.9965565026667072E-08   6.2356585908229443E+00
 SKALA_GPW| Active atom-composite tau integral   3.8461773832293908E+01
 SKALA_GPW| Active atom-composite max gradient   1.1351845418303190E+00
   123 OT DIIS     0.10E+00   88.8     0.00024925       -49.2172174624 -1.23E-04
 SKALA_GPW| Atom-composite cross support/maxima   2.607069088142E+00   5.926857831258E-02   4.654690939472E-01   2.603072346286E+00
 SKALA_GPW| Active atom-composite XC energy  -1.6063309756687161E+01
 SKALA_GPW| Active atom-composite electrons   3.7999923766222032E+01
 SKALA_GPW| Active atom-composite density range  -5.4564729499871601E-09   3.2554726265475331E-01
 SKALA_GPW| Active atom-composite tau range  -7.9956104812074188E-08   6.2357537489737007E+00
 SKALA_GPW| Active atom-composite tau integral   3.8461798507451412E+01
 SKALA_GPW| Active atom-composite max gradient   1.1352046438302439E+00
   124 OT DIIS     0.10E+00   88.4     0.00024848       -49.2173637178 -1.46E-04
 SKALA_GPW| Atom-composite cross support/maxima   2.607069088142E+00   5.926894280829E-02   4.654631404092E-01   2.603082294323E+00
 SKALA_GPW| Active atom-composite XC energy  -1.6063365830505017E+01
 SKALA_GPW| Active atom-composite electrons   3.7999923766549031E+01
 SKALA_GPW| Active atom-composite density range  -5.4565925144498474E-09   3.2555215608955373E-01
 SKALA_GPW| Active atom-composite tau range  -7.9941771100123469E-08   6.2358610378776760E+00
 SKALA_GPW| Active atom-composite tau integral   3.8461828957129661E+01
 SKALA_GPW| Active atom-composite max gradient   1.1352251608477297E+00
   125 OT DIIS     0.10E+00   88.0     0.00024763       -49.2174829341 -1.19E-04
 SKALA_GPW| Atom-composite cross support/maxima   2.607069088142E+00   5.926948019206E-02   4.654636500775E-01   2.603084741964E+00
 SKALA_GPW| Active atom-composite XC energy  -1.6063435323614037E+01
 SKALA_GPW| Active atom-composite electrons   3.7999923765984754E+01
 SKALA_GPW| Active atom-composite density range  -5.4568579862823311E-09   3.2555602063832401E-01
 SKALA_GPW| Active atom-composite tau range  -7.9931981149048763E-08   6.2360152793741097E+00
 SKALA_GPW| Active atom-composite tau integral   3.8461837384358823E+01
 SKALA_GPW| Active atom-composite max gradient   1.1352486241910018E+00
   126 OT DIIS     0.10E+00   88.3     0.00024653       -49.2176340821 -1.51E-04
 SKALA_GPW| Atom-composite cross support/maxima   2.607069088142E+00   5.927010108819E-02   4.654619165996E-01   2.603091857206E+00
 SKALA_GPW| Active atom-composite XC energy  -1.6063507895968549E+01
 SKALA_GPW| Active atom-composite electrons   3.7999923765313099E+01
 SKALA_GPW| Active atom-composite density range  -5.4573166862380519E-09   3.2555634395902827E-01
 SKALA_GPW| Active atom-composite tau range  -7.9939724093286641E-08   6.2361961781354243E+00
 SKALA_GPW| Active atom-composite tau integral   3.8461863698214835E+01
 SKALA_GPW| Active atom-composite max gradient   1.1352632770776352E+00
   127 OT DIIS     0.10E+00   88.6     0.00024580       -49.2177862443 -1.52E-04
 SKALA_GPW| Atom-composite cross support/maxima   2.607069088142E+00   5.927065118658E-02   4.654597824221E-01   2.603092086147E+00
 SKALA_GPW| Active atom-composite XC energy  -1.6063580021582663E+01
 SKALA_GPW| Active atom-composite electrons   3.7999923764582576E+01
 SKALA_GPW| Active atom-composite density range  -5.4578186602736221E-09   3.2555403126896487E-01
 SKALA_GPW| Active atom-composite tau range  -7.9952853462390770E-08   6.2364098221517654E+00
 SKALA_GPW| Active atom-composite tau integral   3.8461926077834249E+01
 SKALA_GPW| Active atom-composite max gradient   1.1352703030971811E+00
   128 OT DIIS     0.10E+00   88.0     0.00024488       -49.2179385750 -1.52E-04
 SKALA_GPW| Atom-composite cross support/maxima   2.607069088142E+00   5.927124391969E-02   4.654520467284E-01   2.603105913887E+00
 SKALA_GPW| Active atom-composite XC energy  -1.6063644594264623E+01
 SKALA_GPW| Active atom-composite electrons   3.7999923764068392E+01
 SKALA_GPW| Active atom-composite density range  -5.4583623774916195E-09   3.2554773437695206E-01
 SKALA_GPW| Active atom-composite tau range  -7.9989348829074996E-08   6.2366208785626700E+00
 SKALA_GPW| Active atom-composite tau integral   3.8461935416605954E+01
 SKALA_GPW| Active atom-composite max gradient   1.1352619894706784E+00
   129 OT DIIS     0.10E+00   88.0     0.00024386       -49.2180886215 -1.50E-04
 SKALA_GPW| Atom-composite cross support/maxima   2.607069088142E+00   5.927161980552E-02   4.654354022589E-01   2.603127581620E+00
 SKALA_GPW| Active atom-composite XC energy  -1.6063706023833429E+01
 SKALA_GPW| Active atom-composite electrons   3.7999923763466391E+01
 SKALA_GPW| Active atom-composite density range  -5.4588220538771757E-09   3.2553871830849868E-01
 SKALA_GPW| Active atom-composite tau range  -8.0037440878256142E-08   6.2368180144300727E+00
 SKALA_GPW| Active atom-composite tau integral   3.8461936682178937E+01
 SKALA_GPW| Active atom-composite max gradient   1.1352417490897566E+00
   130 OT DIIS     0.10E+00   88.3     0.00024314       -49.2182349572 -1.46E-04
 SKALA_GPW| Atom-composite cross support/maxima   2.607069088142E+00   5.927188049735E-02   4.654128011492E-01   2.603144751207E+00
 SKALA_GPW| Active atom-composite XC energy  -1.6063760176965737E+01
 SKALA_GPW| Active atom-composite electrons   3.7999923763885107E+01
 SKALA_GPW| Active atom-composite density range  -5.4591948585050896E-09   3.2552588392132509E-01
 SKALA_GPW| Active atom-composite tau range  -8.0094079688341336E-08   6.2370184377325604E+00
 SKALA_GPW| Active atom-composite tau integral   3.8461956241271992E+01
 SKALA_GPW| Active atom-composite max gradient   1.1352062210763827E+00
   131 OT DIIS     0.10E+00   88.2     0.00024205       -49.2183774039 -1.42E-04
 SKALA_GPW| Atom-composite cross support/maxima   2.607069088142E+00   5.927198298819E-02   4.653770807609E-01   2.603181101888E+00
 SKALA_GPW| Active atom-composite XC energy  -1.6063819958284494E+01
 SKALA_GPW| Active atom-composite electrons   3.7999923764974604E+01
 SKALA_GPW| Active atom-composite density range  -5.4594826231846064E-09   3.2551104142792164E-01
 SKALA_GPW| Active atom-composite tau range  -8.0161432707581219E-08   6.2372166461454883E+00
 SKALA_GPW| Active atom-composite tau integral   3.8461952731318739E+01
 SKALA_GPW| Active atom-composite max gradient   1.1351574668328670E+00
   132 OT DIIS     0.10E+00   88.3     0.00024114       -49.2185349084 -1.58E-04
 SKALA_GPW| Atom-composite cross support/maxima   2.607069088142E+00   5.927192365743E-02   4.653443978945E-01   2.603209002390E+00
 SKALA_GPW| Active atom-composite XC energy  -1.6063864103052694E+01
 SKALA_GPW| Active atom-composite electrons   3.7999923766069365E+01
 SKALA_GPW| Active atom-composite density range  -5.4595001194643531E-09   3.2549801500747383E-01
 SKALA_GPW| Active atom-composite tau range  -8.0217118291298575E-08   6.2373446911292536E+00
 SKALA_GPW| Active atom-composite tau integral   3.8461919199276025E+01
 SKALA_GPW| Active atom-composite max gradient   1.1351119073640201E+00
   133 OT DIIS     0.10E+00   87.8     0.00024026       -49.2186606707 -1.26E-04
 SKALA_GPW| Atom-composite cross support/maxima   2.607069088142E+00   5.927165860972E-02   4.652941743171E-01   2.603248428120E+00
 SKALA_GPW| Active atom-composite XC energy  -1.6063914211767770E+01
 SKALA_GPW| Active atom-composite electrons   3.7999923768785926E+01
 SKALA_GPW| Active atom-composite density range  -5.4593909782682109E-09   3.2548263278368988E-01
 SKALA_GPW| Active atom-composite tau range  -8.0276983552276787E-08   6.2374752139561451E+00
 SKALA_GPW| Active atom-composite tau integral   3.8461874707613283E+01
 SKALA_GPW| Active atom-composite max gradient   1.1350512422756900E+00
   134 OT DIIS     0.10E+00   88.6     0.00023912       -49.2188106915 -1.50E-04
 SKALA_GPW| Atom-composite cross support/maxima   2.607069088142E+00   5.927135520350E-02   4.652500044787E-01   2.603279816452E+00
 SKALA_GPW| Active atom-composite XC energy  -1.6063964735093720E+01
 SKALA_GPW| Active atom-composite electrons   3.7999923771815816E+01
 SKALA_GPW| Active atom-composite density range  -5.4590958193400644E-09   3.2547215874132673E-01
 SKALA_GPW| Active atom-composite tau range  -8.0315360986047806E-08   6.2375759264227213E+00
 SKALA_GPW| Active atom-composite tau integral   3.8461849324421131E+01
 SKALA_GPW| Active atom-composite max gradient   1.1350043934200746E+00
   135 OT DIIS     0.10E+00   87.8     0.00023834       -49.2189498775 -1.39E-04
 SKALA_GPW| Atom-composite cross support/maxima   2.607069088142E+00   5.927117882413E-02   4.652091722200E-01   2.603316875409E+00
 SKALA_GPW| Active atom-composite XC energy  -1.6064012317154422E+01
 SKALA_GPW| Active atom-composite electrons   3.7999923774727392E+01
 SKALA_GPW| Active atom-composite density range  -5.4587963771439945E-09   3.2546499079163732E-01
 SKALA_GPW| Active atom-composite tau range  -8.0346083708351519E-08   6.2376407272948224E+00
 SKALA_GPW| Active atom-composite tau integral   3.8461783295904610E+01
 SKALA_GPW| Active atom-composite max gradient   1.1349686799010634E+00
   136 OT DIIS     0.10E+00   88.5     0.00023751       -49.2190781909 -1.28E-04
 SKALA_GPW| Atom-composite cross support/maxima   2.607069088142E+00   5.927105397298E-02   4.651766490985E-01   2.603343463308E+00
 SKALA_GPW| Active atom-composite XC energy  -1.6064061330517887E+01
 SKALA_GPW| Active atom-composite electrons   3.7999923777374043E+01
 SKALA_GPW| Active atom-composite density range  -5.4584996614416156E-09   3.2546343265915550E-01
 SKALA_GPW| Active atom-composite tau range  -8.0358421453555878E-08   6.2377017883212513E+00
 SKALA_GPW| Active atom-composite tau integral   3.8461763293975821E+01
 SKALA_GPW| Active atom-composite max gradient   1.1349535989743136E+00
   137 OT DIIS     0.10E+00   88.2     0.00023663       -49.2191996388 -1.21E-04
 SKALA_GPW| Atom-composite cross support/maxima   2.607069088142E+00   5.927119838289E-02   4.651545399986E-01   2.603367580779E+00
 SKALA_GPW| Active atom-composite XC energy  -1.6064113063616368E+01
 SKALA_GPW| Active atom-composite electrons   3.7999923780035033E+01
 SKALA_GPW| Active atom-composite density range  -5.4583141628382600E-09   3.2546595341220957E-01
 SKALA_GPW| Active atom-composite tau range  -8.0363440652057673E-08   6.2377753339996094E+00
 SKALA_GPW| Active atom-composite tau integral   3.8461748441491459E+01
 SKALA_GPW| Active atom-composite max gradient   1.1349549263153327E+00
   138 OT DIIS     0.10E+00   88.1     0.00023599       -49.2193214406 -1.22E-04
 SKALA_GPW| Atom-composite cross support/maxima   2.607069088142E+00   5.927149923844E-02   4.651399312249E-01   2.603401839809E+00
 SKALA_GPW| Active atom-composite XC energy  -1.6064165754519145E+01
 SKALA_GPW| Active atom-composite electrons   3.7999923781524274E+01
 SKALA_GPW| Active atom-composite density range  -5.4582413118434156E-09   3.2547330746991643E-01
 SKALA_GPW| Active atom-composite tau range  -8.0363350613853051E-08   6.2378381331729900E+00
 SKALA_GPW| Active atom-composite tau integral   3.8461713443703630E+01
 SKALA_GPW| Active atom-composite max gradient   1.1349750749892473E+00
   139 OT DIIS     0.10E+00   88.6     0.00023507       -49.2194348963 -1.13E-04
 SKALA_GPW| Atom-composite cross support/maxima   2.607069088142E+00   5.927205630384E-02   4.651368968302E-01   2.603427737855E+00
 SKALA_GPW| Active atom-composite XC energy  -1.6064223947308179E+01
 SKALA_GPW| Active atom-composite electrons   3.7999923782481630E+01
 SKALA_GPW| Active atom-composite density range  -5.4583326455290492E-09   3.2548349699137419E-01
 SKALA_GPW| Active atom-composite tau range  -8.0364858809377905E-08   6.2379223998354263E+00
 SKALA_GPW| Active atom-composite tau integral   3.8461752756136569E+01
 SKALA_GPW| Active atom-composite max gradient   1.1350113392494037E+00
   140 OT DIIS     0.10E+00   88.6     0.00023431       -49.2195491111 -1.14E-04
 SKALA_GPW| Atom-composite cross support/maxima   2.607069088142E+00   5.927266137265E-02   4.651388790187E-01   2.603454920542E+00
 SKALA_GPW| Active atom-composite XC energy  -1.6064274435643860E+01
 SKALA_GPW| Active atom-composite electrons   3.7999923782844775E+01
 SKALA_GPW| Active atom-composite density range  -5.4586171790335720E-09   3.2549363660802016E-01
 SKALA_GPW| Active atom-composite tau range  -8.0368835595112174E-08   6.2380195069109980E+00
 SKALA_GPW| Active atom-composite tau integral   3.8461804887513345E+01
 SKALA_GPW| Active atom-composite max gradient   1.1350494471794246E+00
   141 OT DIIS     0.10E+00   88.4     0.00023364       -49.2196425582 -9.34E-05
 SKALA_GPW| Atom-composite cross support/maxima   2.607069088142E+00   5.927362930343E-02   4.651534257061E-01   2.603490469148E+00
 SKALA_GPW| Active atom-composite XC energy  -1.6064332839994485E+01
 SKALA_GPW| Active atom-composite electrons   3.7999923781658701E+01
 SKALA_GPW| Active atom-composite density range  -5.4591303498857362E-09   3.2550785906858692E-01
 SKALA_GPW| Active atom-composite tau range  -8.0381685878636362E-08   6.2381530210702039E+00
 SKALA_GPW| Active atom-composite tau integral   3.8461857079087608E+01
 SKALA_GPW| Active atom-composite max gradient   1.1351086344707639E+00
   142 OT DIIS     0.10E+00   88.0     0.00023283       -49.2197528863 -1.10E-04
 SKALA_GPW| Atom-composite cross support/maxima   2.607069088142E+00   5.927462636223E-02   4.651659823613E-01   2.603531698174E+00
 SKALA_GPW| Active atom-composite XC energy  -1.6064392732004343E+01
 SKALA_GPW| Active atom-composite electrons   3.7999923780222453E+01
 SKALA_GPW| Active atom-composite density range  -5.4597916408015046E-09   3.2551923508459996E-01
 SKALA_GPW| Active atom-composite tau range  -8.0407858146196367E-08   6.2382987240556620E+00
 SKALA_GPW| Active atom-composite tau integral   3.8461963973049187E+01
 SKALA_GPW| Active atom-composite max gradient   1.1351606088960731E+00
   143 OT DIIS     0.10E+00   87.9     0.00023223       -49.2198596612 -1.07E-04
 SKALA_GPW| Atom-composite cross support/maxima   2.607069088142E+00   5.927544750231E-02   4.651783471601E-01   2.603565817626E+00
 SKALA_GPW| Active atom-composite XC energy  -1.6064447511485955E+01
 SKALA_GPW| Active atom-composite electrons   3.7999923778517577E+01
 SKALA_GPW| Active atom-composite density range  -5.4604000568851213E-09   3.2552847082158504E-01
 SKALA_GPW| Active atom-composite tau range  -8.0433535149097120E-08   6.2384580019925142E+00
 SKALA_GPW| Active atom-composite tau integral   3.8462084111542389E+01
 SKALA_GPW| Active atom-composite max gradient   1.1352050429484228E+00
   144 OT DIIS     0.10E+00   87.8     0.00023158       -49.2199591845 -9.95E-05
 SKALA_GPW| Atom-composite cross support/maxima   2.607069088142E+00   5.927620103994E-02   4.651860850944E-01   2.603606024542E+00
 SKALA_GPW| Active atom-composite XC energy  -1.6064494512912788E+01
 SKALA_GPW| Active atom-composite electrons   3.7999923776841726E+01
 SKALA_GPW| Active atom-composite density range  -5.4610115041631425E-09   3.2553326391273862E-01
 SKALA_GPW| Active atom-composite tau range  -8.0469061793101698E-08   6.2386129060526896E+00
 SKALA_GPW| Active atom-composite tau integral   3.8462159313949286E+01
 SKALA_GPW| Active atom-composite max gradient   1.1352336137503889E+00
   145 OT DIIS     0.10E+00   88.9     0.00023093       -49.2200569149 -9.77E-05
 SKALA_GPW| Atom-composite cross support/maxima   2.607069088142E+00   5.927673354849E-02   4.651844014888E-01   2.603649970929E+00
 SKALA_GPW| Active atom-composite XC energy  -1.6064544742431593E+01
 SKALA_GPW| Active atom-composite electrons   3.7999923775200223E+01
 SKALA_GPW| Active atom-composite density range  -5.4615014280111714E-09   3.2553489496351018E-01
 SKALA_GPW| Active atom-composite tau range  -8.0506780299597688E-08   6.2387667501823945E+00
 SKALA_GPW| Active atom-composite tau integral   3.8462258835469115E+01
 SKALA_GPW| Active atom-composite max gradient   1.1352495363206700E+00
   146 OT DIIS     0.10E+00   88.4     0.00023042       -49.2201594533 -1.03E-04
 SKALA_GPW| Atom-composite cross support/maxima   2.607069088142E+00   5.927710224765E-02   4.651784550007E-01   2.603686144784E+00
 SKALA_GPW| Active atom-composite XC energy  -1.6064594133094026E+01
 SKALA_GPW| Active atom-composite electrons   3.7999923774351956E+01
 SKALA_GPW| Active atom-composite density range  -5.4618999278583932E-09   3.2553260374347792E-01
 SKALA_GPW| Active atom-composite tau range  -8.0545247960721200E-08   6.2389308274095248E+00
 SKALA_GPW| Active atom-composite tau integral   3.8462365432503915E+01
 SKALA_GPW| Active atom-composite max gradient   1.1352508434855664E+00
   147 OT DIIS     0.10E+00   88.4     0.00022967       -49.2202672415 -1.08E-04
 SKALA_GPW| Atom-composite cross support/maxima   2.607069088142E+00   5.927721716305E-02   4.651613505099E-01   2.603728401882E+00
 SKALA_GPW| Active atom-composite XC energy  -1.6064641024384649E+01
 SKALA_GPW| Active atom-composite electrons   3.7999923774188140E+01
 SKALA_GPW| Active atom-composite density range  -5.4621319886677723E-09   3.2552687026079913E-01
 SKALA_GPW| Active atom-composite tau range  -8.0579941760719849E-08   6.2390809657539830E+00
 SKALA_GPW| Active atom-composite tau integral   3.8462427343715213E+01
 SKALA_GPW| Active atom-composite max gradient   1.1352347572634036E+00
   148 OT DIIS     0.10E+00   89.5     0.00022904       -49.2203748995 -1.08E-04
 SKALA_GPW| Atom-composite cross support/maxima   2.607069088142E+00   5.927722190377E-02   4.651421751238E-01   2.603759304270E+00
 SKALA_GPW| Active atom-composite XC energy  -1.6064680684671895E+01
 SKALA_GPW| Active atom-composite electrons   3.7999923774573737E+01
 SKALA_GPW| Active atom-composite density range  -5.4621274925959978E-09   3.2552017460123994E-01
 SKALA_GPW| Active atom-composite tau range  -8.0605664163564404E-08   6.2391880535349493E+00
 SKALA_GPW| Active atom-composite tau integral   3.8462471468844207E+01
 SKALA_GPW| Active atom-composite max gradient   1.1352130500678430E+00
   149 OT DIIS     0.10E+00   89.3     0.00022843       -49.2204678282 -9.29E-05
 SKALA_GPW| Atom-composite cross support/maxima   2.607069088142E+00   5.927699475386E-02   4.651070448328E-01   2.603795785924E+00
 SKALA_GPW| Active atom-composite XC energy  -1.6064729350845596E+01
 SKALA_GPW| Active atom-composite electrons   3.7999923776482007E+01
 SKALA_GPW| Active atom-composite density range  -5.4619651728108281E-09   3.2550874550919168E-01
 SKALA_GPW| Active atom-composite tau range  -8.0629866331998446E-08   6.2393091461338201E+00
 SKALA_GPW| Active atom-composite tau integral   3.8462493382808205E+01
 SKALA_GPW| Active atom-composite max gradient   1.1351699397883426E+00
   150 OT DIIS     0.10E+00   88.0     0.00022768       -49.2205849602 -1.17E-04
 SKALA_GPW| Atom-composite cross support/maxima   2.607069088142E+00   5.927678164205E-02   4.650729040465E-01   2.603825103390E+00
 SKALA_GPW| Active atom-composite XC energy  -1.6064779822336980E+01
 SKALA_GPW| Active atom-composite electrons   3.7999923779010913E+01
 SKALA_GPW| Active atom-composite density range  -5.4616468216293919E-09   3.2549905814727531E-01
 SKALA_GPW| Active atom-composite tau range  -8.0644506590395437E-08   6.2394175058049246E+00
 SKALA_GPW| Active atom-composite tau integral   3.8462508082865703E+01
 SKALA_GPW| Active atom-composite max gradient   1.1351298642940053E+00
   151 OT DIIS     0.10E+00   88.5     0.00022708       -49.2207011332 -1.16E-04
 SKALA_GPW| Atom-composite cross support/maxima   2.607069088142E+00   5.927678148053E-02   4.650385721811E-01   2.603860473152E+00
 SKALA_GPW| Active atom-composite XC energy  -1.6064831310397281E+01
 SKALA_GPW| Active atom-composite electrons   3.7999923781735895E+01
 SKALA_GPW| Active atom-composite density range  -5.4613656547908547E-09   3.2549086683174355E-01
 SKALA_GPW| Active atom-composite tau range  -8.0659848237583279E-08   6.2395080333355999E+00
 SKALA_GPW| Active atom-composite tau integral   3.8462497827346873E+01
 SKALA_GPW| Active atom-composite max gradient   1.1350951791393413E+00
   152 OT DIIS     0.10E+00   88.2     0.00022643       -49.2208157883 -1.15E-04
 SKALA_GPW| Atom-composite cross support/maxima   2.607069088142E+00   5.927683189763E-02   4.650064789410E-01   2.603890130490E+00
 SKALA_GPW| Active atom-composite XC energy  -1.6064884924049288E+01
 SKALA_GPW| Active atom-composite electrons   3.7999923784551484E+01
 SKALA_GPW| Active atom-composite density range  -5.4610469665206275E-09   3.2548616362185900E-01
 SKALA_GPW| Active atom-composite tau range  -8.0669903563629619E-08   6.2395979697035111E+00
 SKALA_GPW| Active atom-composite tau integral   3.8462475845933184E+01
 SKALA_GPW| Active atom-composite max gradient   1.1350714406239868E+00
   153 OT DIIS     0.10E+00   87.9     0.00022573       -49.2209349614 -1.19E-04
 SKALA_GPW| Atom-composite cross support/maxima   2.607069088142E+00   5.927717488643E-02   4.649832061221E-01   2.603918686142E+00
 SKALA_GPW| Active atom-composite XC energy  -1.6064941610335467E+01
 SKALA_GPW| Active atom-composite electrons   3.7999923787471474E+01
 SKALA_GPW| Active atom-composite density range  -5.4608827557759201E-09   3.2548536797794370E-01
 SKALA_GPW| Active atom-composite tau range  -8.0682449178799995E-08   6.2396974204265447E+00
 SKALA_GPW| Active atom-composite tau integral   3.8462459038774945E+01
 SKALA_GPW| Active atom-composite max gradient   1.1350626773862256E+00
   154 OT DIIS     0.10E+00   88.3     0.00022513       -49.2210575866 -1.23E-04
 SKALA_GPW| Atom-composite cross support/maxima   2.607069088142E+00   5.927773027796E-02   4.649621698280E-01   2.603960878355E+00
 SKALA_GPW| Active atom-composite XC energy  -1.6065004777066413E+01
 SKALA_GPW| Active atom-composite electrons   3.7999923789507562E+01
 SKALA_GPW| Active atom-composite density range  -5.4608435453349923E-09   3.2548870811547670E-01
 SKALA_GPW| Active atom-composite tau range  -8.0699978966134794E-08   6.2398020291474054E+00
 SKALA_GPW| Active atom-composite tau integral   3.8462441789312244E+01
 SKALA_GPW| Active atom-composite max gradient   1.1350694515143021E+00
   155 OT DIIS     0.10E+00   88.6     0.00022425       -49.2211864990 -1.29E-04
 SKALA_GPW| Atom-composite cross support/maxima   2.607069088142E+00   5.927847676708E-02   4.649540695483E-01   2.603995014412E+00
 SKALA_GPW| Active atom-composite XC energy  -1.6065064024379552E+01
 SKALA_GPW| Active atom-composite electrons   3.7999923790684967E+01
 SKALA_GPW| Active atom-composite density range  -5.4609871873253870E-09   3.2549668110263075E-01
 SKALA_GPW| Active atom-composite tau range  -8.0722849547204919E-08   6.2399037195873612E+00
 SKALA_GPW| Active atom-composite tau integral   3.8462432350938329E+01
 SKALA_GPW| Active atom-composite max gradient   1.1350966673856024E+00
   156 OT DIIS     0.10E+00   88.3     0.00022357       -49.2213097096 -1.23E-04
 SKALA_GPW| Atom-composite cross support/maxima   2.607069088142E+00   5.927921345975E-02   4.649526330933E-01   2.604029501441E+00
 SKALA_GPW| Active atom-composite XC energy  -1.6065117992597571E+01
 SKALA_GPW| Active atom-composite electrons   3.7999923791152227E+01
 SKALA_GPW| Active atom-composite density range  -5.4613508540402192E-09   3.2550689528947779E-01
 SKALA_GPW| Active atom-composite tau range  -8.0746551563729028E-08   6.2400117860490933E+00
 SKALA_GPW| Active atom-composite tau integral   3.8462456748339577E+01
 SKALA_GPW| Active atom-composite max gradient   1.1351330249453202E+00
   157 OT DIIS     0.10E+00   88.3     0.00022287       -49.2214168083 -1.07E-04
 SKALA_GPW| Atom-composite cross support/maxima   2.607069088142E+00   5.928031231080E-02   4.649621813829E-01   2.604075198659E+00
 SKALA_GPW| Active atom-composite XC energy  -1.6065182467540513E+01
 SKALA_GPW| Active atom-composite electrons   3.7999923790123169E+01
 SKALA_GPW| Active atom-composite density range  -5.4619723793975414E-09   3.2552372678361985E-01
 SKALA_GPW| Active atom-composite tau range  -8.0783311204204946E-08   6.2401506456521947E+00
 SKALA_GPW| Active atom-composite tau integral   3.8462491263127404E+01
 SKALA_GPW| Active atom-composite max gradient   1.1351973126209276E+00
   158 OT DIIS     0.10E+00   88.6     0.00022202       -49.2215473347 -1.31E-04
 SKALA_GPW| Atom-composite cross support/maxima   2.607069088142E+00   5.928129929964E-02   4.649741601903E-01   2.604122898466E+00
 SKALA_GPW| Active atom-composite XC energy  -1.6065242739598055E+01
 SKALA_GPW| Active atom-composite electrons   3.7999923788525678E+01
 SKALA_GPW| Active atom-composite density range  -5.4627263510493740E-09   3.2553993817756227E-01
 SKALA_GPW| Active atom-composite tau range  -8.0822650292312006E-08   6.2402774818232150E+00
 SKALA_GPW| Active atom-composite tau integral   3.8462565540343391E+01
 SKALA_GPW| Active atom-composite max gradient   1.1352618696105377E+00
   159 OT DIIS     0.10E+00   88.6     0.00022134       -49.2216624944 -1.15E-04
 SKALA_GPW| Atom-composite cross support/maxima   2.607069088142E+00   5.928211098183E-02   4.649867622655E-01   2.604163025832E+00
 SKALA_GPW| Active atom-composite XC energy  -1.6065301879342137E+01
 SKALA_GPW| Active atom-composite electrons   3.7999923786705686E+01
 SKALA_GPW| Active atom-composite density range  -5.4634222892340744E-09   3.2555547757285297E-01
 SKALA_GPW| Active atom-composite tau range  -8.0856179072426750E-08   6.2404209459085243E+00
 SKALA_GPW| Active atom-composite tau integral   3.8462689878931833E+01
 SKALA_GPW| Active atom-composite max gradient   1.1353240098046617E+00
   160 OT DIIS     0.10E+00   88.1     0.00022065       -49.2217743040 -1.12E-04
 SKALA_GPW| Atom-composite cross support/maxima   2.607069088142E+00   5.928291628745E-02   4.650003598207E-01   2.604212357503E+00
 SKALA_GPW| Active atom-composite XC energy  -1.6065355003265232E+01
 SKALA_GPW| Active atom-composite electrons   3.7999923784512895E+01
 SKALA_GPW| Active atom-composite density range  -5.4642049587813818E-09   3.2556975081606626E-01
 SKALA_GPW| Active atom-composite tau range  -8.0892473105355337E-08   6.2405655822600430E+00
 SKALA_GPW| Active atom-composite tau integral   3.8462786552761997E+01
 SKALA_GPW| Active atom-composite max gradient   1.1353836687121031E+00
   161 OT DIIS     0.10E+00   88.5     0.00022000       -49.2218846292 -1.10E-04
 SKALA_GPW| Atom-composite cross support/maxima   2.607069088142E+00   5.928348484809E-02   4.650070811188E-01   2.604265653488E+00
 SKALA_GPW| Active atom-composite XC energy  -1.6065411463123219E+01
 SKALA_GPW| Active atom-composite electrons   3.7999923782304322E+01
 SKALA_GPW| Active atom-composite density range  -5.4648177026166869E-09   3.2558137112318009E-01
 SKALA_GPW| Active atom-composite tau range  -8.0923993875997853E-08   6.2407075062261326E+00
 SKALA_GPW| Active atom-composite tau integral   3.8462921955667966E+01
 SKALA_GPW| Active atom-composite max gradient   1.1354332496933708E+00
   162 OT DIIS     0.10E+00   88.5     0.00021939       -49.2219919954 -1.07E-04
 SKALA_GPW| Atom-composite cross support/maxima   2.607069088142E+00   5.928395407600E-02   4.650121283706E-01   2.604310460699E+00
 SKALA_GPW| Active atom-composite XC energy  -1.6065468432803829E+01
 SKALA_GPW| Active atom-composite electrons   3.7999923781099540E+01
 SKALA_GPW| Active atom-composite density range  -5.4653210388111036E-09   3.2559021450923648E-01
 SKALA_GPW| Active atom-composite tau range  -8.0950487194025456E-08   6.2408569306577188E+00
 SKALA_GPW| Active atom-composite tau integral   3.8463090782281171E+01
 SKALA_GPW| Active atom-composite max gradient   1.1354727354797154E+00
   163 OT DIIS     0.10E+00   88.0     0.00021857       -49.2220994615 -1.07E-04
 SKALA_GPW| Atom-composite cross support/maxima   2.607069088142E+00   5.928422045141E-02   4.650080898276E-01   2.604360212367E+00
 SKALA_GPW| Active atom-composite XC energy  -1.6065517692014684E+01
 SKALA_GPW| Active atom-composite electrons   3.7999923780563805E+01
 SKALA_GPW| Active atom-composite density range  -5.4656336440665927E-09   3.2559449370508414E-01
 SKALA_GPW| Active atom-composite tau range  -8.0968798934694383E-08   6.2409961830648193E+00
 SKALA_GPW| Active atom-composite tau integral   3.8463221586666066E+01
 SKALA_GPW| Active atom-composite max gradient   1.1354930196902548E+00
   164 OT DIIS     0.10E+00   88.4     0.00021801       -49.2221944312 -9.50E-05
 SKALA_GPW| Atom-composite cross support/maxima   2.607069088142E+00   5.928439354629E-02   4.650005025479E-01   2.604401403385E+00
 SKALA_GPW| Active atom-composite XC energy  -1.6065561603537585E+01
 SKALA_GPW| Active atom-composite electrons   3.7999923780682238E+01
 SKALA_GPW| Active atom-composite density range  -5.4656762191508898E-09   3.2559518624624628E-01
 SKALA_GPW| Active atom-composite tau range  -8.0982739059114453E-08   6.2411037638685016E+00
 SKALA_GPW| Active atom-composite tau integral   3.8463325504239151E+01
 SKALA_GPW| Active atom-composite max gradient   1.1354993235623083E+00
   165 OT DIIS     0.10E+00   88.6     0.00021740       -49.2222765176 -8.21E-05
 SKALA_GPW| Atom-composite cross support/maxima   2.607069088142E+00   5.928451991063E-02   4.649825122388E-01   2.604454016004E+00
 SKALA_GPW| Active atom-composite XC energy  -1.6065619094096689E+01
 SKALA_GPW| Active atom-composite electrons   3.7999923782167457E+01
 SKALA_GPW| Active atom-composite density range  -5.4656135186818965E-09   3.2559246834505789E-01
 SKALA_GPW| Active atom-composite tau range  -8.0995367153329335E-08   6.2412416224636686E+00
 SKALA_GPW| Active atom-composite tau integral   3.8463462248446248E+01
 SKALA_GPW| Active atom-composite max gradient   1.1354920562290909E+00
   166 OT DIIS     0.10E+00   88.5     0.00021672       -49.2223784767 -1.02E-04
 SKALA_GPW| Atom-composite cross support/maxima   2.607069088142E+00   5.928461817520E-02   4.649632806144E-01   2.604492712599E+00
 SKALA_GPW| Active atom-composite XC energy  -1.6065666365917622E+01
 SKALA_GPW| Active atom-composite electrons   3.7999923784220677E+01
 SKALA_GPW| Active atom-composite density range  -5.4653646781883888E-09   3.2558749146099597E-01
 SKALA_GPW| Active atom-composite tau range  -8.1002557732293780E-08   6.2413575852902605E+00
 SKALA_GPW| Active atom-composite tau integral   3.8463567504482747E+01
 SKALA_GPW| Active atom-composite max gradient   1.1354741091220328E+00
   167 OT DIIS     0.10E+00   87.6     0.00021620       -49.2224634120 -8.49E-05
 SKALA_GPW| Atom-composite cross support/maxima   2.607069088142E+00   5.928488840658E-02   4.649440138279E-01   2.604537952723E+00
 SKALA_GPW| Active atom-composite XC energy  -1.6065716291123408E+01
 SKALA_GPW| Active atom-composite electrons   3.7999923786327052E+01
 SKALA_GPW| Active atom-composite density range  -5.4651575073695872E-09   3.2558298579527845E-01
 SKALA_GPW| Active atom-composite tau range  -8.1015381049024831E-08   6.2414591957103891E+00
 SKALA_GPW| Active atom-composite tau integral   3.8463630283237848E+01
 SKALA_GPW| Active atom-composite max gradient   1.1354577245195869E+00
   168 OT DIIS     0.10E+00   88.8     0.00021562       -49.2225501047 -8.67E-05
 SKALA_GPW| Atom-composite cross support/maxima   2.607069088142E+00   5.928516291709E-02   4.649217877971E-01   2.604575788557E+00
 SKALA_GPW| Active atom-composite XC energy  -1.6065763845242795E+01
 SKALA_GPW| Active atom-composite electrons   3.7999923788643393E+01
 SKALA_GPW| Active atom-composite density range  -5.4648750399071387E-09   3.2557766063400462E-01
 SKALA_GPW| Active atom-composite tau range  -8.1027668954139949E-08   6.2415602945954678E+00
 SKALA_GPW| Active atom-composite tau integral   3.8463674879890725E+01
 SKALA_GPW| Active atom-composite max gradient   1.1354369156068786E+00
   169 OT DIIS     0.10E+00   87.9     0.00021515       -49.2226375263 -8.74E-05
 SKALA_GPW| Atom-composite cross support/maxima   2.607069088142E+00   5.928560606808E-02   4.649054676611E-01   2.604607148020E+00
 SKALA_GPW| Active atom-composite XC energy  -1.6065808322496000E+01
 SKALA_GPW| Active atom-composite electrons   3.7999923790976638E+01
 SKALA_GPW| Active atom-composite density range  -5.4647359868356917E-09   3.2557424042170430E-01
 SKALA_GPW| Active atom-composite tau range  -8.1043575497485983E-08   6.2416554693683803E+00
 SKALA_GPW| Active atom-composite tau integral   3.8463705009292795E+01
 SKALA_GPW| Active atom-composite max gradient   1.1354227543686206E+00
   170 OT DIIS     0.10E+00   87.5     0.00021468       -49.2227230870 -8.56E-05
 SKALA_GPW| Atom-composite cross support/maxima   2.607069088142E+00   5.928612286764E-02   4.648893105498E-01   2.604647618325E+00
 SKALA_GPW| Active atom-composite XC energy  -1.6065856253519378E+01
 SKALA_GPW| Active atom-composite electrons   3.7999923792408936E+01
 SKALA_GPW| Active atom-composite density range  -5.4646799345550558E-09   3.2557306849568796E-01
 SKALA_GPW| Active atom-composite tau range  -8.1063635909839133E-08   6.2417491909501726E+00
 SKALA_GPW| Active atom-composite tau integral   3.8463710935420877E+01
 SKALA_GPW| Active atom-composite max gradient   1.1354162279352127E+00
   171 OT DIIS     0.10E+00   88.1     0.00021401       -49.2228135035 -9.04E-05
 SKALA_GPW| Atom-composite cross support/maxima   2.607069088142E+00   5.928670772951E-02   4.648798376865E-01   2.604676929190E+00
 SKALA_GPW| Active atom-composite XC energy  -1.6065897700248478E+01
 SKALA_GPW| Active atom-composite electrons   3.7999923793169359E+01
 SKALA_GPW| Active atom-composite density range  -5.4647637768643038E-09   3.2557442729380270E-01
 SKALA_GPW| Active atom-composite tau range  -8.1087282526852555E-08   6.2418279706517623E+00
 SKALA_GPW| Active atom-composite tau integral   3.8463693430839022E+01
 SKALA_GPW| Active atom-composite max gradient   1.1354200747955852E+00
   172 OT DIIS     0.10E+00   88.4     0.00021357       -49.2229006173 -8.71E-05
 SKALA_GPW| Atom-composite cross support/maxima   2.607069088142E+00   5.928726610665E-02   4.648751782859E-01   2.604702553221E+00
 SKALA_GPW| Active atom-composite XC energy  -1.6065933207717343E+01
 SKALA_GPW| Active atom-composite electrons   3.7999923793351961E+01
 SKALA_GPW| Active atom-composite density range  -5.4650557771370216E-09   3.2557893891494583E-01
 SKALA_GPW| Active atom-composite tau range  -8.1108899398163592E-08   6.2419024421488540E+00
 SKALA_GPW| Active atom-composite tau integral   3.8463693305997118E+01
 SKALA_GPW| Active atom-composite max gradient   1.1354348557976115E+00
   173 OT DIIS     0.10E+00   88.1     0.00021304       -49.2229768497 -7.62E-05
 SKALA_GPW| Atom-composite cross support/maxima   2.607069088142E+00   5.928805746065E-02   4.648755163779E-01   2.604736549012E+00
 SKALA_GPW| Active atom-composite XC energy  -1.6065980481720743E+01
 SKALA_GPW| Active atom-composite electrons   3.7999923792446339E+01
 SKALA_GPW| Active atom-composite density range  -5.4655245706898391E-09   3.2558828698886705E-01
 SKALA_GPW| Active atom-composite tau range  -8.1139694999748143E-08   6.2419972099801928E+00
 SKALA_GPW| Active atom-composite tau integral   3.8463685332764697E+01
 SKALA_GPW| Active atom-composite max gradient   1.1354678218996030E+00
   174 OT DIIS     0.10E+00   88.5     0.00021241       -49.2230806607 -1.04E-04
 SKALA_GPW| Atom-composite cross support/maxima   2.607069088142E+00   5.928877502343E-02   4.648798689075E-01   2.604771098841E+00
 SKALA_GPW| Active atom-composite XC energy  -1.6066021519832965E+01
 SKALA_GPW| Active atom-composite electrons   3.7999923790957205E+01
 SKALA_GPW| Active atom-composite density range  -5.4661318335483824E-09   3.2560000500758352E-01
 SKALA_GPW| Active atom-composite tau range  -8.1168020253714792E-08   6.2420728567097159E+00
 SKALA_GPW| Active atom-composite tau integral   3.8463677604776379E+01
 SKALA_GPW| Active atom-composite max gradient   1.1355108412859347E+00
   175 OT DIIS     0.10E+00   87.9     0.00021192       -49.2231706117 -9.00E-05
 SKALA_GPW| Atom-composite cross support/maxima   2.607069088142E+00   5.928945394134E-02   4.648862029113E-01   2.604802237881E+00
 SKALA_GPW| Active atom-composite XC energy  -1.6066067462489784E+01
 SKALA_GPW| Active atom-composite electrons   3.7999923789452588E+01
 SKALA_GPW| Active atom-composite density range  -5.4667286806214957E-09   3.2561369575031551E-01
 SKALA_GPW| Active atom-composite tau range  -8.1192357181002578E-08   6.2421715026676541E+00
 SKALA_GPW| Active atom-composite tau integral   3.8463748475417596E+01
 SKALA_GPW| Active atom-composite max gradient   1.1355610529099283E+00
   176 OT DIIS     0.10E+00   87.7     0.00021134       -49.2232660532 -9.54E-05
 SKALA_GPW| Atom-composite cross support/maxima   2.607069088142E+00   5.929021670726E-02   4.648974313406E-01   2.604845058782E+00
 SKALA_GPW| Active atom-composite XC energy  -1.6066115792640446E+01
 SKALA_GPW| Active atom-composite electrons   3.7999923787598810E+01
 SKALA_GPW| Active atom-composite density range  -5.4674439917018080E-09   3.2563084617476323E-01
 SKALA_GPW| Active atom-composite tau range  -8.1217669566789486E-08   6.2422768741991845E+00
 SKALA_GPW| Active atom-composite tau integral   3.8463798090518026E+01
 SKALA_GPW| Active atom-composite max gradient   1.1356251195672327E+00
   177 OT DIIS     0.10E+00   87.9     0.00021085       -49.2233674874 -1.01E-04
 SKALA_GPW| Atom-composite cross support/maxima   2.607069088142E+00   5.929084687163E-02   4.649052858791E-01   2.604894183453E+00
 SKALA_GPW| Active atom-composite XC energy  -1.6066169128943322E+01
 SKALA_GPW| Active atom-composite electrons   3.7999923785858179E+01
 SKALA_GPW| Active atom-composite density range  -5.4680198278865632E-09   3.2564755331593243E-01
 SKALA_GPW| Active atom-composite tau range  -8.1239195341140028E-08   6.2423873391669158E+00
 SKALA_GPW| Active atom-composite tau integral   3.8463904397670788E+01
 SKALA_GPW| Active atom-composite max gradient   1.1356883215015330E+00
   178 OT DIIS     0.10E+00   88.1     0.00021034       -49.2234662203 -9.87E-05
 SKALA_GPW| Atom-composite cross support/maxima   2.607069088142E+00   5.929149651672E-02   4.649145479281E-01   2.604938765898E+00
 SKALA_GPW| Active atom-composite XC energy  -1.6066226575651321E+01
 SKALA_GPW| Active atom-composite electrons   3.7999923785100449E+01
 SKALA_GPW| Active atom-composite density range  -5.4685278627688241E-09   3.2566382952477085E-01
 SKALA_GPW| Active atom-composite tau range  -8.1259396967553156E-08   6.2425120803700684E+00
 SKALA_GPW| Active atom-composite tau integral   3.8464062993891815E+01
 SKALA_GPW| Active atom-composite max gradient   1.1357508597430592E+00
   179 OT DIIS     0.10E+00   87.5     0.00020962       -49.2235676859 -1.01E-04
 SKALA_GPW| Atom-composite cross support/maxima   2.607069088142E+00   5.929206607318E-02   4.649205050921E-01   2.604995390741E+00
 SKALA_GPW| Active atom-composite XC energy  -1.6066286994789706E+01
 SKALA_GPW| Active atom-composite electrons   3.7999923784872038E+01
 SKALA_GPW| Active atom-composite density range  -5.4689143681342244E-09   3.2567925359760758E-01
 SKALA_GPW| Active atom-composite tau range  -8.1276922047814734E-08   6.2426528196451905E+00
 SKALA_GPW| Active atom-composite tau integral   3.8464221000505809E+01
 SKALA_GPW| Active atom-composite max gradient   1.1358097293462119E+00
   180 OT DIIS     0.10E+00   87.9     0.00020915       -49.2236693415 -1.02E-04
 SKALA_GPW| Atom-composite cross support/maxima   2.607069088142E+00   5.929249491977E-02   4.649235330435E-01   2.605046227797E+00
 SKALA_GPW| Active atom-composite XC energy  -1.6066341391016937E+01
 SKALA_GPW| Active atom-composite electrons   3.7999923785257813E+01
 SKALA_GPW| Active atom-composite density range  -5.4690355902017808E-09   3.2568974822293240E-01
 SKALA_GPW| Active atom-composite tau range  -8.1292013593287107E-08   6.2427727701991049E+00
 SKALA_GPW| Active atom-composite tau integral   3.8464370490296091E+01
 SKALA_GPW| Active atom-composite max gradient   1.1358519026193226E+00
   181 OT DIIS     0.10E+00   87.7     0.00020855       -49.2237561856 -8.68E-05
 SKALA_GPW| Atom-composite cross support/maxima   2.607069088142E+00   5.929305941738E-02   4.649219905068E-01   2.605115926581E+00
 SKALA_GPW| Active atom-composite XC energy  -1.6066421109275733E+01
 SKALA_GPW| Active atom-composite electrons   3.7999923786937508E+01
 SKALA_GPW| Active atom-composite density range  -5.4691483814023504E-09   3.2570107399384673E-01
 SKALA_GPW| Active atom-composite tau range  -8.1312559659419461E-08   6.2429441915211967E+00
 SKALA_GPW| Active atom-composite tau integral   3.8464620137709851E+01
 SKALA_GPW| Active atom-composite max gradient   1.1358977013841238E+00
   182 OT DIIS     0.10E+00   87.8     0.00020783       -49.2238730438 -1.17E-04
 SKALA_GPW| Atom-composite cross support/maxima   2.607069088142E+00   5.929342440898E-02   4.649177100725E-01   2.605167356619E+00
 SKALA_GPW| Active atom-composite XC energy  -1.6066482474929821E+01
 SKALA_GPW| Active atom-composite electrons   3.7999923788876437E+01
 SKALA_GPW| Active atom-composite density range  -5.4690312326994448E-09   3.2570609436863845E-01
 SKALA_GPW| Active atom-composite tau range  -8.1327982187616659E-08   6.2430895227910082E+00
 SKALA_GPW| Active atom-composite tau integral   3.8464801248586298E+01
 SKALA_GPW| Active atom-composite max gradient   1.1359190365980081E+00
   183 OT DIIS     0.10E+00   88.1     0.00020731       -49.2239656333 -9.26E-05
 SKALA_GPW| Atom-composite cross support/maxima   2.607069088142E+00   5.929392192269E-02   4.649094422716E-01   2.605227834320E+00
 SKALA_GPW| Active atom-composite XC energy  -1.6066548590566100E+01
 SKALA_GPW| Active atom-composite electrons   3.7999923791046655E+01
 SKALA_GPW| Active atom-composite density range  -5.4689436168450421E-09   3.2570883478435025E-01
 SKALA_GPW| Active atom-composite tau range  -8.1349256202735455E-08   6.2432275331232585E+00
 SKALA_GPW| Active atom-composite tau integral   3.8464965063803554E+01
 SKALA_GPW| Active atom-composite max gradient   1.1359323488598094E+00
   184 OT DIIS     0.10E+00   88.4     0.00020666       -49.2240656758 -1.00E-04
 SKALA_GPW| Atom-composite cross support/maxima   2.607069088142E+00   5.929436716334E-02   4.648950258697E-01   2.605281921479E+00
 SKALA_GPW| Active atom-composite XC energy  -1.6066612679775293E+01
 SKALA_GPW| Active atom-composite electrons   3.7999923793172030E+01
 SKALA_GPW| Active atom-composite density range  -5.4687602914582738E-09   3.2570743076141628E-01
 SKALA_GPW| Active atom-composite tau range  -8.1369814472275297E-08   6.2433700386320545E+00
 SKALA_GPW| Active atom-composite tau integral   3.8465116175471891E+01
 SKALA_GPW| Active atom-composite max gradient   1.1359300113174542E+00
   185 OT DIIS     0.10E+00   87.5     0.00020618       -49.2241670369 -1.01E-04
 SKALA_GPW| Atom-composite cross support/maxima   2.607069088142E+00   5.929486532378E-02   4.648840651265E-01   2.605322780993E+00
 SKALA_GPW| Active atom-composite XC energy  -1.6066665144880908E+01
 SKALA_GPW| Active atom-composite electrons   3.7999923795148867E+01
 SKALA_GPW| Active atom-composite density range  -5.4686981821874197E-09   3.2570488894289090E-01
 SKALA_GPW| Active atom-composite tau range  -8.1391827335501544E-08   6.2434869942078954E+00
 SKALA_GPW| Active atom-composite tau integral   3.8465213196181118E+01
 SKALA_GPW| Active atom-composite max gradient   1.1359219019037905E+00
   186 OT DIIS     0.10E+00   88.3     0.00020564       -49.2242596177 -9.26E-05
 SKALA_GPW| Atom-composite cross support/maxima   2.607069088142E+00   5.929539709242E-02   4.648698717844E-01   2.605369570545E+00
 SKALA_GPW| Active atom-composite XC energy  -1.6066715341511905E+01
 SKALA_GPW| Active atom-composite electrons   3.7999923796046417E+01
 SKALA_GPW| Active atom-composite density range  -5.4687005324377360E-09   3.2570225915116646E-01
 SKALA_GPW| Active atom-composite tau range  -8.1413042889020539E-08   6.2435938931493045E+00
 SKALA_GPW| Active atom-composite tau integral   3.8465274901975661E+01
 SKALA_GPW| Active atom-composite max gradient   1.1359125511078449E+00
   187 OT DIIS     0.10E+00   88.3     0.00020495       -49.2243503295 -9.07E-05
 SKALA_GPW| Atom-composite cross support/maxima   2.607069088142E+00   5.929599468743E-02   4.648570960067E-01   2.605405160384E+00
 SKALA_GPW| Active atom-composite XC energy  -1.6066757253096537E+01
 SKALA_GPW| Active atom-composite electrons   3.7999923796260127E+01
 SKALA_GPW| Active atom-composite density range  -5.4688089761102624E-09   3.2569924271541412E-01
 SKALA_GPW| Active atom-composite tau range  -8.1434469751116280E-08   6.2436824787058738E+00
 SKALA_GPW| Active atom-composite tau integral   3.8465295845513900E+01
 SKALA_GPW| Active atom-composite max gradient   1.1359020903625128E+00
   188 OT DIIS     0.10E+00   87.9     0.00020452       -49.2244383385 -8.80E-05
 SKALA_GPW| Atom-composite cross support/maxima   2.607069088142E+00   5.929653913580E-02   4.648473083831E-01   2.605432014911E+00
 SKALA_GPW| Active atom-composite XC energy  -1.6066787349634211E+01
 SKALA_GPW| Active atom-composite electrons   3.7999923795894830E+01
 SKALA_GPW| Active atom-composite density range  -5.4690958526584030E-09   3.2569822945741750E-01
 SKALA_GPW| Active atom-composite tau range  -8.1453165135839479E-08   6.2437495208905034E+00
 SKALA_GPW| Active atom-composite tau integral   3.8465280408367327E+01
 SKALA_GPW| Active atom-composite max gradient   1.1358964597887846E+00
   189 OT DIIS     0.10E+00   87.5     0.00020396       -49.2245117327 -7.34E-05
 SKALA_GPW| Atom-composite cross support/maxima   2.607069088142E+00   5.929733918281E-02   4.648393578689E-01   2.605467396889E+00
 SKALA_GPW| Active atom-composite XC energy  -1.6066828770380127E+01
 SKALA_GPW| Active atom-composite electrons   3.7999923794533828E+01
 SKALA_GPW| Active atom-composite density range  -5.4695050398393871E-09   3.2570036805338937E-01
 SKALA_GPW| Active atom-composite tau range  -8.1476588178679876E-08   6.2438324878548652E+00
 SKALA_GPW| Active atom-composite tau integral   3.8465271435435817E+01
 SKALA_GPW| Active atom-composite max gradient   1.1359022121129998E+00
   190 OT DIIS     0.10E+00   88.4     0.00020334       -49.2246081564 -9.64E-05
 SKALA_GPW| Atom-composite cross support/maxima   2.607069088142E+00   5.929805809678E-02   4.648346357809E-01   2.605498824664E+00
 SKALA_GPW| Active atom-composite XC energy  -1.6066858356486836E+01
 SKALA_GPW| Active atom-composite electrons   3.7999923792946618E+01
 SKALA_GPW| Active atom-composite density range  -5.4699970803224546E-09   3.2570519022902655E-01
 SKALA_GPW| Active atom-composite tau range  -8.1494064252967524E-08   6.2438885598000873E+00
 SKALA_GPW| Active atom-composite tau integral   3.8465233326025242E+01
 SKALA_GPW| Active atom-composite max gradient   1.1359184147755761E+00
   191 OT DIIS     0.10E+00   87.9     0.00020291       -49.2246813420 -7.32E-05
 SKALA_GPW| Atom-composite cross support/maxima   2.607069088142E+00   5.929880106923E-02   4.648363954802E-01   2.605528188710E+00
 SKALA_GPW| Active atom-composite XC energy  -1.6066894729923462E+01
 SKALA_GPW| Active atom-composite electrons   3.7999923791202185E+01
 SKALA_GPW| Active atom-composite density range  -5.4705271798838547E-09   3.2571549368193869E-01
 SKALA_GPW| Active atom-composite tau range  -8.1512313255929833E-08   6.2439607722122483E+00
 SKALA_GPW| Active atom-composite tau integral   3.8465249759847502E+01
 SKALA_GPW| Active atom-composite max gradient   1.1359538666454614E+00
   192 OT DIIS     0.10E+00   87.7     0.00020234       -49.2247631981 -8.19E-05
 SKALA_GPW| Atom-composite cross support/maxima   2.607069088142E+00   5.929965185007E-02   4.648437549115E-01   2.605565870635E+00
 SKALA_GPW| Active atom-composite XC energy  -1.6066933741300922E+01
 SKALA_GPW| Active atom-composite electrons   3.7999923789575526E+01
 SKALA_GPW| Active atom-composite density range  -5.4711221140891240E-09   3.2573059742887933E-01
 SKALA_GPW| Active atom-composite tau range  -8.1530911419365257E-08   6.2440380445328305E+00
 SKALA_GPW| Active atom-composite tau integral   3.8465252798472171E+01
 SKALA_GPW| Active atom-composite max gradient   1.1360075165138266E+00
   193 OT DIIS     0.10E+00   88.4     0.00020196       -49.2248446224 -8.14E-05
 SKALA_GPW| Atom-composite cross support/maxima   2.607069088142E+00   5.930035423463E-02   4.648512661318E-01   2.605607355459E+00
 SKALA_GPW| Active atom-composite XC energy  -1.6066976081695159E+01
 SKALA_GPW| Active atom-composite electrons   3.7999923788314838E+01
 SKALA_GPW| Active atom-composite density range  -5.4715987226139843E-09   3.2574735075498457E-01
 SKALA_GPW| Active atom-composite tau range  -8.1545904033153058E-08   6.2441207036560780E+00
 SKALA_GPW| Active atom-composite tau integral   3.8465311702607757E+01
 SKALA_GPW| Active atom-composite max gradient   1.1360683607697339E+00
   194 OT DIIS     0.10E+00   88.7     0.00020151       -49.2249200206 -7.54E-05
 SKALA_GPW| Atom-composite cross support/maxima   2.607069088142E+00   5.930101434612E-02   4.648634770873E-01   2.605643081767E+00
 SKALA_GPW| Active atom-composite XC energy  -1.6067020893094959E+01
 SKALA_GPW| Active atom-composite electrons   3.7999923788013440E+01
 SKALA_GPW| Active atom-composite density range  -5.4720045928256193E-09   3.2576517476238348E-01
 SKALA_GPW| Active atom-composite tau range  -8.1561915627627401E-08   6.2442077236629405E+00
 SKALA_GPW| Active atom-composite tau integral   3.8465399593198399E+01
 SKALA_GPW| Active atom-composite max gradient   1.1361340258422086E+00
   195 OT DIIS     0.10E+00   87.9     0.00020097       -49.2249935158 -7.35E-05
 SKALA_GPW| Atom-composite cross support/maxima   2.607069088142E+00   5.930162952079E-02   4.648762016002E-01   2.605689120865E+00
 SKALA_GPW| Active atom-composite XC energy  -1.6067071466157035E+01
 SKALA_GPW| Active atom-composite electrons   3.7999923788274756E+01
 SKALA_GPW| Active atom-composite density range  -5.4723398219166641E-09   3.2578481193238390E-01
 SKALA_GPW| Active atom-composite tau range  -8.1578491940776094E-08   6.2443116114141670E+00
 SKALA_GPW| Active atom-composite tau integral   3.8465506853549854E+01
 SKALA_GPW| Active atom-composite max gradient   1.1362063375119944E+00
   196 OT DIIS     0.10E+00   88.4     0.00020062       -49.2250687421 -7.52E-05
 SKALA_GPW| Atom-composite cross support/maxima   2.607069088142E+00   5.930210344758E-02   4.648888940875E-01   2.605731773285E+00
 SKALA_GPW| Active atom-composite XC energy  -1.6067119175060217E+01
 SKALA_GPW| Active atom-composite electrons   3.7999923789259398E+01
 SKALA_GPW| Active atom-composite density range  -5.4724886368890313E-09   3.2580189814109634E-01
 SKALA_GPW| Active atom-composite tau range  -8.1592504063903152E-08   6.2444090734069997E+00
 SKALA_GPW| Active atom-composite tau integral   3.8465629717357260E+01
 SKALA_GPW| Active atom-composite max gradient   1.1362714482184095E+00
   197 OT DIIS     0.10E+00   87.7     0.00020014       -49.2251349389 -6.62E-05
 SKALA_GPW| Atom-composite cross support/maxima   2.607069088142E+00   5.930264628398E-02   4.649007378870E-01   2.605786760119E+00
 SKALA_GPW| Active atom-composite XC energy  -1.6067184764116327E+01
 SKALA_GPW| Active atom-composite electrons   3.7999923791309079E+01
 SKALA_GPW| Active atom-composite density range  -5.4726494471718508E-09   3.2582053904133096E-01
 SKALA_GPW| Active atom-composite tau range  -8.1610826276026987E-08   6.2445378205805717E+00
 SKALA_GPW| Active atom-composite tau integral   3.8465818992552265E+01
 SKALA_GPW| Active atom-composite max gradient   1.1363426492875559E+00
   198 OT DIIS     0.10E+00   88.2     0.00019963       -49.2252200702 -8.51E-05
 SKALA_GPW| Atom-composite cross support/maxima   2.607069088142E+00   5.930301858873E-02   4.649091933543E-01   2.605829102948E+00
 SKALA_GPW| Active atom-composite XC energy  -1.6067237013719868E+01
 SKALA_GPW| Active atom-composite electrons   3.7999923793271236E+01
 SKALA_GPW| Active atom-composite density range  -5.4726468585385375E-09   3.2583300040243107E-01
 SKALA_GPW| Active atom-composite tau range  -8.1626533161761740E-08   6.2446474896025990E+00
 SKALA_GPW| Active atom-composite tau integral   3.8465971350256595E+01
 SKALA_GPW| Active atom-composite max gradient   1.1363911482813733E+00
   199 OT DIIS     0.10E+00   87.9     0.00019924       -49.2252900513 -7.00E-05
 SKALA_GPW| Atom-composite cross support/maxima   2.607069088142E+00   5.930348911042E-02   4.649126440108E-01   2.605882070177E+00
 SKALA_GPW| Active atom-composite XC energy  -1.6067295321953999E+01
 SKALA_GPW| Active atom-composite electrons   3.7999923795770840E+01
 SKALA_GPW| Active atom-composite density range  -5.4726596362422926E-09   3.2584206251728431E-01
 SKALA_GPW| Active atom-composite tau range  -8.1644745947893980E-08   6.2447659613464026E+00
 SKALA_GPW| Active atom-composite tau integral   3.8466129405868287E+01
 SKALA_GPW| Active atom-composite max gradient   1.1364278965611763E+00
   200 OT DIIS     0.10E+00   88.8     0.00019873       -49.2253724359 -8.24E-05

  Leaving inner SCF loop after reaching   200 steps.


  Electronic density on regular grids:        -38.0000000000       -0.0000000000
  Core density on regular grids:               38.0000000000       -0.0000000000
  Total charge density on r-space grids:       -0.0000000001
  Total charge density g-space grids:          -0.0000000001

  Overlap energy of the core charge distribution:               0.00000398711574
  Self energy of the core charge distribution:               -117.49453977015591
  Core Hamiltonian energy:                                     36.65440749372509
  Hartree energy:                                              47.70941678183200
  Exchange-correlation energy:                                  0.00000000000000
  Dispersion energy:                                           -0.02736560645513

  GAPW_XC| Exc from hard and soft atomic rho1:                -16.06729532195400

  Total energy:                                               -49.22537243589221

  outer SCF iter =    1 RMS gradient =   0.20E-03 energy =        -49.2253724359

  ----------------------------------- OT ---------------------------------------
  Minimizer      : DIIS                : direct inversion
                                         in the iterative subspace
                                         using   7 DIIS vectors
                                         safer DIIS on
  Preconditioner : FULL_ALL            : diagonalization, state selective
  Precond_solver : DEFAULT
  stepsize       :    0.10000000                  energy_gap     :    0.00100000
  eps_taylor     :   0.10000E-15                  max_taylor     :             4
  ----------------------------------- OT ---------------------------------------

  Step     Update method      Time    Convergence         Total energy    Change
  ------------------------------------------------------------------------------
 SKALA_GPW| Atom-composite cross support/maxima   2.607069088142E+00   5.930388811869E-02   4.649093942987E-01   2.605929685503E+00
 SKALA_GPW| Active atom-composite XC energy  -1.6067351182883954E+01
 SKALA_GPW| Active atom-composite electrons   3.7999923797859481E+01
 SKALA_GPW| Active atom-composite density range  -5.4726005413345631E-09   3.2584595874360944E-01
 SKALA_GPW| Active atom-composite tau range  -8.1659328961882398E-08   6.2448845741569166E+00
 SKALA_GPW| Active atom-composite tau integral   3.8466283867006702E+01
 SKALA_GPW| Active atom-composite max gradient   1.1364456602980078E+00
     1 OT DIIS     0.10E+00  177.4     0.00813676       -49.2254544527 -8.20E-05
 SKALA_GPW| Atom-composite cross support/maxima   2.607069088142E+00   5.931447448439E-02   4.670695101224E-01   2.604174705714E+00
 SKALA_GPW| Active atom-composite XC energy  -1.6092345844923088E+01
 SKALA_GPW| Active atom-composite electrons   3.7999923355914760E+01
 SKALA_GPW| Active atom-composite density range  -5.4873430650160379E-09   3.2790819456364384E-01
 SKALA_GPW| Active atom-composite tau range  -7.9805183580108892E-08   6.2371945738901386E+00
 SKALA_GPW| Active atom-composite tau integral   3.8530421875695815E+01
 SKALA_GPW| Active atom-composite max gradient   1.1440716220405878E+00
     2 OT DIIS     0.10E+00   89.0     0.00476732       -49.2582034475 -3.27E-02
 SKALA_GPW| Atom-composite cross support/maxima   2.607069088142E+00   5.944449235740E-02   4.685418247955E-01   2.592809578813E+00
 SKALA_GPW| Active atom-composite XC energy  -1.6105392755666401E+01
 SKALA_GPW| Active atom-composite electrons   3.7999922706278063E+01
 SKALA_GPW| Active atom-composite density range  -5.4719698020876753E-09   3.2987232944063910E-01
 SKALA_GPW| Active atom-composite tau range  -7.5302222893022078E-08   6.2076875070992683E+00
 SKALA_GPW| Active atom-composite tau integral   3.8549104536882098E+01
 SKALA_GPW| Active atom-composite max gradient   1.1506108416571261E+00
     3 OT DIIS     0.10E+00   89.0     0.00053947       -49.2753067604 -1.71E-02
 SKALA_GPW| Atom-composite cross support/maxima   2.607069088142E+00   5.940477705374E-02   4.691777962834E-01   2.595201301743E+00
 SKALA_GPW| Active atom-composite XC energy  -1.6106662920575825E+01
 SKALA_GPW| Active atom-composite electrons   3.7999922608928586E+01
 SKALA_GPW| Active atom-composite density range  -5.4774348534893238E-09   3.3035917904754170E-01
 SKALA_GPW| Active atom-composite tau range  -7.5319186476206093E-08   6.2131743107496034E+00
 SKALA_GPW| Active atom-composite tau integral   3.8556910591182515E+01
 SKALA_GPW| Active atom-composite max gradient   1.1524885596896755E+00
     4 OT DIIS     0.10E+00   88.7     0.00027259       -49.2754340897 -1.27E-04
 SKALA_GPW| Atom-composite cross support/maxima   2.607069088142E+00   5.937878624756E-02   4.695091591584E-01   2.596211992093E+00
 SKALA_GPW| Active atom-composite XC energy  -1.6106505537140677E+01
 SKALA_GPW| Active atom-composite electrons   3.7999922570630652E+01
 SKALA_GPW| Active atom-composite density range  -5.4817743926727911E-09   3.3064116724653947E-01
 SKALA_GPW| Active atom-composite tau range  -7.5288586839974172E-08   6.2149153563312076E+00
 SKALA_GPW| Active atom-composite tau integral   3.8557489907795521E+01
 SKALA_GPW| Active atom-composite max gradient   1.1535806522272678E+00
     5 OT DIIS     0.10E+00   88.4     0.00015170       -49.2754746612 -4.06E-05
 SKALA_GPW| Atom-composite cross support/maxima   2.607069088142E+00   5.937250037279E-02   4.697596745883E-01   2.596445381536E+00
 SKALA_GPW| Active atom-composite XC energy  -1.6106127837787813E+01
 SKALA_GPW| Active atom-composite electrons   3.7999922541415550E+01
 SKALA_GPW| Active atom-composite density range  -5.4868925549140826E-09   3.3086923580041083E-01
 SKALA_GPW| Active atom-composite tau range  -7.5221880396114533E-08   6.2150299536753622E+00
 SKALA_GPW| Active atom-composite tau integral   3.8556542695709837E+01
 SKALA_GPW| Active atom-composite max gradient   1.1544437468467170E+00
     6 OT DIIS     0.10E+00   88.6     0.00006454       -49.2754927708 -1.81E-05
 SKALA_GPW| Atom-composite cross support/maxima   2.607069088142E+00   5.937722242350E-02   4.699253794710E-01   2.596548470825E+00
 SKALA_GPW| Active atom-composite XC energy  -1.6106112391887802E+01
 SKALA_GPW| Active atom-composite electrons   3.7999922532590311E+01
 SKALA_GPW| Active atom-composite density range  -5.4901688114929838E-09   3.3101028571687946E-01
 SKALA_GPW| Active atom-composite tau range  -7.5186335493207254E-08   6.2151404640944126E+00
 SKALA_GPW| Active atom-composite tau integral   3.8556671483811527E+01
 SKALA_GPW| Active atom-composite max gradient   1.1549694373110413E+00
     7 OT DIIS     0.10E+00   88.7     0.00002537       -49.2754965916 -3.82E-06
 SKALA_GPW| Atom-composite cross support/maxima   2.607069088142E+00   5.937943911388E-02   4.699909229215E-01   2.596542942081E+00
 SKALA_GPW| Active atom-composite XC energy  -1.6106175222021008E+01
 SKALA_GPW| Active atom-composite electrons   3.7999922533019920E+01
 SKALA_GPW| Active atom-composite density range  -5.4913909394854474E-09   3.3106267825526609E-01
 SKALA_GPW| Active atom-composite tau range  -7.5168594527154249E-08   6.2150783598609891E+00
 SKALA_GPW| Active atom-composite tau integral   3.8556945357401730E+01
 SKALA_GPW| Active atom-composite max gradient   1.1551651366358207E+00
     8 OT DIIS     0.10E+00   88.8     0.00001048       -49.2754971695 -5.78E-07
 SKALA_GPW| Atom-composite cross support/maxima   2.607069088142E+00   5.937986828850E-02   4.700003541250E-01   2.596508721305E+00
 SKALA_GPW| Active atom-composite XC energy  -1.6106222630353088E+01
 SKALA_GPW| Active atom-composite electrons   3.7999922533705139E+01
 SKALA_GPW| Active atom-composite density range  -5.4914310745405928E-09   3.3107128161820593E-01
 SKALA_GPW| Active atom-composite tau range  -7.5158177830000158E-08   6.2149851435742889E+00
 SKALA_GPW| Active atom-composite tau integral   3.8557094650327251E+01
 SKALA_GPW| Active atom-composite max gradient   1.1551972446807737E+00
     9 OT DIIS     0.10E+00   88.5     0.00000382       -49.2754972611 -9.16E-08
 SKALA_GPW| Atom-composite cross support/maxima   2.607069088142E+00   5.937963424280E-02   4.700055787090E-01   2.596516233678E+00
 SKALA_GPW| Active atom-composite XC energy  -1.6106238547196853E+01
 SKALA_GPW| Active atom-composite electrons   3.7999922534368793E+01
 SKALA_GPW| Active atom-composite density range  -5.4914787624317179E-09   3.3107551120251233E-01
 SKALA_GPW| Active atom-composite tau range  -7.5155543620779301E-08   6.2150021443082633E+00
 SKALA_GPW| Active atom-composite tau integral   3.8557147085813959E+01
 SKALA_GPW| Active atom-composite max gradient   1.1552136270277522E+00
    10 OT DIIS     0.10E+00   88.8     0.00000135       -49.2754972753 -1.42E-08
 SKALA_GPW| Atom-composite cross support/maxima   2.607069088142E+00   5.937950815828E-02   4.700024629166E-01   2.596505520192E+00
 SKALA_GPW| Active atom-composite XC energy  -1.6106236553691939E+01
 SKALA_GPW| Active atom-composite electrons   3.7999922534326977E+01
 SKALA_GPW| Active atom-composite density range  -5.4914230524107867E-09   3.3107396478218892E-01
 SKALA_GPW| Active atom-composite tau range  -7.5154185208886685E-08   6.2149790167901529E+00
 SKALA_GPW| Active atom-composite tau integral   3.8557135092956706E+01
 SKALA_GPW| Active atom-composite max gradient   1.1552073452508917E+00
    11 OT DIIS     0.10E+00   88.2     0.00000069       -49.2754972781 -2.84E-09
 SKALA_GPW| Atom-composite cross support/maxima   2.607069088142E+00   5.937942725464E-02   4.700022084559E-01   2.596508363680E+00
 SKALA_GPW| Active atom-composite XC energy  -1.6106235988071916E+01
 SKALA_GPW| Active atom-composite electrons   3.7999922534256683E+01
 SKALA_GPW| Active atom-composite density range  -5.4914224837306627E-09   3.3107412216024845E-01
 SKALA_GPW| Active atom-composite tau range  -7.5153816348796792E-08   6.2149884843100907E+00
 SKALA_GPW| Active atom-composite tau integral   3.8557135993972793E+01
 SKALA_GPW| Active atom-composite max gradient   1.1552077414359505E+00
    12 OT DIIS     0.10E+00   88.3     0.00000024       -49.2754972766  1.50E-09
 SKALA_GPW| Atom-composite cross support/maxima   2.607069088142E+00   5.937943091494E-02   4.700018191333E-01   2.596507348965E+00
 SKALA_GPW| Active atom-composite XC energy  -1.6106235511523266E+01
 SKALA_GPW| Active atom-composite electrons   3.7999922534220872E+01
 SKALA_GPW| Active atom-composite density range  -5.4914186033450378E-09   3.3107388595417991E-01
 SKALA_GPW| Active atom-composite tau range  -7.5153618517291971E-08   6.2149865516464846E+00
 SKALA_GPW| Active atom-composite tau integral   3.8557134552934336E+01
 SKALA_GPW| Active atom-composite max gradient   1.1552067917693600E+00
    13 OT DIIS     0.10E+00   88.1     0.00000013       -49.2754972774 -7.55E-10
 SKALA_GPW| Atom-composite cross support/maxima   2.607069088142E+00   5.937944359901E-02   4.700018221224E-01   2.596507415367E+00
 SKALA_GPW| Active atom-composite XC energy  -1.6106235629034654E+01
 SKALA_GPW| Active atom-composite electrons   3.7999922534184861E+01
 SKALA_GPW| Active atom-composite density range  -5.4914194047894757E-09   3.3107386536979927E-01
 SKALA_GPW| Active atom-composite tau range  -7.5153524277991627E-08   6.2149870040761925E+00
 SKALA_GPW| Active atom-composite tau integral   3.8557135424706701E+01
 SKALA_GPW| Active atom-composite max gradient   1.1552067243003576E+00
    14 OT DIIS     0.10E+00   88.7     0.00000007       -49.2754972763  1.06E-09

  *** SCF run converged in    14 steps ***


  Electronic density on regular grids:        -38.0000000000       -0.0000000000
  Core density on regular grids:               38.0000000000       -0.0000000000
  Total charge density on r-space grids:       -0.0000000000
  Total charge density g-space grids:          -0.0000000000

  Overlap energy of the core charge distribution:               0.00000398711574
  Self energy of the core charge distribution:               -117.49453977015591
  Core Hamiltonian energy:                                     36.69097454828597
  Hartree energy:                                              47.66166519393460
  Exchange-correlation energy:                                  0.00000000000000
  Dispersion energy:                                           -0.02736560645513

  GAPW_XC| Exc from hard and soft atomic rho1:                -16.10623562903465

  Total energy:                                               -49.27549727630937

  outer SCF iter =    2 RMS gradient =   0.67E-07 energy =        -49.2754972763
  outer SCF loop converged in   2 iterations or  214 steps


 !-----------------------------------------------------------------------------!
                     Mulliken Population Analysis

 #  Atom  Element  Kind  Atomic population                           Net charge
       1     H        1          1.135237                             -0.135237
       2     C        2          3.824652                              0.175348
       3     C        2          3.607443                              0.392557
       4     C        2          3.823479                              0.176521
       5     H        1          1.047927                             -0.047927
       6     N        3          5.429728                             -0.429728
       7     C        2          3.821601                              0.178399
       8     H        1          1.110911                             -0.110911
       9     C        2          3.821774                              0.178226
      10     H        1          1.136413                             -0.136413
      11     C        2          3.614175                              0.385825
      12     H        1          1.111663                             -0.111663
      13     H        1          1.118923                             -0.118923
      14     H        1          1.121446                             -0.121446
      15     H        1          1.136879                             -0.136879
      16     H        1          1.137748                             -0.137748
 # Total charge                             38.000000                 -0.000000

 !-----------------------------------------------------------------------------!

 !-----------------------------------------------------------------------------!
                           Hirshfeld Charges

  #Atom  Element  Kind  Ref Charge     Population                    Net charge
      1       H      1       1.000          0.546                         0.454
      2       C      2       4.000          4.481                        -0.481
      3       C      2       4.000          4.322                        -0.322
      4       C      2       4.000          4.480                        -0.480
      5       H      1       1.000          0.487                         0.513
      6       N      3       5.000          5.636                        -0.636
      7       C      2       4.000          4.921                        -0.921
      8       H      1       1.000          0.550                         0.450
      9       C      2       4.000          4.922                        -0.922
     10       H      1       1.000          0.546                         0.454
     11       C      2       4.000          4.321                        -0.321
     12       H      1       1.000          0.550                         0.450
     13       H      1       1.000          0.555                         0.445
     14       H      1       1.000          0.555                         0.445
     15       H      1       1.000          0.558                         0.442
     16       H      1       1.000          0.557                         0.443

  Total Charge                                                            0.014
 !-----------------------------------------------------------------------------!

 ENERGY| Total FORCE_EVAL ( QS ) energy [hartree]            -49.275497276309373

 -------------------------------------------------------------------------------
 -                                                                             -
 -                                DBCSR STATISTICS                             -
 -                                                                             -
 -------------------------------------------------------------------------------
 COUNTER                                    TOTAL       BLAS       SMM       ACC
 flops    19 x    19 x    19             26283688       0.0%      0.0%    100.0%     
 flops    14 x    14 x    19             72059400       0.0%      0.0%    100.0% (*) 
 flops    19 x    19 x    14             78053976       0.0%      0.0%    100.0% (*) 
 flops    14 x    19 x    19             97521984       0.0%      0.0%    100.0% (*) 
 flops    29 x    14 x    19            102827620       0.0%      0.0%    100.0% (*) 
 flops    14 x    29 x    19            106144640       0.0%      0.0%    100.0% (*) 
 flops    19 x    19 x    29            125753628       0.0%      0.0%    100.0% (*) 
 flops    29 x    19 x    19            157118752       0.0%      0.0%    100.0% (*) 
 flops    29 x    29 x    19            192387160       0.0%      0.0%    100.0% (*) 
 flops    14 x    19 x    14            533909880       0.0%      0.0%    100.0% (*) 
 flops    29 x    19 x    14            860188140       0.0%      0.0%    100.0% (*) 
 flops    14 x    19 x    29            860188140       0.0%      0.0%    100.0% (*) 
 flops    29 x    19 x    29           1385858670       0.0%      0.0%    100.0% (*) 

 *** WARNING in dbcsr_mm_sched.F:613 :: (*) ACC Untuned kernels, consider ***
 *** to run the ACC tuning procedure for them                             ***

 flops inhomo. stacks                           0       0.0%      0.0%      0.0%
 flops total                         4.598296E+09       0.0%      0.0%    100.0%
 flops max/rank                      4.598296E+09       0.0%      0.0%    100.0%
 matmuls inhomo. stacks                         0       0.0%      0.0%      0.0%
 matmuls total                             288596       0.0%      0.0%    100.0%
 number of processed stacks                 55984       0.0%      0.0%    100.0%
 average stack size                                     0.0       0.0       5.2
 marketing flops                     5.009870E+09
 -------------------------------------------------------------------------------
 # multiplications                           4948
 max memory usage/rank             263.991067E+09
 # max total images/rank                        1
 # max 3D layers                                1
 # MPI messages exchanged                       0
 -------------------------------------------------------------------------------
 -                                                                             -
 -                      DBCSR MESSAGE PASSING PERFORMANCE                      -
 -                                                                             -
 -------------------------------------------------------------------------------
 ROUTINE             CALLS      AVE VOLUME [Bytes]
 MP_Bcast               14                     12.
 MP_Allreduce        14889                      8.
 MP_Alltoall         16236                   3958.
 MP_ISend            19784                    601.
 MP_IRecv            19784                    601.
 -------------------------------------------------------------------------------

 -------------------------------------------------------------------------------
 -                                                                             -
 -                                GRID STATISTICS                              -
 -                                                                             -
 -------------------------------------------------------------------------------
 LP    KERNEL             BACKEND                              COUNT     PERCENT
 5     collocate ortho    GPU                                 503315      16.41%
 5     integrate ortho    GPU                                 500974      16.34%
 6     collocate ortho    GPU                                 383130      12.49%
 6     integrate ortho    GPU                                 381348      12.44%
 4     collocate ortho    GPU                                 344215      11.22%
 4     integrate ortho    GPU                                 342614      11.17%
 7     collocate ortho    GPU                                 209840       6.84%
 7     integrate ortho    GPU                                 208864       6.81%
 8     collocate ortho    GPU                                  96320       3.14%
 8     integrate ortho    GPU                                  95872       3.13%
 0     collocate general  CPU                                     48       0.00%
 0     integrate general  CPU                                     16       0.00%
 -------------------------------------------------------------------------------

 -------------------------------------------------------------------------------
 -                                                                             -
 -                          OFFLOAD MEMPOOL STATISTICS                         -
 -                                                                             -
 -------------------------------------------------------------------------------
 Memory consumption                Number of allocations  Used [MiB]  Size [MiB]
 Device                                                9         461         461
 Host                                                  9         461  13143066778412
 -------------------------------------------------------------------------------

 MEMORY| Estimated peak process memory [MiB]                               21530

 -------------------------------------------------------------------------------
 ----                             MULTIGRID INFO                            ----
 -------------------------------------------------------------------------------
 count for grid        1:          45842          cutoff [a.u.]          200.00
 count for grid        2:          18696          cutoff [a.u.]           66.67
 count for grid        3:          11052          cutoff [a.u.]           22.22
 count for grid        4:           2067          cutoff [a.u.]            7.41
 count for grid        5:              0          cutoff [a.u.]            2.47
 total gridlevel count  :          77657

 -------------------------------------------------------------------------------
 -                                                                             -
 -                         MESSAGE PASSING PERFORMANCE                         -
 -                                                                             -
 -------------------------------------------------------------------------------

 ROUTINE             CALLS      AVE VOLUME [Bytes]
 MP_Group              647
 MP_Bcast            15154                  47775.
 MP_Allreduce        59265               14268405.
 MP_Sync               235
 MP_comm_split         230
 -------------------------------------------------------------------------------


 -------------------------------------------------------------------------------
 -                                                                             -
 -                           R E F E R E N C E S                               -
 -                                                                             -
 -------------------------------------------------------------------------------
 
 CP2K version 2026.2 (Development Version), the CP2K developers group (2026).
 CP2K is freely available from https://www.cp2k.org/ .
 
 M. Iannuzzi, J. Wilhelm, F. Stein, A. Bussy, H. Elgabarty, D. Golze, A. Hehn, 
 M. Graml, S. Marek, B. Sertcan Gökmen, C. Schran, H. Forbert, R. Z. 
 Khaliullin, A. Kozhevnikov, M. Taillefumier, R. Meli, V. V. Rybkin, M. Brehm, 
 R. Schade, O. Schütt, J. V. Pototschnig, H. Mirhosseini, A. Knüpfer, D. Marx, 
 M. Krack, J. Hutter, T. D. Kühne.
 J. Phys. Chem. B 130, 1237-1310 (2026).
 The CP2K Program Package Made Simple.
 https://doi.org/10.1021/acs.jpcb.5c05851

 L. Wittmann, I. Gordiy, M. Friede, B. Helmich-Paris, S. Grimme, A. Hansen, M. 
 Bursch.
 Phys. Chem. Chem. Phys. 26, 21379-21394 (2024).
 Extension of the D3 and D4 London dispersion corrections to the full actinides 
 series.
 https://doi.org/10.1039/d4cp01514b

 T. D. Kühne, M. Iannuzzi, M. Del Ben, V. V. Rybkin, P. Seewald, F. Stein, T. 
 Laino, R. Z. Khaliullin, O. Schütt, F. Schiffmann, D. Golze, J. Wilhelm, S. 
 Chulkov, M. H. Bani-Hashemian, V. Weber, U. Borstnik, M. Taillefumier, A. S. 
 Jakobovits, A. Lazzaro, H. Pabst, T. Müller, R. Schade, M. Guidon, S. 
 Andermatt, N. Holmberg, G. K. Schenter, A. Hehn, A. Bussy, F. Belleflamme, G. 
 Tabacchi, A. Glöß, M. Lass, I. Bethune, C. J. Mundy, C. Plessl, M. Watkins, 
 J. VandeVondele, M. Krack, J. Hutter.
 J. Chem. Phys. 152, 194103 (2020).
 CP2K: An electronic structure and molecular dynamics software package - 
 Quickstep: Efficient and accurate electronic structure calculations.
 https://doi.org/10.1063/5.0007045

 L. Goerigk, A. Hansen, C. Bauer, S. Ehrlich, A. Najibi, S. Grimme.
 Phys. Chem. Chem. Phys. 19, 32184-32215 (2017).
 A look at the density functional theory zoo with the advanced GMTKN55 database 
 for general main group thermochemistry, kinetics and noncovalent interactions.
 https://doi.org/10.1039/C7CP04913G

 O. Schuett, P. Messmer, J. Hutter, J. VandeVondele.
 Electronic Structure Calculations on Graphics Processing Units, 173-190 (2016).
 GPU-Accelerated Sparse Matrix-Matrix Multiplication for Linear Scaling Density 
 Functional Theory.
 https://doi.org/10.1002/9781118670712.ch8

 U. Borstnik, J. VandeVondele, V. Weber, J. Hutter.
 Parallel Comput. 40, 47-58 (2014).
 Sparse matrix multiplication: The distributed block-compressed sparse row 
 library.
 https://doi.org/10.1016/j.parco.2014.03.012

 S. Grimme, S. Ehrlich, L. Goerigk.
 J. Comput. Chem. 32, 1456 (2011).
 Effect of the damping function in dispersion corrected density functional 
 theory.
 https://doi.org/10.1002/jcc.21759

 S. Grimme, J. Antony, S. Ehrlich, H. Krieg.
 J. Chem. Phys. 132, 154104 (2010).
 A consistent and accurate ab initio parametrization of density functional 
 dispersion correction (DFT-D) for the 94 elements H-Pu.
 https://doi.org/10.1063/1.3382344

 J. VandeVondele, J. Hutter.
 J. Chem. Phys. 127, 114105 (2007).
 Gaussian basis sets for accurate calculations on molecular systems in gas and 
 condensed phases.
 https://doi.org/10.1063/1.2770708

 M. Krack.
 Theor. Chem. Acc. 114, 145-152 (2005).
 Pseudopotentials for H to Kr optimized for gradient-corrected 
 exchange-correlation functionals.
 https://doi.org/10.1007/s00214-005-0655-y

 M. Frigo, S. G. Johnson.
 Proc. IEEE 93, 216-231 (2005).
 The design and implementation of FFTW3.
 https://doi.org/10.1109/JPROC.2004.840301

 J. VandeVondele, J. Hutter.
 J. Chem. Phys. 118, 4365-4369 (2003).
 An efficient orbital transformation method for electronic structure 
 calculations.
 https://doi.org/10.1063/1.1543154

 C. Hartwigsen, S. Goedecker, J. Hutter.
 Phys. Rev. B 58, 3641-3662 (1998).
 Relativistic separable dual-space Gaussian pseudopotentials from H to Rn.
 https://doi.org/10.1103/PhysRevB.58.3641

 S. Goedecker, M. Teter, J. Hutter.
 Phys. Rev. B 54, 1703-1710 (1996).
 Separable dual-space Gaussian pseudopotentials.
 https://doi.org/10.1103/PhysRevB.54.1703


 -------------------------------------------------------------------------------
 -                                                                             -
 -                                T I M I N G                                  -
 -                                                                             -
 -------------------------------------------------------------------------------
 SUBROUTINE                       CALLS  ASD         SELF TIME        TOTAL TIME
                                MAXIMUM       AVERAGE  MAXIMUM  AVERAGE  MAXIMUM
 CP2K                                 1  1.0     1.09     1.09 18972.41 18972.41
 qs_energies                          1  2.0     0.00     0.00 18962.08 18962.08
 scf_env_do_scf                       1  3.0     0.00     0.00 18958.00 18958.00
 scf_env_do_scf_inner_loop          214  4.0     0.27     0.27 18783.05 18783.05
 qs_ks_update_qs_env                216  5.0     0.00     0.00 18678.85 18678.85
 rebuild_ks_matrix                  214  6.0     0.00     0.00 18678.78 18678.78
 qs_ks_build_kohn_sham_matrix       214  7.0     0.07     0.07 18678.78 18678.78
 calculate_vxc_atom                 214  8.0 16242.66 16242.66 18280.17 18280.17
 gaVxcgb_GC                        6848  9.0  1480.05  1480.05  1480.05  1480.05
 -------------------------------------------------------------------------------

 The number of warnings for this run is : 1
 
 -------------------------------------------------------------------------------
  **** **** ******  **  PROGRAM ENDED AT                 2026-08-25 09:06:46.585
 ***** ** ***  *** **   PROGRAM RAN ON                                     gh003
 **    ****   ******    PROGRAM RAN BY                                  kuehne88
 ***** **    ** ** **   PROGRAM PROCESS ID                               2121008
  **** **  *******  **  PROGRAM STOPPED IN /data/home2/kuehne88/cp2k-native-skal
                                           a/validation-uzh/diet-production-p25/
                                           gapwxc-gth-one-center/b2ce4f64b872966
                                           df0477799d122be7eb65d495d
