 DBCSR| CPU Multiplication driver                                           BLAS (U)
 DBCSR| Multrec recursion limit                                              512 (U)
 DBCSR| Multiplication stack size                                           1000 (D)
 DBCSR| Maximum elements for images                                    UNLIMITED (U)
 DBCSR| Multiplicative factor virtual images                                   1 (U)
 DBCSR| Use multiplication densification                                       T (D)
 DBCSR| Multiplication size stacks                                             3 (U)
 DBCSR| Use memory pool for CPU allocation                                     F (U)
 DBCSR| OMP: Current number of threads                                        32
 DBCSR| OMP: Max number of threads                                            32
 DBCSR| Split modifier for TAS multiplication algorithm                  1.0E+00 (U)


  **** **** ******  **  PROGRAM STARTED AT               2026-09-15 14:58:14.544
 ***** ** ***  *** **   PROGRAM STARTED ON                                cge066
 **    ****   ******    PROGRAM STARTED BY                              kuehne88
 ***** **    ** ** **   PROGRAM PROCESS ID                                774432
  **** **  *******  **  PROGRAM STARTED IN /bigdata/casus/fwuk/shared/kuehne88-n
                                           ative-skala/diet-ae-basis-controls-20
                                           260915/runs/CARBHB12-4/4O_B/tzvpp

 CP2K| version string:                 CP2K version 2026.2 (Development Version)
 CP2K| source code revision number:                                   37aedacbb3
 CP2K| cp2kflags: omp fftw3 spglib openblas libtorch libtorch_cuda              
 CP2K| is freely available from                            https://www.cp2k.org/
 CP2K| Program compiled at                                   2026-09-08 17:20:25
 CP2K| Program compiled on                                                ctu003
 CP2K| Program compiled for                                               x86_64
 CP2K| Data directory path            /home/kuehne88/cp2k-native-skala/cp2k/data
 CP2K| Input file name                                          actual-input.inp

 GLOBAL| Force Environment number                                              1
 GLOBAL| Basis set file name                             BASIS_MOLOPT_UZH_2026.2
 GLOBAL| Potential file name                                POTENTIAL_UZH_2026.2
 GLOBAL| MM Potential file name                                     MM_POTENTIAL
 GLOBAL| Coordinate file name                                      __STD_INPUT__
 GLOBAL| Method name                                                        CP2K
 GLOBAL| Project name                                      diet_d3bdfae074_tzvpp
 GLOBAL| Run type                                                         ENERGY
 GLOBAL| FFT library                                                       FFTW3
 GLOBAL| Diagonalization library                                       ScaLAPACK
 GLOBAL| Cholesky decomposition library                                ScaLAPACK
 GLOBAL| DGEMM library                                                      BLAS
 GLOBAL| Direct generalized diagonalization requested                          F
 GLOBAL| Orthonormality check for eigenvectors                          DISABLED
 GLOBAL| Matrix multiplication library                                 ScaLAPACK
 GLOBAL| All-to-all communication in single precision                          F
 GLOBAL| Grid backend                                                       AUTO
 GLOBAL| Global print level                                               MEDIUM
 GLOBAL| MPI I/O enabled                                                       T
 GLOBAL| Total number of message passing processes                             1
 GLOBAL| Number of distributed systems (nodes)                                 1
 GLOBAL| Number of threads for this process                                   32
 GLOBAL| This output is from process                                           0
 GLOBAL| OpenMP stack size per thread (OMP_STACKSIZE)                       256M
 GLOBAL| CPU model name                          AMD EPYC 9654 96-Core Processor

 MEMORY| system memory details [Kb]
 MEMORY|                        rank 0           min           max       average
 MEMORY| MemTotal           1584845148    1584845148    1584845148    1584845148
 MEMORY| MemFree            1525819020    1525819020    1525819020    1525819020
 MEMORY| Buffers                     0             0             0             0
 MEMORY| Cached                8142884       8142884       8142884       8142884
 MEMORY| Slab                  1855632       1855632       1855632       1855632
 MEMORY| SReclaimable           467360        467360        467360        467360
 MEMORY| MemLikelyFree      1534429264    1534429264    1534429264    1534429264


 *** Fundamental physical constants (SI units) ***

 *** Literature: B. J. Mohr and B. N. Taylor,
 ***             CODATA recommended values of the fundamental physical
 ***             constants: 2006, Web Version 5.1
 ***             http://physics.nist.gov/constants

 Speed of light in vacuum [m/s]                             2.99792458000000E+08
 Magnetic constant or permeability of vacuum [N/A**2]       1.25663706143592E-06
 Electric constant or permittivity of vacuum [F/m]          8.85418781762039E-12
 Planck constant (h) [J*s]                                  6.62606896000000E-34
 Planck constant (h-bar) [J*s]                              1.05457162825177E-34
 Elementary charge [C]                                      1.60217648700000E-19
 Electron mass [kg]                                         9.10938215000000E-31
 Electron g factor [ ]                                     -2.00231930436220E+00
 Proton mass [kg]                                           1.67262163700000E-27
 Fine-structure constant                                    7.29735253760000E-03
 Rydberg constant [1/m]                                     1.09737315685270E+07
 Avogadro constant [1/mol]                                  6.02214179000000E+23
 Boltzmann constant [J/K]                                   1.38065040000000E-23
 Atomic mass unit [kg]                                      1.66053878200000E-27
 Bohr radius [m]                                            5.29177208590000E-11

 *** Conversion factors ***

 [u] -> [a.u.]                                              1.82288848426455E+03
 [Angstrom] -> [Bohr] = [a.u.]                              1.88972613288564E+00
 [a.u.] = [Bohr] -> [Angstrom]                              5.29177208590000E-01
 [a.u.] -> [s]                                              2.41888432650478E-17
 [a.u.] -> [fs]                                             2.41888432650478E-02
 [a.u.] -> [J]                                              4.35974393937059E-18
 [a.u.] -> [N]                                              8.23872205491840E-08
 [a.u.] -> [K]                                              3.15774647902944E+05
 [a.u.] -> [kJ/mol]                                         2.62549961709828E+03
 [a.u.] -> [kcal/mol]                                       6.27509468713739E+02
 [a.u.] -> [Pa]                                             2.94210107994716E+13
 [a.u.] -> [bar]                                            2.94210107994716E+08
 [a.u.] -> [atm]                                            2.90362800883016E+08
 [a.u.] -> [eV]                                             2.72113838565563E+01
 [a.u.] -> [Hz]                                             6.57968392072181E+15
 [a.u.] -> [1/cm] (wave numbers)                            2.19474631370540E+05
 [a.u./Bohr**2] -> [1/cm]                                   5.14048714338585E+03
 

 CELL| Volume [angstrom^3]:                                         17550.000000
 CELL| Vector a [angstrom]:      27.000     0.000     0.000   |a| =    27.000000
 CELL| Vector b [angstrom]:       0.000    25.000     0.000   |b| =    25.000000
 CELL| Vector c [angstrom]:       0.000     0.000    26.000   |c| =    26.000000
 CELL| Angle (b,c), alpha [degree]:                                    90.000000
 CELL| Angle (a,c), beta  [degree]:                                    90.000000
 CELL| Angle (a,b), gamma [degree]:                                    90.000000
 CELL| Numerically orthorhombic:                                             YES
 CELL| Periodicity                                                          NONE

 CELL_REF| Volume [angstrom^3]:                                     17550.000000
 CELL_REF| Vector a [angstrom    27.000     0.000     0.000   |a| =    27.000000
 CELL_REF| Vector b [angstrom     0.000    25.000     0.000   |b| =    25.000000
 CELL_REF| Vector c [angstrom     0.000     0.000    26.000   |c| =    26.000000
 CELL_REF| Angle (b,c), alpha [degree]:                                90.000000
 CELL_REF| Angle (a,c), beta  [degree]:                                90.000000
 CELL_REF| Angle (a,b), gamma [degree]:                                90.000000
 CELL_REF| Numerically orthorhombic:                                         YES
 CELL_REF| Periodicity                                                      NONE

 GENERATE|  Preliminary Number of Bonds generated:                             0
 GENERATE|  Achieved consistency in connectivity generation.

 *******************************************************************************
 *******************************************************************************
 **                                                                           **
 **     #####                         ##              ##                      **
 **    ##   ##            ##          ##              ##                      **
 **   ##     ##                       ##            ######                    **
 **   ##     ##  ##   ##  ##   #####  ##  ##   ####   ##    #####    #####    **
 **   ##     ##  ##   ##  ##  ##      ## ##   ##      ##   ##   ##  ##   ##   **
 **   ##  ## ##  ##   ##  ##  ##      ####     ###    ##   ######   ######    **
 **    ##  ###   ##   ##  ##  ##      ## ##      ##   ##   ##       ##        **
 **     #######   #####   ##   #####  ##  ##  ####    ##    #####   ##        **
 **           ##                                                    ##        **
 **                                                                           **
 **                                                ... make the atoms dance   **
 **                                                                           **
 **            Copyright (C) by CP2K developers group (2000-2026)             **
 **                      J. Chem. Phys. 152, 194103 (2020)                    **
 **                                                                           **
 *******************************************************************************

 DFT| Spin restricted Kohn-Sham (RKS) calculation                            RKS
 DFT| Multiplicity                                                             1
 DFT| Number of spin states                                                    1
 DFT| Charge                                                                   0
 DFT| Self-interaction correction (SIC)                                       NO
 DFT| Cutoffs: density                                              1.000000E-10
 DFT|          gradient                                             1.000000E-10
 DFT|          tau                                                  1.000000E-10
 DFT|          cutoff_smoothing_range                               0.000000E+00
 DFT| XC density smoothing                                                  NONE
 DFT| XC derivatives                                                          PW

 FUNCTIONAL| GAUXC:
 FUNCTIONAL| Functional computed by GauXC Skala model SKALA                     

 vdW POTENTIAL|                                                   Pair Potential
 vdW POTENTIAL|          DFT-D3 (Version 3.1)
 vdW POTENTIAL|          Potential Form: S. Grimme et al, JCP 132: 154104 (2010)
 vdW POTENTIAL|          BJ Damping: S. Grimme et al, JCC 32: 1456 (2011)
 vdW POTENTIAL|          Cutoff Radius [Bohr]:                             37.79
 vdW POTENTIAL|          s6 Scaling Factor:                               1.0000
 vdW POTENTIAL|          a1 Damping Factor:                               0.3981
 vdW POTENTIAL|          s8 Scaling Factor:                               1.9889
 vdW POTENTIAL|          a2 Damping Factor:                               4.4211
 vdW POTENTIAL|          Cutoff for CN calculation:                   0.1000E-05

 QS| Method:                                                                GAPW
 QS| Density plane wave grid type                        NON-SPHERICAL FULLSPACE
 QS| Number of grid levels:                                                    5
 QS| Density cutoff [a.u.]:                                                320.0
 QS| Multi grid cutoff [a.u.]: 1) grid level                               320.0
 QS|                           2) grid level                               106.7
 QS|                           3) grid level                                35.6
 QS|                           4) grid level                                11.9
 QS|                           5) grid level                                 4.0
 QS| Grid level progression factor:                                          3.0
 QS| Relative density cutoff [a.u.]:                                        30.0
 QS| Interaction thresholds: eps_pgf_orb:                                1.0E-07
 QS|                         eps_filter_matrix:                          0.0E+00
 QS|                         eps_core_charge:                            1.0E-16
 QS|                         eps_rho_gspace:                             1.0E-14
 QS|                         eps_rho_rspace:                             1.0E-14
 QS|                         eps_gvg_rspace:                             1.0E-07
 QS|                         eps_ppl:                                    1.0E-02
 QS|                         eps_ppnl:                                   1.0E-09
 QS| GAPW|      XC integration using accurate scheme: Ref. exponent     6.000000
 QS| GAPW|      One center basis extended with primitives (small:s)
 QS| GAPW|                   eps_fit:                                    1.0E-04
 QS| GAPW|                   eps_iso:                                    1.0E-12
 QS| GAPW|                   eps_svd:                                    1.0E-08
 QS| GAPW|                   eps_cpc:                                    1.0E-14
 QS| GAPW|   atom-r-grid: quadrature:                                     GC_LOG
 QS| GAPW|      atom-s-grid:  max l :                                          6
 QS| GAPW|      max_l_rho0 :                                                   4


 ATOMIC KIND INFORMATION

  1. Atomic kind: O                                     Number of atoms:       1

     Orbital Basis Set                                       TZVPP-MOLOPT-PBE-ae

       Number of orbital shell sets:                                           2
       Number of orbital shells:                                              11
       Number of primitive Cartesian functions:                               12
       Number of Cartesian basis functions:                                   36
       Number of spherical basis functions:                                   31
       Norm type:                                                              2

       Normalised Cartesian orbitals:

                        Set   Shell   Orbital            Exponent    Coefficient

                          1       1    1s            27032.341107       0.827485
                                                      4052.439160       2.350354
                                                       922.349653       2.989583
                                                       261.277359       5.859993
                                                        85.309424       4.920023
                                                        31.080802       6.525964

                          2       1    1s               62.914956       1.320675
                                                        12.309450       2.903007
                                                         4.395399       0.718493
                                                         1.335408       0.005818
                                                         0.454433       0.026241
                                                         0.148931       0.008771

                          2       2    2s               62.914956      -0.747743
                                                        12.309450      -0.053902
                                                         4.395399      -0.111917
                                                         1.335408       0.667362
                                                         0.454433       0.073646
                                                         0.148931       0.036066

                          2       3    3s               62.914956       0.182030
                                                        12.309450      -0.509964
                                                         4.395399      -0.066370
                                                         1.335408      -0.296204
                                                         0.454433       0.339134
                                                         0.148931       0.072341

                          2       4    4s               62.914956       1.590188
                                                        12.309450      -0.201401
                                                         4.395399      -0.014958
                                                         1.335408      -0.186757
                                                         0.454433      -0.327789
                                                         0.148931       0.257390

                          2       5    2px              62.914956     -23.794765
                                                        12.309450       3.872733
                                                         4.395399       2.867225
                                                         1.335408       1.487193
                                                         0.454433      -0.015509
                                                         0.148931       0.002211
                          2       5    2py              62.914956     -23.794765
                                                        12.309450       3.872733
                                                         4.395399       2.867225
                                                         1.335408       1.487193
                                                         0.454433      -0.015509
                                                         0.148931       0.002211
                          2       5    2pz              62.914956     -23.794765
                                                        12.309450       3.872733
                                                         4.395399       2.867225
                                                         1.335408       1.487193
                                                         0.454433      -0.015509
                                                         0.148931       0.002211

                          2       6    3px              62.914956      36.698597
                                                        12.309450      -1.837950
                                                         4.395399       0.441215
                                                         1.335408       0.085170
                                                         0.454433       0.481961
                                                         0.148931       0.008518
                          2       6    3py              62.914956      36.698597
                                                        12.309450      -1.837950
                                                         4.395399       0.441215
                                                         1.335408       0.085170
                                                         0.454433       0.481961
                                                         0.148931       0.008518
                          2       6    3pz              62.914956      36.698597
                                                        12.309450      -1.837950
                                                         4.395399       0.441215
                                                         1.335408       0.085170
                                                         0.454433       0.481961
                                                         0.148931       0.008518

                          2       7    4px              62.914956     -10.152534
                                                        12.309450       0.600610
                                                         4.395399      -0.295522
                                                         1.335408      -0.042535
                                                         0.454433      -0.034294
                                                         0.148931       0.138320
                          2       7    4py              62.914956     -10.152534
                                                        12.309450       0.600610
                                                         4.395399      -0.295522
                                                         1.335408      -0.042535
                                                         0.454433      -0.034294
                                                         0.148931       0.138320
                          2       7    4pz              62.914956     -10.152534
                                                        12.309450       0.600610
                                                         4.395399      -0.295522
                                                         1.335408      -0.042535
                                                         0.454433      -0.034294
                                                         0.148931       0.138320

                          2       8    3dx2             62.914956     245.407483
                                                        12.309450      -3.718320
                                                         4.395399      13.187048
                                                         1.335408       1.177796
                                                         0.454433       0.037044
                                                         0.148931       0.011799
                          2       8    3dxy             62.914956     425.058229
                                                        12.309450      -6.440319
                                                         4.395399      22.840637
                                                         1.335408       2.040003
                                                         0.454433       0.064161
                                                         0.148931       0.020436
                          2       8    3dxz             62.914956     425.058229
                                                        12.309450      -6.440319
                                                         4.395399      22.840637
                                                         1.335408       2.040003
                                                         0.454433       0.064161
                                                         0.148931       0.020436
                          2       8    3dy2             62.914956     245.407483
                                                        12.309450      -3.718320
                                                         4.395399      13.187048
                                                         1.335408       1.177796
                                                         0.454433       0.037044
                                                         0.148931       0.011799
                          2       8    3dyz             62.914956     425.058229
                                                        12.309450      -6.440319
                                                         4.395399      22.840637
                                                         1.335408       2.040003
                                                         0.454433       0.064161
                                                         0.148931       0.020436
                          2       8    3dz2             62.914956     245.407483
                                                        12.309450      -3.718320
                                                         4.395399      13.187048
                                                         1.335408       1.177796
                                                         0.454433       0.037044
                                                         0.148931       0.011799

                          2       9    4dx2             62.914956    -198.939864
                                                        12.309450       6.262545
                                                         4.395399      -7.656182
                                                         1.335408       1.062793
                                                         0.454433       0.341143
                                                         0.148931      -0.006399
                          2       9    4dxy             62.914956    -344.573952
                                                        12.309450      10.847045
                                                         4.395399     -13.260897
                                                         1.335408       1.840811
                                                         0.454433       0.590877
                                                         0.148931      -0.011084
                          2       9    4dxz             62.914956    -344.573952
                                                        12.309450      10.847045
                                                         4.395399     -13.260897
                                                         1.335408       1.840811
                                                         0.454433       0.590877
                                                         0.148931      -0.011084
                          2       9    4dy2             62.914956    -198.939864
                                                        12.309450       6.262545
                                                         4.395399      -7.656182
                                                         1.335408       1.062793
                                                         0.454433       0.341143
                                                         0.148931      -0.006399
                          2       9    4dyz             62.914956    -344.573952
                                                        12.309450      10.847045
                                                         4.395399     -13.260897
                                                         1.335408       1.840811
                                                         0.454433       0.590877
                                                         0.148931      -0.011084
                          2       9    4dz2             62.914956    -198.939864
                                                        12.309450       6.262545
                                                         4.395399      -7.656182
                                                         1.335408       1.062793
                                                         0.454433       0.341143
                                                         0.148931      -0.006399

                          2      10    4fx3             62.914956       4.775823
                                                        12.309450      16.622131
                                                         4.395399      -5.031344
                                                         1.335408       2.406605
                                                         0.454433       0.066745
                                                         0.148931       0.001654
                          2      10    4fx2y            62.914956      10.679066
                                                        12.309450      37.168214
                                                         4.395399     -11.250428
                                                         1.335408       5.381333
                                                         0.454433       0.149247
                                                         0.148931       0.003699
                          2      10    4fx2z            62.914956      10.679066
                                                        12.309450      37.168214
                                                         4.395399     -11.250428
                                                         1.335408       5.381333
                                                         0.454433       0.149247
                                                         0.148931       0.003699
                          2      10    4fxy2            62.914956      10.679066
                                                        12.309450      37.168214
                                                         4.395399     -11.250428
                                                         1.335408       5.381333
                                                         0.454433       0.149247
                                                         0.148931       0.003699
                          2      10    4fxyz            62.914956      18.496684
                                                        12.309450      64.377235
                                                         4.395399     -19.486313
                                                         1.335408       9.320743
                                                         0.454433       0.258503
                                                         0.148931       0.006406
                          2      10    4fxz2            62.914956      10.679066
                                                        12.309450      37.168214
                                                         4.395399     -11.250428
                                                         1.335408       5.381333
                                                         0.454433       0.149247
                                                         0.148931       0.003699
                          2      10    4fy3             62.914956       4.775823
                                                        12.309450      16.622131
                                                         4.395399      -5.031344
                                                         1.335408       2.406605
                                                         0.454433       0.066745
                                                         0.148931       0.001654
                          2      10    4fy2z            62.914956      10.679066
                                                        12.309450      37.168214
                                                         4.395399     -11.250428
                                                         1.335408       5.381333
                                                         0.454433       0.149247
                                                         0.148931       0.003699
                          2      10    4fyz2            62.914956      10.679066
                                                        12.309450      37.168214
                                                         4.395399     -11.250428
                                                         1.335408       5.381333
                                                         0.454433       0.149247
                                                         0.148931       0.003699
                          2      10    4fz3             62.914956       4.775823
                                                        12.309450      16.622131
                                                         4.395399      -5.031344
                                                         1.335408       2.406605
                                                         0.454433       0.066745
                                                         0.148931       0.001654

       Atomic covalent radius [Angstrom]:                                  0.730

       Atomic van der Waals radius [Angstrom]:                             1.520

     The atoms of this atomic kind are PAW atoms (GAPW):
       Hard Gaussian function radius:                                      1.400
       Rho0 radius:                                                        1.400
       Maximum GTO radius used for PAW projector construction:            24.566

     GAPW Soft Basis Set                                TZVPP-MOLOPT-PBE-ae_soft

       Number of orbital shell sets:                                           2
       Number of orbital shells:                                              11
       Number of primitive Cartesian functions:                                4
       Number of Cartesian basis functions:                                   36
       Number of spherical basis functions:                                   31
       Norm type:                                                              2

       Normalised Cartesian orbitals:

                        Set   Shell   Orbital            Exponent    Coefficient

                          1       1    1s         

                          2       1    1s                4.395399       0.718493
                                                         1.335408       0.005818
                                                         0.454433       0.026241
                                                         0.148931       0.008771

                          2       2    2s                4.395399      -0.111917
                                                         1.335408       0.667362
                                                         0.454433       0.073646
                                                         0.148931       0.036066

                          2       3    3s                4.395399      -0.066370
                                                         1.335408      -0.296204
                                                         0.454433       0.339134
                                                         0.148931       0.072341

                          2       4    4s                4.395399      -0.014958
                                                         1.335408      -0.186757
                                                         0.454433      -0.327789
                                                         0.148931       0.257390

                          2       5    2px               4.395399       2.867225
                                                         1.335408       1.487193
                                                         0.454433      -0.015509
                                                         0.148931       0.002211
                          2       5    2py               4.395399       2.867225
                                                         1.335408       1.487193
                                                         0.454433      -0.015509
                                                         0.148931       0.002211
                          2       5    2pz               4.395399       2.867225
                                                         1.335408       1.487193
                                                         0.454433      -0.015509
                                                         0.148931       0.002211

                          2       6    3px               4.395399       0.441215
                                                         1.335408       0.085170
                                                         0.454433       0.481961
                                                         0.148931       0.008518
                          2       6    3py               4.395399       0.441215
                                                         1.335408       0.085170
                                                         0.454433       0.481961
                                                         0.148931       0.008518
                          2       6    3pz               4.395399       0.441215
                                                         1.335408       0.085170
                                                         0.454433       0.481961
                                                         0.148931       0.008518

                          2       7    4px               4.395399      -0.295522
                                                         1.335408      -0.042535
                                                         0.454433      -0.034294
                                                         0.148931       0.138320
                          2       7    4py               4.395399      -0.295522
                                                         1.335408      -0.042535
                                                         0.454433      -0.034294
                                                         0.148931       0.138320
                          2       7    4pz               4.395399      -0.295522
                                                         1.335408      -0.042535
                                                         0.454433      -0.034294
                                                         0.148931       0.138320

                          2       8    3dx2              4.395399      13.187048
                                                         1.335408       1.177796
                                                         0.454433       0.037044
                                                         0.148931       0.011799
                          2       8    3dxy              4.395399      22.840637
                                                         1.335408       2.040003
                                                         0.454433       0.064161
                                                         0.148931       0.020436
                          2       8    3dxz              4.395399      22.840637
                                                         1.335408       2.040003
                                                         0.454433       0.064161
                                                         0.148931       0.020436
                          2       8    3dy2              4.395399      13.187048
                                                         1.335408       1.177796
                                                         0.454433       0.037044
                                                         0.148931       0.011799
                          2       8    3dyz              4.395399      22.840637
                                                         1.335408       2.040003
                                                         0.454433       0.064161
                                                         0.148931       0.020436
                          2       8    3dz2              4.395399      13.187048
                                                         1.335408       1.177796
                                                         0.454433       0.037044
                                                         0.148931       0.011799

                          2       9    4dx2              4.395399      -7.656182
                                                         1.335408       1.062793
                                                         0.454433       0.341143
                                                         0.148931      -0.006399
                          2       9    4dxy              4.395399     -13.260897
                                                         1.335408       1.840811
                                                         0.454433       0.590877
                                                         0.148931      -0.011084
                          2       9    4dxz              4.395399     -13.260897
                                                         1.335408       1.840811
                                                         0.454433       0.590877
                                                         0.148931      -0.011084
                          2       9    4dy2              4.395399      -7.656182
                                                         1.335408       1.062793
                                                         0.454433       0.341143
                                                         0.148931      -0.006399
                          2       9    4dyz              4.395399     -13.260897
                                                         1.335408       1.840811
                                                         0.454433       0.590877
                                                         0.148931      -0.011084
                          2       9    4dz2              4.395399      -7.656182
                                                         1.335408       1.062793
                                                         0.454433       0.341143
                                                         0.148931      -0.006399

                          2      10    4fx3              4.395399      -5.031344
                                                         1.335408       2.406605
                                                         0.454433       0.066745
                                                         0.148931       0.001654
                          2      10    4fx2y             4.395399     -11.250428
                                                         1.335408       5.381333
                                                         0.454433       0.149247
                                                         0.148931       0.003699
                          2      10    4fx2z             4.395399     -11.250428
                                                         1.335408       5.381333
                                                         0.454433       0.149247
                                                         0.148931       0.003699
                          2      10    4fxy2             4.395399     -11.250428
                                                         1.335408       5.381333
                                                         0.454433       0.149247
                                                         0.148931       0.003699
                          2      10    4fxyz             4.395399     -19.486313
                                                         1.335408       9.320743
                                                         0.454433       0.258503
                                                         0.148931       0.006406
                          2      10    4fxz2             4.395399     -11.250428
                                                         1.335408       5.381333
                                                         0.454433       0.149247
                                                         0.148931       0.003699
                          2      10    4fy3              4.395399      -5.031344
                                                         1.335408       2.406605
                                                         0.454433       0.066745
                                                         0.148931       0.001654
                          2      10    4fy2z             4.395399     -11.250428
                                                         1.335408       5.381333
                                                         0.454433       0.149247
                                                         0.148931       0.003699
                          2      10    4fyz2             4.395399     -11.250428
                                                         1.335408       5.381333
                                                         0.454433       0.149247
                                                         0.148931       0.003699
                          2      10    4fz3              4.395399      -5.031344
                                                         1.335408       2.406605
                                                         0.454433       0.066745
                                                         0.148931       0.001654

     AE Potential information for                                            ALL

       Description:                                       All-electron potential
                                          Krack, Parrinello, PCCP 2, 2105 (2000)

       Gaussian exponent of the core charge distribution:               8.154466
       Electronic configuration (s p d ...):                           4   4   0

  2. Atomic kind: H                                     Number of atoms:       2

     Orbital Basis Set                                       TZVPP-MOLOPT-PBE-ae

       Number of orbital shell sets:                                           1
       Number of orbital shells:                                               6
       Number of primitive Cartesian functions:                                5
       Number of Cartesian basis functions:                                   15
       Number of spherical basis functions:                                   14
       Norm type:                                                              2

       Normalised Cartesian orbitals:

                        Set   Shell   Orbital            Exponent    Coefficient

                          1       1    1s               34.177738      -6.423540
                                                         4.947701      -0.270539
                                                         1.065127       0.831136
                                                         0.293823      -0.051765
                                                         0.091371      -0.049397

                          1       2    2s               34.177738       3.211471
                                                         4.947701       0.528758
                                                         1.065127       0.154529
                                                         0.293823       0.227881
                                                         0.091371      -0.041080

                          1       3    3s               34.177738      -1.131577
                                                         4.947701      -0.040048
                                                         1.065127       0.164523
                                                         0.293823       0.077306
                                                         0.091371       0.076395

                          1       4    2px              34.177738     -11.084238
                                                         4.947701       1.341091
                                                         1.065127       1.416453
                                                         0.293823      -0.007684
                                                         0.091371       0.008886
                          1       4    2py              34.177738     -11.084238
                                                         4.947701       1.341091
                                                         1.065127       1.416453
                                                         0.293823      -0.007684
                                                         0.091371       0.008886
                          1       4    2pz              34.177738     -11.084238
                                                         4.947701       1.341091
                                                         1.065127       1.416453
                                                         0.293823      -0.007684
                                                         0.091371       0.008886

                          1       5    3px              34.177738       9.643751
                                                         4.947701      -0.549928
                                                         1.065127       0.106963
                                                         0.293823       0.330130
                                                         0.091371      -0.013062
                          1       5    3py              34.177738       9.643751
                                                         4.947701      -0.549928
                                                         1.065127       0.106963
                                                         0.293823       0.330130
                                                         0.091371      -0.013062
                          1       5    3pz              34.177738       9.643751
                                                         4.947701      -0.549928
                                                         1.065127       0.106963
                                                         0.293823       0.330130
                                                         0.091371      -0.013062

                          1       6    3dx2             34.177738       9.702470
                                                         4.947701      -1.124420
                                                         1.065127       1.617163
                                                         0.293823       0.052231
                                                         0.091371      -0.004737
                          1       6    3dxy             34.177738      16.805171
                                                         4.947701      -1.947552
                                                         1.065127       2.801009
                                                         0.293823       0.090468
                                                         0.091371      -0.008204
                          1       6    3dxz             34.177738      16.805171
                                                         4.947701      -1.947552
                                                         1.065127       2.801009
                                                         0.293823       0.090468
                                                         0.091371      -0.008204
                          1       6    3dy2             34.177738       9.702470
                                                         4.947701      -1.124420
                                                         1.065127       1.617163
                                                         0.293823       0.052231
                                                         0.091371      -0.004737
                          1       6    3dyz             34.177738      16.805171
                                                         4.947701      -1.947552
                                                         1.065127       2.801009
                                                         0.293823       0.090468
                                                         0.091371      -0.008204
                          1       6    3dz2             34.177738       9.702470
                                                         4.947701      -1.124420
                                                         1.065127       1.617163
                                                         0.293823       0.052231
                                                         0.091371      -0.004737

       Atomic covalent radius [Angstrom]:                                  0.320

       Atomic van der Waals radius [Angstrom]:                             1.090

     The atoms of this atomic kind are PAW atoms (GAPW):
       Hard Gaussian function radius:                                      1.000
       Rho0 radius:                                                        1.000
       Maximum GTO radius used for PAW projector construction:            24.566

     GAPW Soft Basis Set                                TZVPP-MOLOPT-PBE-ae_soft

       Number of orbital shell sets:                                           1
       Number of orbital shells:                                               6
       Number of primitive Cartesian functions:                                4
       Number of Cartesian basis functions:                                   15
       Number of spherical basis functions:                                   14
       Norm type:                                                              2

       Normalised Cartesian orbitals:

                        Set   Shell   Orbital            Exponent    Coefficient

                          1       1    1s                4.947701      -0.270539
                                                         1.065127       0.831136
                                                         0.293823      -0.051765
                                                         0.091371      -0.049397

                          1       2    2s                4.947701       0.528758
                                                         1.065127       0.154529
                                                         0.293823       0.227881
                                                         0.091371      -0.041080

                          1       3    3s                4.947701      -0.040048
                                                         1.065127       0.164523
                                                         0.293823       0.077306
                                                         0.091371       0.076395

                          1       4    2px               4.947701       1.341091
                                                         1.065127       1.416453
                                                         0.293823      -0.007684
                                                         0.091371       0.008886
                          1       4    2py               4.947701       1.341091
                                                         1.065127       1.416453
                                                         0.293823      -0.007684
                                                         0.091371       0.008886
                          1       4    2pz               4.947701       1.341091
                                                         1.065127       1.416453
                                                         0.293823      -0.007684
                                                         0.091371       0.008886

                          1       5    3px               4.947701      -0.549928
                                                         1.065127       0.106963
                                                         0.293823       0.330130
                                                         0.091371      -0.013062
                          1       5    3py               4.947701      -0.549928
                                                         1.065127       0.106963
                                                         0.293823       0.330130
                                                         0.091371      -0.013062
                          1       5    3pz               4.947701      -0.549928
                                                         1.065127       0.106963
                                                         0.293823       0.330130
                                                         0.091371      -0.013062

                          1       6    3dx2              4.947701      -1.124420
                                                         1.065127       1.617163
                                                         0.293823       0.052231
                                                         0.091371      -0.004737
                          1       6    3dxy              4.947701      -1.947552
                                                         1.065127       2.801009
                                                         0.293823       0.090468
                                                         0.091371      -0.008204
                          1       6    3dxz              4.947701      -1.947552
                                                         1.065127       2.801009
                                                         0.293823       0.090468
                                                         0.091371      -0.008204
                          1       6    3dy2              4.947701      -1.124420
                                                         1.065127       1.617163
                                                         0.293823       0.052231
                                                         0.091371      -0.004737
                          1       6    3dyz              4.947701      -1.947552
                                                         1.065127       2.801009
                                                         0.293823       0.090468
                                                         0.091371      -0.008204
                          1       6    3dz2              4.947701      -1.124420
                                                         1.065127       1.617163
                                                         0.293823       0.052231
                                                         0.091371      -0.004737

     AE Potential information for                                            ALL

       Description:                                       All-electron potential
                                          Krack, Parrinello, PCCP 2, 2105 (2000)

       Gaussian exponent of the core charge distribution:              12.500000
       Electronic configuration (s p d ...):                           1   0   0


 MOLECULE KIND INFORMATION


 All atoms are their own molecule, skipping detailed information


 TOTAL NUMBERS AND MAXIMUM NUMBERS

  Total number of            - Atomic kinds:                                   2
                             - Atoms:                                          3
                             - Shell sets:                                     4
                             - Shells:                                        23
                             - Primitive Cartesian functions:                 22
                             - Cartesian basis functions:                     66
                             - Spherical basis functions:                     59

  Maximum angular momentum of the orbital basis functions:                     3


 MODULE QUICKSTEP: ATOMIC COORDINATES IN ANGSTROM

   Atom Kind Element         X             Y             Z       Z(eff)     Mass
      1    1 O     8     13.500000     12.500000     13.298430   8.0000  15.9994
      2    2 H     1     12.732900     12.500000     12.701570   1.0000   1.0079
      3    2 H     1     14.267100     12.500000     12.701570   1.0000   1.0079



 SCF PARAMETERS         Density guess:                                    ATOMIC
                        --------------------------------------------------------
                        max_scf:                                             200
                        max_scf_history:                                       0
                        max_diis:                                              4
                        --------------------------------------------------------
                        eps_scf:                                        5.00E-07
                        eps_scf_history:                                0.00E+00
                        eps_diis:                                       0.00E+00
                        eps_eigval:                                     1.00E-05
                        --------------------------------------------------------
                        level_shift [a.u.]:                             0.000000
                        --------------------------------------------------------
                        Outer loop SCF in use 
                        No variables optimised in outer loop
                        eps_scf                                         5.00E-07
                        max_scf                                               20
                        No outer loop optimization
                        step_size                                       5.00E-01

 PW_GRID| Information for grid number                                          1
 PW_GRID| Cutoff [a.u.]                                                    320.0
 PW_GRID| spherical cutoff:                                                   NO
 PW_GRID|   Bounds   1           -216     215                Points:         432
 PW_GRID|   Bounds   2           -192     191                Points:         384
 PW_GRID|   Bounds   3           -200     199                Points:         400
 PW_GRID| Volume element (a.u.^3)  0.1785E-02     Volume (a.u.^3)    118433.2719
 PW_GRID| Grid span                                                    FULLSPACE

 PW_GRID| Information for grid number                                          2
 PW_GRID| Number of the reference grid                                         1
 PW_GRID| Cutoff [a.u.]                                                    106.7
 PW_GRID| spherical cutoff:                                                   NO
 PW_GRID|   Bounds   1           -120     119                Points:         240
 PW_GRID|   Bounds   2           -112     112                Points:         225
 PW_GRID|   Bounds   3           -120     119                Points:         240
 PW_GRID| Volume element (a.u.^3)  0.9138E-02     Volume (a.u.^3)    118433.2719
 PW_GRID| Grid span                                                    FULLSPACE

 PW_GRID| Information for grid number                                          3
 PW_GRID| Number of the reference grid                                         1
 PW_GRID| Cutoff [a.u.]                                                     35.6
 PW_GRID| spherical cutoff:                                                   NO
 PW_GRID|   Bounds   1            -72      71                Points:         144
 PW_GRID|   Bounds   2            -64      63                Points:         128
 PW_GRID|   Bounds   3            -67      67                Points:         135
 PW_GRID| Volume element (a.u.^3)  0.4760E-01     Volume (a.u.^3)    118433.2719
 PW_GRID| Grid span                                                    FULLSPACE

 PW_GRID| Information for grid number                                          4
 PW_GRID| Number of the reference grid                                         1
 PW_GRID| Cutoff [a.u.]                                                     11.9
 PW_GRID| spherical cutoff:                                                   NO
 PW_GRID|   Bounds   1            -40      39                Points:          80
 PW_GRID|   Bounds   2            -37      37                Points:          75
 PW_GRID|   Bounds   3            -40      39                Points:          80
 PW_GRID| Volume element (a.u.^3)  0.2467         Volume (a.u.^3)    118433.2719
 PW_GRID| Grid span                                                    FULLSPACE

 PW_GRID| Information for grid number                                          5
 PW_GRID| Number of the reference grid                                         1
 PW_GRID| Cutoff [a.u.]                                                      4.0
 PW_GRID| spherical cutoff:                                                   NO
 PW_GRID|   Bounds   1            -22      22                Points:          45
 PW_GRID|   Bounds   2            -22      22                Points:          45
 PW_GRID|   Bounds   3            -22      22                Points:          45
 PW_GRID| Volume element (a.u.^3)   1.300         Volume (a.u.^3)    118433.2719
 PW_GRID| Grid span                                                    FULLSPACE

 POISSON| Solver                                                        ANALYTIC
 POISSON| Periodicity                                                       NONE

 RS_GRID| Information for grid number                                          1
 RS_GRID|   Bounds   1           -216     215                Points:         432
 RS_GRID|   Bounds   2           -192     191                Points:         384
 RS_GRID|   Bounds   3           -200     199                Points:         400

 RS_GRID| Information for grid number                                          2
 RS_GRID|   Bounds   1           -120     119                Points:         240
 RS_GRID|   Bounds   2           -112     112                Points:         225
 RS_GRID|   Bounds   3           -120     119                Points:         240

 RS_GRID| Information for grid number                                          3
 RS_GRID|   Bounds   1            -72      71                Points:         144
 RS_GRID|   Bounds   2            -64      63                Points:         128
 RS_GRID|   Bounds   3            -67      67                Points:         135

 RS_GRID| Information for grid number                                          4
 RS_GRID|   Bounds   1            -40      39                Points:          80
 RS_GRID|   Bounds   2            -37      37                Points:          75
 RS_GRID|   Bounds   3            -40      39                Points:          80

 RS_GRID| Information for grid number                                          5
 RS_GRID|   Bounds   1            -22      22                Points:          45
 RS_GRID|   Bounds   2            -22      22                Points:          45
 RS_GRID|   Bounds   3            -22      22                Points:          45

 Extrapolation method: initial_guess

 Atomic guess: The first density matrix is obtained in terms of atomic orbitals
               and electronic configurations assigned to each atomic kind

 Guess for atomic kind: O

 Electronic structure
    Total number of core electrons                                          0.00
    Total number of valence electrons                                       8.00
    Total number of electrons                                               8.00
    Multiplicity                                                   not specified
    S      2.00  2.00
    P      4.00


 *******************************************************************************
                  Iteration          Convergence                     Energy [au]
 *******************************************************************************
                          1        0.852480                     -74.332672756082
                          2        0.822104                     -74.327611038196
                          3        0.503433E-01                 -74.437825052376
                          4        0.180131E-02                 -74.438232362009
                          5        0.615789E-04                 -74.438232811716
                          6        0.162343E-05                 -74.438232812301
                          7        0.619766E-06                 -74.438232812301

 Energy components [Hartree]           Total Energy ::          -74.438232812301
                                        Band Energy ::          -40.686258539782
                                     Kinetic Energy ::           74.021280552073
                                   Potential Energy ::         -148.459513364374
                                      Virial (-V/T) ::            2.005632870130
                                        Core Energy ::         -102.906048127742
                                          XC Energy ::           -7.749500989531
                                     Coulomb Energy ::           36.217316304972

 Orbital energies  State     L     Occupation   Energy[a.u.]          Energy[eV]

                       1     0          2.000     -18.777544         -510.962961
                       2     0          2.000      -0.872213          -23.734118

                       1     1          4.000      -0.346686           -9.433811


 Total Electron Density at R=0:                                       296.401580

 Guess for atomic kind: H

 Electronic structure
    Total number of core electrons                                          0.00
    Total number of valence electrons                                       1.00
    Total number of electrons                                               1.00
    Multiplicity                                                   not specified
    S      1.00


 *******************************************************************************
                  Iteration          Convergence                     Energy [au]
 *******************************************************************************
                          1        0.842545E-02                  -0.445100128715
                          2        0.129529E-02                  -0.445186551903
                          3        0.161091E-05                  -0.445188626016
                          4        0.290776E-07                  -0.445188626019

 Energy components [Hartree]           Total Energy ::           -0.445188626019
                                        Band Energy ::           -0.232306922112
                                     Kinetic Energy ::            0.426044212024
                                   Potential Energy ::           -0.871232838043
                                      Virial (-V/T) ::            2.044935275390
                                        Core Energy ::           -0.495846412394
                                          XC Energy ::           -0.232824427171
                                     Coulomb Energy ::            0.283482213547

 Orbital energies  State     L     Occupation   Energy[a.u.]          Energy[eV]

                       1     0          1.000      -0.232307           -6.321393


 Total Electron Density at R=0:                                         0.247530
 Re-scaling the density matrix to get the right number of electrons
                  # Electrons              Trace(P)               Scaling factor
                           10                10.000                        1.000

 Number of electrons:                                                         10
 Number of occupied orbitals:                                                  5
 Number of molecular orbitals:                                                 5

 Number of orbital functions:                                                 59
 Number of independent orbital functions:                                     59


 SCF WAVEFUNCTION OPTIMIZATION

  ----------------------------------- OT ---------------------------------------
  Minimizer      : DIIS                : direct inversion
                                         in the iterative subspace
                                         using   7 DIIS vectors
                                         safer DIIS on
  Preconditioner : FULL_ALL            : diagonalization, state selective
  Precond_solver : DEFAULT
  stepsize       :    0.10000000                  energy_gap     :    0.00100000
  eps_taylor     :   0.10000E-15                  max_taylor     :             4
  ----------------------------------- OT ---------------------------------------

  Step     Update method      Time    Convergence         Total energy    Change
  ------------------------------------------------------------------------------
 SKALA_GPW| Atom-composite cross support/maxima   1.807534713076E+00   6.398467336887E+00   9.214080936507E+01   1.907906947052E+02
 SKALA_GPW| Active atom-composite XC energy  -9.1045174587627589E+00
 SKALA_GPW| Active atom-composite electrons   9.9999975251533115E+00
 SKALA_GPW| Active atom-composite density range  -2.0726972255221040E-10   1.4334438814761779E+02
 SKALA_GPW| Active atom-composite tau range  -5.4810213758049702E-09   4.4043772412947746E+03
 SKALA_GPW| Active atom-composite tau integral   7.4177259574126154E+01
 SKALA_GPW| Active atom-composite max gradient   2.1532705922884161E+03
     1 OT DIIS     0.10E+00   36.0     0.13689298       -75.8042437089 -7.58E+01
 SKALA_GPW| Atom-composite cross support/maxima   1.807534713076E+00   6.363081962232E+00   9.337048939104E+01   1.946393828870E+02
 SKALA_GPW| Active atom-composite XC energy  -9.1980503633100295E+00
 SKALA_GPW| Active atom-composite electrons   9.9999976842333904E+00
 SKALA_GPW| Active atom-composite density range  -1.7864946516072811E-10   1.4648367040649379E+02
 SKALA_GPW| Active atom-composite tau range  -4.6639800188217717E-09   4.4887080917266185E+03
 SKALA_GPW| Active atom-composite tau integral   7.4902046920688264E+01
 SKALA_GPW| Active atom-composite max gradient   2.1978078938418794E+03
     2 OT DIIS     0.10E+00   34.9     0.07806128       -76.2432101687 -4.39E-01
 SKALA_GPW| Atom-composite cross support/maxima   1.807534713076E+00   6.304383135412E+00   9.465518681606E+01   1.992970458985E+02
 SKALA_GPW| Active atom-composite XC energy  -9.1975034119303682E+00
 SKALA_GPW| Active atom-composite electrons   9.9999979515648842E+00
 SKALA_GPW| Active atom-composite density range  -1.4872416108189956E-10   1.4980210719021161E+02
 SKALA_GPW| Active atom-composite tau range  -3.5613634773936081E-09   4.5653020619428107E+03
 SKALA_GPW| Active atom-composite tau integral   7.5516651857164092E+01
 SKALA_GPW| Active atom-composite max gradient   2.2449789707326149E+03
     3 OT DIIS     0.10E+00   34.7     0.04479516       -76.3850828463 -1.42E-01
 SKALA_GPW| Atom-composite cross support/maxima   1.807534713076E+00   6.314972121465E+00   9.451160865620E+01   1.988647678213E+02
 SKALA_GPW| Active atom-composite XC energy  -9.2546872603250439E+00
 SKALA_GPW| Active atom-composite electrons   9.9999978886354199E+00
 SKALA_GPW| Active atom-composite density range  -1.5335753084896729E-10   1.4944520772284810E+02
 SKALA_GPW| Active atom-composite tau range  -3.8253162418847744E-09   4.5588282652445951E+03
 SKALA_GPW| Active atom-composite tau integral   7.5762912537967466E+01
 SKALA_GPW| Active atom-composite max gradient   2.2400320207383716E+03
     4 OT DIIS     0.10E+00   36.5     0.01415584       -76.4083478941 -2.33E-02
 SKALA_GPW| Atom-composite cross support/maxima   1.807534713076E+00   6.317836512537E+00   9.449349533981E+01   1.987588552645E+02
 SKALA_GPW| Active atom-composite XC energy  -9.2744776403827291E+00
 SKALA_GPW| Active atom-composite electrons   9.9999978728585965E+00
 SKALA_GPW| Active atom-composite density range  -1.5105048049884942E-10   1.4936969910832406E+02
 SKALA_GPW| Active atom-composite tau range  -3.8864600858405600E-09   4.5566978774208874E+03
 SKALA_GPW| Active atom-composite tau integral   7.5858327514917036E+01
 SKALA_GPW| Active atom-composite max gradient   2.2387634176804213E+03
     5 OT DIIS     0.10E+00   34.7     0.00383722       -76.4118641195 -3.52E-03
 SKALA_GPW| Atom-composite cross support/maxima   1.807534713076E+00   6.316496951247E+00   9.451330103110E+01   1.987638137194E+02
 SKALA_GPW| Active atom-composite XC energy  -9.2753746735290701E+00
 SKALA_GPW| Active atom-composite electrons   9.9999978747121006E+00
 SKALA_GPW| Active atom-composite density range  -1.4889266142977611E-10   1.4937988315896652E+02
 SKALA_GPW| Active atom-composite tau range  -3.8749808705519951E-09   4.5560817780062243E+03
 SKALA_GPW| Active atom-composite tau integral   7.5863618457324932E+01
 SKALA_GPW| Active atom-composite max gradient   2.2387087339290365E+03
     6 OT DIIS     0.10E+00   35.7     0.00120352       -76.4122929584 -4.29E-04
 SKALA_GPW| Atom-composite cross support/maxima   1.807534713076E+00   6.316672656644E+00   9.451147487182E+01   1.987576519305E+02
 SKALA_GPW| Active atom-composite XC energy  -9.2775031307184452E+00
 SKALA_GPW| Active atom-composite electrons   9.9999978725089456E+00
 SKALA_GPW| Active atom-composite density range  -1.4902672817181436E-10   1.4936444334046283E+02
 SKALA_GPW| Active atom-composite tau range  -3.8882426677841609E-09   4.5554305035536008E+03
 SKALA_GPW| Active atom-composite tau integral   7.5874360521516053E+01
 SKALA_GPW| Active atom-composite max gradient   2.2384021489615197E+03
     7 OT DIIS     0.10E+00   34.9     0.00019550       -76.4123194600 -2.65E-05
 SKALA_GPW| Atom-composite cross support/maxima   1.807534713076E+00   6.316670777918E+00   9.451065925099E+01   1.987546882735E+02
 SKALA_GPW| Active atom-composite XC energy  -9.2772672407410894E+00
 SKALA_GPW| Active atom-composite electrons   9.9999978723003800E+00
 SKALA_GPW| Active atom-composite density range  -1.4904004905262177E-10   1.4935932344438299E+02
 SKALA_GPW| Active atom-composite tau range  -3.8890819027262638E-09   4.5551731974859676E+03
 SKALA_GPW| Active atom-composite tau integral   7.5872214932360421E+01
 SKALA_GPW| Active atom-composite max gradient   2.2382989419402697E+03
     8 OT DIIS     0.10E+00   35.7     0.00005448       -76.4123206005 -1.14E-06
 SKALA_GPW| Atom-composite cross support/maxima   1.807534713076E+00   6.316664532059E+00   9.451074297294E+01   1.987558558210E+02
 SKALA_GPW| Active atom-composite XC energy  -9.2771995939619689E+00
 SKALA_GPW| Active atom-composite electrons   9.9999978723150011E+00
 SKALA_GPW| Active atom-composite density range  -1.4902555001337241E-10   1.4935882477095475E+02
 SKALA_GPW| Active atom-composite tau range  -3.8881485120604687E-09   4.5551144793126095E+03
 SKALA_GPW| Active atom-composite tau integral   7.5871918986032000E+01
 SKALA_GPW| Active atom-composite max gradient   2.2382817435515904E+03
     9 OT DIIS     0.10E+00   35.2     0.00001473       -76.4123206709 -7.05E-08
 SKALA_GPW| Atom-composite cross support/maxima   1.807534713076E+00   6.316662575896E+00   9.451080456777E+01   1.987563028597E+02
 SKALA_GPW| Active atom-composite XC energy  -9.2772129947971944E+00
 SKALA_GPW| Active atom-composite electrons   9.9999978723110896E+00
 SKALA_GPW| Active atom-composite density range  -1.4902250403200270E-10   1.4935878746107502E+02
 SKALA_GPW| Active atom-composite tau range  -3.8876917133983812E-09   4.5551020094171608E+03
 SKALA_GPW| Active atom-composite tau integral   7.5872058997834699E+01
 SKALA_GPW| Active atom-composite max gradient   2.2382786305143122E+03
    10 OT DIIS     0.10E+00   35.3     0.00000568       -76.4123206801 -9.15E-09
 SKALA_GPW| Atom-composite cross support/maxima   1.807534713076E+00   6.316661218231E+00   9.451076081861E+01   1.987561598184E+02
 SKALA_GPW| Active atom-composite XC energy  -9.2772133510861998E+00
 SKALA_GPW| Active atom-composite electrons   9.9999978723004244E+00
 SKALA_GPW| Active atom-composite density range  -1.4902341027095887E-10   1.4935861366945528E+02
 SKALA_GPW| Active atom-composite tau range  -3.8875124730128503E-09   4.5550935812693415E+03
 SKALA_GPW| Active atom-composite tau integral   7.5872035295896751E+01
 SKALA_GPW| Active atom-composite max gradient   2.2382752954129119E+03
    11 OT DIIS     0.10E+00   34.2     0.00000131       -76.4123206808 -7.40E-10
 SKALA_GPW| Atom-composite cross support/maxima   1.807534713076E+00   6.316660950133E+00   9.451075741722E+01   1.987561272526E+02
 SKALA_GPW| Active atom-composite XC energy  -9.2772138299089484E+00
 SKALA_GPW| Active atom-composite electrons   9.9999978722998399E+00
 SKALA_GPW| Active atom-composite density range  -1.4902344838034271E-10   1.4935859534076309E+02
 SKALA_GPW| Active atom-composite tau range  -3.8874685796902253E-09   4.5550928208303139E+03
 SKALA_GPW| Active atom-composite tau integral   7.5872032738609519E+01
 SKALA_GPW| Active atom-composite max gradient   2.2382749814215804E+03
    12 OT DIIS     0.10E+00   35.6     0.00000060       -76.4123206832 -2.34E-09
 SKALA_GPW| Atom-composite cross support/maxima   1.807534713076E+00   6.316660841417E+00   9.451075719272E+01   1.987561159800E+02
 SKALA_GPW| Active atom-composite XC energy  -9.2772141294229531E+00
 SKALA_GPW| Active atom-composite electrons   9.9999978723000638E+00
 SKALA_GPW| Active atom-composite density range  -1.4902336079782061E-10   1.4935859055385959E+02
 SKALA_GPW| Active atom-composite tau range  -3.8874385079925784E-09   4.5550925277595561E+03
 SKALA_GPW| Active atom-composite tau integral   7.5872032191977553E+01
 SKALA_GPW| Active atom-composite max gradient   2.2382748807970315E+03
    13 OT DIIS     0.10E+00   35.5     0.00000009       -76.4123206876 -4.42E-09

  *** SCF run converged in    13 steps ***


  Electronic density on regular grids:         -8.0564068959        1.9435931041
  Core density on regular grids:               10.0000000000        0.0000000000
  Hard and soft densities (Lebedev):          -85.8045048022      -83.8609116964
  Total Rho_soft + Rho1_hard - Rho1_soft      -10.0000000017
  Total charge density (r-space):              -0.0000000017
  Total Rho_soft + Rho0_soft (g-space):        -0.0000000020

  Overlap energy of the core charge distribution:               0.00000006890712
  Self energy of the core charge distribution:                -75.73106814560732
  Core Hamiltonian energy:                                     -5.34094150834722
  Hartree energy:                                              29.83957124227144
  Exchange-correlation energy:                                  0.00000000000000
  Dispersion energy:                                           -0.00057409158537

  GAPW| Exc from hard and soft atomic rho1:                    -9.27721412942295
  GAPW| local Eh = 1 center integrals:                        -15.90209412379886

  Total energy:                                               -76.41232068758315

  outer SCF iter =    1 RMS gradient =   0.92E-07 energy =        -76.4123206876
  outer SCF loop converged in   1 iterations or   13 steps


 !-----------------------------------------------------------------------------!
                     Mulliken Population Analysis

 #  Atom  Element  Kind  Atomic population                           Net charge
       1     O        1          8.687268                             -0.687268
       2     H        2          0.656366                              0.343634
       3     H        2          0.656366                              0.343634
 # Total charge                             10.000000                 -0.000000

 !-----------------------------------------------------------------------------!

 !-----------------------------------------------------------------------------!
                           Hirshfeld Charges

  #Atom  Element  Kind  Ref Charge     Population                    Net charge
      1       O      1       8.000          9.192                        -1.192
      2       H      2       1.000          0.402                         0.598
      3       H      2       1.000          0.402                         0.598

  Total Charge                                                            0.003
 !-----------------------------------------------------------------------------!

 ENERGY| Total FORCE_EVAL ( QS ) energy [hartree]            -76.412320687583147

 -------------------------------------------------------------------------------
 -                                                                             -
 -                                DBCSR STATISTICS                             -
 -                                                                             -
 -------------------------------------------------------------------------------
 COUNTER                                    TOTAL       BLAS       SMM       ACC
 flops     5 x     5 x     5                27750     100.0%      0.0%      0.0%     
 flops    31 x    14 x     5                60760     100.0%      0.0%      0.0%     
 flops    14 x    31 x     5                60760     100.0%      0.0%      0.0%     
 flops    14 x    14 x     5                82320     100.0%      0.0%      0.0%     
 flops    14 x     5 x     5                92400     100.0%      0.0%      0.0%     
 flops    31 x     5 x     5               102300     100.0%      0.0%      0.0%     
 flops    31 x    31 x     5               134540     100.0%      0.0%      0.0%     
 flops     5 x     5 x    59               156350     100.0%      0.0%      0.0%     
 flops    14 x     5 x    14               274400     100.0%      0.0%      0.0%     
 flops    31 x     5 x    14               303800     100.0%      0.0%      0.0%     
 flops    14 x     5 x    31               303800     100.0%      0.0%      0.0%     
 flops    31 x     5 x    31               336350     100.0%      0.0%      0.0%     
 flops    14 x     5 x    59               462560     100.0%      0.0%      0.0%     
 flops    31 x     5 x    59               512120     100.0%      0.0%      0.0%     
 flops inhomo. stacks                           0       0.0%      0.0%      0.0%
 flops total                         2.910210E+06     100.0%      0.0%      0.0%
 flops max/rank                      2.910210E+06     100.0%      0.0%      0.0%
 matmuls inhomo. stacks                         0       0.0%      0.0%      0.0%
 matmuls total                                845     100.0%      0.0%      0.0%
 number of processed stacks                   726     100.0%      0.0%      0.0%
 average stack size                                     1.2       0.0       0.0
 marketing flops                     3.062120E+06
 -------------------------------------------------------------------------------
 # multiplications                            308
 max memory usage/rank              65.940419E+09
 # max total images/rank                        1
 # max 3D layers                                1
 # MPI messages exchanged                       0
 -------------------------------------------------------------------------------

 -------------------------------------------------------------------------------
 -                                                                             -
 -                                GRID STATISTICS                              -
 -                                                                             -
 -------------------------------------------------------------------------------
 LP    KERNEL             BACKEND                              COUNT     PERCENT
 6     collocate ortho    CPU                                    896      17.00%
 6     integrate ortho    CPU                                    832      15.78%
 4     collocate ortho    CPU                                    672      12.75%
 4     integrate ortho    CPU                                    624      11.84%
 5     collocate ortho    CPU                                    448       8.50%
 7     collocate ortho    CPU                                    448       8.50%
 5     integrate ortho    CPU                                    416       7.89%
 7     integrate ortho    CPU                                    416       7.89%
 8     collocate ortho    CPU                                    224       4.25%
 8     integrate ortho    CPU                                    208       3.95%
 4     collocate general  CPU                                     39       0.74%
 4     integrate general  CPU                                     39       0.74%
 0     collocate general  CPU                                      6       0.11%
 0     integrate general  CPU                                      3       0.06%
 -------------------------------------------------------------------------------

 -------------------------------------------------------------------------------
 -                                                                             -
 -                          OFFLOAD MEMPOOL STATISTICS                         -
 -                                                                             -
 -------------------------------------------------------------------------------
 Memory consumption                Number of allocations  Used [MiB]  Size [MiB]
 Host                                                  8        1135  4136604683741
 -------------------------------------------------------------------------------

 MEMORY| Estimated peak process memory [MiB]                               41916

 -------------------------------------------------------------------------------
 ----                             MULTIGRID INFO                            ----
 -------------------------------------------------------------------------------
 count for grid        1:          34845          cutoff [a.u.]          320.00
 count for grid        2:           6114          cutoff [a.u.]          106.67
 count for grid        3:           3938          cutoff [a.u.]           35.56
 count for grid        4:           1732          cutoff [a.u.]           11.85
 count for grid        5:             30          cutoff [a.u.]            3.95
 total gridlevel count  :          46659

 -------------------------------------------------------------------------------
 -                                                                             -
 -                           R E F E R E N C E S                               -
 -                                                                             -
 -------------------------------------------------------------------------------
 
 CP2K version 2026.2 (Development Version), the CP2K developers group (2026).
 CP2K is freely available from https://www.cp2k.org/ .
 
 M. Iannuzzi, J. Wilhelm, F. Stein, A. Bussy, H. Elgabarty, D. Golze, A. Hehn, 
 M. Graml, S. Marek, B. Sertcan Gökmen, C. Schran, H. Forbert, R. Z. 
 Khaliullin, A. Kozhevnikov, M. Taillefumier, R. Meli, V. V. Rybkin, M. Brehm, 
 R. Schade, O. Schütt, J. V. Pototschnig, H. Mirhosseini, A. Knüpfer, D. Marx, 
 M. Krack, J. Hutter, T. D. Kühne.
 J. Phys. Chem. B 130, 1237-1310 (2026).
 The CP2K Program Package Made Simple.
 https://doi.org/10.1021/acs.jpcb.5c05851

 L. Wittmann, I. Gordiy, M. Friede, B. Helmich-Paris, S. Grimme, A. Hansen, M. 
 Bursch.
 Phys. Chem. Chem. Phys. 26, 21379-21394 (2024).
 Extension of the D3 and D4 London dispersion corrections to the full actinides 
 series.
 https://doi.org/10.1039/d4cp01514b

 T. D. Kühne, M. Iannuzzi, M. Del Ben, V. V. Rybkin, P. Seewald, F. Stein, T. 
 Laino, R. Z. Khaliullin, O. Schütt, F. Schiffmann, D. Golze, J. Wilhelm, S. 
 Chulkov, M. H. Bani-Hashemian, V. Weber, U. Borstnik, M. Taillefumier, A. S. 
 Jakobovits, A. Lazzaro, H. Pabst, T. Müller, R. Schade, M. Guidon, S. 
 Andermatt, N. Holmberg, G. K. Schenter, A. Hehn, A. Bussy, F. Belleflamme, G. 
 Tabacchi, A. Glöß, M. Lass, I. Bethune, C. J. Mundy, C. Plessl, M. Watkins, 
 J. VandeVondele, M. Krack, J. Hutter.
 J. Chem. Phys. 152, 194103 (2020).
 CP2K: An electronic structure and molecular dynamics software package - 
 Quickstep: Efficient and accurate electronic structure calculations.
 https://doi.org/10.1063/5.0007045

 L. Goerigk, A. Hansen, C. Bauer, S. Ehrlich, A. Najibi, S. Grimme.
 Phys. Chem. Chem. Phys. 19, 32184-32215 (2017).
 A look at the density functional theory zoo with the advanced GMTKN55 database 
 for general main group thermochemistry, kinetics and noncovalent interactions.
 https://doi.org/10.1039/C7CP04913G

 O. Schuett, P. Messmer, J. Hutter, J. VandeVondele.
 Electronic Structure Calculations on Graphics Processing Units, 173-190 (2016).
 GPU-Accelerated Sparse Matrix-Matrix Multiplication for Linear Scaling Density 
 Functional Theory.
 https://doi.org/10.1002/9781118670712.ch8

 U. Borstnik, J. VandeVondele, V. Weber, J. Hutter.
 Parallel Comput. 40, 47-58 (2014).
 Sparse matrix multiplication: The distributed block-compressed sparse row 
 library.
 https://doi.org/10.1016/j.parco.2014.03.012

 S. Grimme, S. Ehrlich, L. Goerigk.
 J. Comput. Chem. 32, 1456 (2011).
 Effect of the damping function in dispersion corrected density functional 
 theory.
 https://doi.org/10.1002/jcc.21759

 S. Grimme, J. Antony, S. Ehrlich, H. Krieg.
 J. Chem. Phys. 132, 154104 (2010).
 A consistent and accurate ab initio parametrization of density functional 
 dispersion correction (DFT-D) for the 94 elements H-Pu.
 https://doi.org/10.1063/1.3382344

 J. VandeVondele, J. Hutter.
 J. Chem. Phys. 127, 114105 (2007).
 Gaussian basis sets for accurate calculations on molecular systems in gas and 
 condensed phases.
 https://doi.org/10.1063/1.2770708

 M. Frigo, S. G. Johnson.
 Proc. IEEE 93, 216-231 (2005).
 The design and implementation of FFTW3.
 https://doi.org/10.1109/JPROC.2004.840301

 J. VandeVondele, J. Hutter.
 J. Chem. Phys. 118, 4365-4369 (2003).
 An efficient orbital transformation method for electronic structure 
 calculations.
 https://doi.org/10.1063/1.1543154

 M. Krack, M. Parrinello.
 Phys. Chem. Chem. Phys. 2, 2105-2112 (2000).
 All-electron ab-initio molecular dynamics.
 https://doi.org/10.1039/b001167n

 G. Lippert, J. Hutter, M. Parrinello.
 Theor. Chem. Acc. 103, 124-140 (1999).
 The Gaussian and augmented-plane-wave density functional method for ab initio 
 molecular dynamics simulations.
 https://doi.org/10.1007/s002140050523


 -------------------------------------------------------------------------------
 -                                                                             -
 -                                T I M I N G                                  -
 -                                                                             -
 -------------------------------------------------------------------------------
 SUBROUTINE                       CALLS  ASD         SELF TIME        TOTAL TIME
                                MAXIMUM       AVERAGE  MAXIMUM  AVERAGE  MAXIMUM
 CP2K                                 1  1.0    1.316    1.316  486.330  486.330
 qs_energies                          1  2.0    0.000    0.000  471.558  471.558
 scf_env_do_scf                       1  3.0    0.000    0.000  464.283  464.283
 scf_env_do_scf_inner_loop           13  4.0    0.002    0.002  428.274  428.274
 qs_ks_update_qs_env                 14  5.0    0.000    0.000  393.948  393.948
 rebuild_ks_matrix                   13  6.0    0.000    0.000  393.947  393.947
 qs_ks_build_kohn_sham_matrix        13  7.0    0.004    0.004  393.947  393.947
 calculate_vxc_atom                  13  8.0  115.169  115.169  326.610  326.610
 fft_wrap_pw1pw2                    415  9.5    0.012    0.012  168.482  168.482
 fft_wrap_pw1pw2_320                199 10.6   49.033   49.033  159.248  159.248
 qs_rho_update_rho_low               14  5.0    0.000    0.000   75.908   75.908
 calculate_rho_elec                  28  6.0    6.553    6.553   75.859   75.859
 xc_pw_derive                        78  9.5    0.001    0.001   65.313   65.313
 fft3d_s                            416 11.5   63.951   63.951   64.006   64.006
 density_rs2pw                       28  7.0    0.002    0.002   51.874   51.874
 skala_atom_torch_backward           13  9.0   46.841   46.841   46.841   46.841
 xc_pw_divergence                    13  9.0    0.001    0.001   43.792   43.792
 pw_scatter_s                       197 12.1   42.229   42.229   42.229   42.229
 init_scf_loop                        1  4.0    0.000    0.000   36.008   36.008
 skala_atom_torch_forward            13  9.0    0.003    0.003   34.554   34.554
 torch_model_forward_mol_tensor      13 10.0   34.551   34.551   34.551   34.551
 sum_up_and_integrate                13  8.0    0.001    0.001   28.745   28.745
 integrate_v_rspace                  26  9.0    0.002    0.002   28.412   28.412
 potential_pw2rs                     26 10.0    0.443    0.443   28.219   28.219
 calc_tau_atom                      117  9.0   25.097   25.097   25.097   25.097
 grid_collocate_task_list            28  7.0   17.432   17.432   17.432   17.432
 prepare_gapw_den                    13  8.0    0.000    0.000   15.339   15.339
 put_rho0_on_grid                    13  9.0    3.030    3.030   14.428   14.428
 gaVxcgb_GC                          78  9.0   13.199   13.199   13.199   13.199
 qs_init_subsys                       1  2.0    0.003    0.003   12.431   12.431
 qs_env_setup                         1  3.0    0.000    0.000   12.230   12.230
 qs_env_rebuild_pw_env                2  3.5    0.000    0.000   12.230   12.230
 pw_env_rebuild                       1  5.0    0.000    0.000   12.230   12.230
 pw_grid_setup                        5  6.0    0.000    0.000   12.224   12.224
 pw_grid_setup_internal               5  7.0    0.184    0.184   12.224   12.224
 dgaVtaudgb                          78  9.0   11.621   11.621   11.621   11.621
 pw_poisson_solve                    13  8.0    0.000    0.000   11.224   11.224
 pw_grid_sort                         5  8.0    8.097    8.097   10.274   10.274
 -------------------------------------------------------------------------------

 The number of warnings for this run is : 0
 
 -------------------------------------------------------------------------------
  **** **** ******  **  PROGRAM ENDED AT                 2026-09-15 15:06:20.969
 ***** ** ***  *** **   PROGRAM RAN ON                                    cge066
 **    ****   ******    PROGRAM RAN BY                                  kuehne88
 ***** **    ** ** **   PROGRAM PROCESS ID                                774432
  **** **  *******  **  PROGRAM STOPPED IN /bigdata/casus/fwuk/shared/kuehne88-n
                                           ative-skala/diet-ae-basis-controls-20
                                           260915/runs/CARBHB12-4/4O_B/tzvpp
