 DBCSR| CPU Multiplication driver                                           BLAS (U)
 DBCSR| Multrec recursion limit                                              512 (U)
 DBCSR| Multiplication stack size                                           1000 (D)
 DBCSR| Maximum elements for images                                    UNLIMITED (U)
 DBCSR| Multiplicative factor virtual images                                   1 (U)
 DBCSR| Use multiplication densification                                       T (D)
 DBCSR| Multiplication size stacks                                             3 (U)
 DBCSR| Use memory pool for CPU allocation                                     F (U)
 DBCSR| Number of 3D layers                                               SINGLE (U)
 DBCSR| Use MPI memory allocation                                              F (U)
 DBCSR| Use RMA algorithm                                                      F (U)
 DBCSR| Use Communication thread                                               T (U)
 DBCSR| Communication thread load                                             15 (D)
 DBCSR| MPI: My process id                                                     0
 DBCSR| MPI: Number of processes                                               1
 DBCSR| OMP: Current number of threads                                        20
 DBCSR| OMP: Max number of threads                                            20
 DBCSR| Split modifier for TAS multiplication algorithm                  1.0E+00 (U)


  **** **** ******  **  PROGRAM STARTED AT               2026-08-31 08:15:01.651
 ***** ** ***  *** **   PROGRAM STARTED ON                                 terok
 **    ****   ******    PROGRAM STARTED BY                              kuehne88
 ***** **    ** ** **   PROGRAM PROCESS ID                               3580898
  **** **  *******  **  PROGRAM STARTED IN /home/kuehne88/work/native-skala-tero
                                           k/goldzak12/diagnostics/symmetry-tigh
                                           t-eps5e7-20260831T0745/runs/gapwxc-gt
                                           h/C/reduced

 CP2K| version string:                 CP2K version 2026.2 (Development Version)
 CP2K| source code revision number:                                   c1bff3eeb8
 CP2K| cp2kflags: omp fftw3 gauxc gauxc_mpi gauxc_onedft gauxc_host parallel sca
 CP2K|            lapack mpi_f08 openblas libtorch libtorch_cuda
 CP2K| is freely available from                            https://www.cp2k.org/
 CP2K| Program compiled at                                   2026-08-24 23:53:18
 CP2K| Program compiled on                                                 terok
 CP2K| Program compiled for                                               x86_64
 CP2K| Data directory path      /home/kuehne88/work/native-skala-terok/cp2k/data
 CP2K| Input file name                                          actual-input.inp

 GLOBAL| Force Environment number                                              1
 GLOBAL| Basis set file name                             BASIS_MOLOPT_UZH_2026.2
 GLOBAL| Potential file name                                POTENTIAL_UZH_2026.2
 GLOBAL| MM Potential file name                                     MM_POTENTIAL
 GLOBAL| Coordinate file name                                      __STD_INPUT__
 GLOBAL| Method name                                                        CP2K
 GLOBAL| Project name                   G12_C_gapwxc-gth_v1p0000000000_k444_sym-
 GLOBAL| Run type                                                         ENERGY
 GLOBAL| FFT library                                                       FFTW3
 GLOBAL| Diagonalization library                                       ScaLAPACK
 GLOBAL| Cholesky decomposition library                                ScaLAPACK
 GLOBAL| DGEMM library                                                      BLAS
 GLOBAL| Direct generalized diagonalization requested                          F
 GLOBAL| Orthonormality check for eigenvectors                          DISABLED
 GLOBAL| Matrix multiplication library                                 ScaLAPACK
 GLOBAL| All-to-all communication in single precision                          F
 GLOBAL| FFTs using library dependent lengths                                  F
 GLOBAL| Grid backend                                                       AUTO
 GLOBAL| Global print level                                               MEDIUM
 GLOBAL| MPI I/O enabled                                                       T
 GLOBAL| Total number of message passing processes                             1
 GLOBAL| Number of distributed systems (nodes)                                 1
 GLOBAL| Number of threads for this process                                   20
 GLOBAL| This output is from process                                           0
 GLOBAL| OpenMP stack size per thread (OMP_STACKSIZE)                       512M
 GLOBAL| CPU model name                                       AMD EPYC Processor

 MEMORY| system memory details [Kb]
 MEMORY|                        rank 0           min           max       average
 MEMORY| MemTotal            528104844     528104844     528104844     528104844
 MEMORY| MemFree             354461804     354461804     354461804     354461804
 MEMORY| Buffers                   664           664           664           664
 MEMORY| Cached              121868332     121868332     121868332     121868332
 MEMORY| Slab                 26130232      26130232      26130232      26130232
 MEMORY| SReclaimable         21700680      21700680      21700680      21700680
 MEMORY| MemLikelyFree       498031480     498031480     498031480     498031480


 *** Fundamental physical constants (SI units) ***

 *** Literature: B. J. Mohr and B. N. Taylor,
 ***             CODATA recommended values of the fundamental physical
 ***             constants: 2006, Web Version 5.1
 ***             http://physics.nist.gov/constants

 Speed of light in vacuum [m/s]                             2.99792458000000E+08
 Magnetic constant or permeability of vacuum [N/A**2]       1.25663706143592E-06
 Electric constant or permittivity of vacuum [F/m]          8.85418781762039E-12
 Planck constant (h) [J*s]                                  6.62606896000000E-34
 Planck constant (h-bar) [J*s]                              1.05457162825177E-34
 Elementary charge [C]                                      1.60217648700000E-19
 Electron mass [kg]                                         9.10938215000000E-31
 Electron g factor [ ]                                     -2.00231930436220E+00
 Proton mass [kg]                                           1.67262163700000E-27
 Fine-structure constant                                    7.29735253760000E-03
 Rydberg constant [1/m]                                     1.09737315685270E+07
 Avogadro constant [1/mol]                                  6.02214179000000E+23
 Boltzmann constant [J/K]                                   1.38065040000000E-23
 Atomic mass unit [kg]                                      1.66053878200000E-27
 Bohr radius [m]                                            5.29177208590000E-11

 *** Conversion factors ***

 [u] -> [a.u.]                                              1.82288848426455E+03
 [Angstrom] -> [Bohr] = [a.u.]                              1.88972613288564E+00
 [a.u.] = [Bohr] -> [Angstrom]                              5.29177208590000E-01
 [a.u.] -> [s]                                              2.41888432650478E-17
 [a.u.] -> [fs]                                             2.41888432650478E-02
 [a.u.] -> [J]                                              4.35974393937059E-18
 [a.u.] -> [N]                                              8.23872205491840E-08
 [a.u.] -> [K]                                              3.15774647902944E+05
 [a.u.] -> [kJ/mol]                                         2.62549961709828E+03
 [a.u.] -> [kcal/mol]                                       6.27509468713739E+02
 [a.u.] -> [Pa]                                             2.94210107994716E+13
 [a.u.] -> [bar]                                            2.94210107994716E+08
 [a.u.] -> [atm]                                            2.90362800883016E+08
 [a.u.] -> [eV]                                             2.72113838565563E+01
 [a.u.] -> [Hz]                                             6.57968392072181E+15
 [a.u.] -> [1/cm] (wave numbers)                            2.19474631370540E+05
 [a.u./Bohr**2] -> [1/cm]                                   5.14048714338585E+03
 

 CELL| Volume [angstrom^3]:                                            44.852393
 CELL| Vector a [angstrom]:       3.553     0.000     0.000   |a| =     3.553000
 CELL| Vector b [angstrom]:       0.000     3.553     0.000   |b| =     3.553000
 CELL| Vector c [angstrom]:       0.000     0.000     3.553   |c| =     3.553000
 CELL| Angle (b,c), alpha [degree]:                                    90.000000
 CELL| Angle (a,c), beta  [degree]:                                    90.000000
 CELL| Angle (a,b), gamma [degree]:                                    90.000000
 CELL| Numerically orthorhombic:                                             YES
 CELL| Periodicity                                                           XYZ

 CELL_REF| Volume [angstrom^3]:                                        44.852393
 CELL_REF| Vector a [angstrom     3.553     0.000     0.000   |a| =     3.553000
 CELL_REF| Vector b [angstrom     0.000     3.553     0.000   |b| =     3.553000
 CELL_REF| Vector c [angstrom     0.000     0.000     3.553   |c| =     3.553000
 CELL_REF| Angle (b,c), alpha [degree]:                                90.000000
 CELL_REF| Angle (a,c), beta  [degree]:                                90.000000
 CELL_REF| Angle (a,b), gamma [degree]:                                90.000000
 CELL_REF| Numerically orthorhombic:                                         YES
 CELL_REF| Periodicity                                                       XYZ

 GENERATE|  Preliminary Number of Bonds generated:                             0
 GENERATE|  Achieved consistency in connectivity generation.

 *** WARNING in cryssym.F:203 :: Symmetry library SPGLIB not available ***


 *******************************************************************************
 *******************************************************************************
 **                                                                           **
 **     #####                         ##              ##                      **
 **    ##   ##            ##          ##              ##                      **
 **   ##     ##                       ##            ######                    **
 **   ##     ##  ##   ##  ##   #####  ##  ##   ####   ##    #####    #####    **
 **   ##     ##  ##   ##  ##  ##      ## ##   ##      ##   ##   ##  ##   ##   **
 **   ##  ## ##  ##   ##  ##  ##      ####     ###    ##   ######   ######    **
 **    ##  ###   ##   ##  ##  ##      ## ##      ##   ##   ##       ##        **
 **     #######   #####   ##   #####  ##  ##  ####    ##    #####   ##        **
 **           ##                                                    ##        **
 **                                                                           **
 **                                                ... make the atoms dance   **
 **                                                                           **
 **            Copyright (C) by CP2K developers group (2000-2026)             **
 **                      J. Chem. Phys. 152, 194103 (2020)                    **
 **                                                                           **
 *******************************************************************************

 DFT| Spin restricted Kohn-Sham (RKS) calculation                            RKS
 DFT| Multiplicity                                                             1
 DFT| Number of spin states                                                    1
 DFT| Charge                                                                   0
 DFT| Self-interaction correction (SIC)                                       NO
 DFT| Cutoffs: density                                              1.000000E-10
 DFT|          gradient                                             1.000000E-10
 DFT|          tau                                                  1.000000E-10
 DFT|          cutoff_smoothing_range                               0.000000E+00
 DFT| XC density smoothing                                                  NONE
 DFT| XC derivatives                                                          PW

 FUNCTIONAL| GAUXC:
 FUNCTIONAL| Functional computed by GauXC Skala model SKALA                     

 vdW POTENTIAL|                                                   Pair Potential
 vdW POTENTIAL|          DFT-D3 (Version 3.1)
 vdW POTENTIAL|          Potential Form: S. Grimme et al, JCP 132: 154104 (2010)
 vdW POTENTIAL|          BJ Damping: S. Grimme et al, JCC 32: 1456 (2011)
 vdW POTENTIAL|          Cutoff Radius [Bohr]:                             37.79
 vdW POTENTIAL|          s6 Scaling Factor:                               1.0000
 vdW POTENTIAL|          a1 Damping Factor:                               0.3981
 vdW POTENTIAL|          s8 Scaling Factor:                               1.9889
 vdW POTENTIAL|          a2 Damping Factor:                               4.4211
 vdW POTENTIAL|          Cutoff for CN calculation:                   0.1000E-05

 QS| Method:                                                             GAPW_XC
 QS| Density plane wave grid type                        NON-SPHERICAL FULLSPACE
 QS| Number of grid levels:                                                    5
 QS| Density cutoff [a.u.]:                                                200.0
 QS| Multi grid cutoff [a.u.]: 1) grid level                               200.0
 QS|                           2) grid level                                66.7
 QS|                           3) grid level                                22.2
 QS|                           4) grid level                                 7.4
 QS|                           5) grid level                                 2.5
 QS| Grid level progression factor:                                          3.0
 QS| Relative density cutoff [a.u.]:                                        30.0
 QS| Interaction thresholds: eps_pgf_orb:                                1.0E-06
 QS|                         eps_filter_matrix:                          0.0E+00
 QS|                         eps_core_charge:                            1.0E-14
 QS|                         eps_rho_gspace:                             1.0E-12
 QS|                         eps_rho_rspace:                             1.0E-12
 QS|                         eps_gvg_rspace:                             1.0E-06
 QS|                         eps_ppl:                                    1.0E-02
 QS|                         eps_ppnl:                                   1.0E-08
 QS| GAPW_XC|      One center basis extended with primitives (small:s)
 QS| GAPW_XC|                eps_fit:                                    1.0E-04
 QS| GAPW_XC|                eps_iso:                                    1.0E-12
 QS| GAPW_XC|                eps_svd:                                    1.0E-08
 QS| GAPW_XC|atom-r-grid: quadrature:                 GC_LOG                        
 QS| GAPW_XC|   atom-s-grid:  max l :                                          6


 ATOMIC KIND INFORMATION

  1. Atomic kind: C                                     Number of atoms:       8

     Orbital Basis Set                                   TZV2P-MOLOPT-PBE-GTH-q4

       Number of orbital shell sets:                                           1
       Number of orbital shells:                                               9
       Number of primitive Cartesian functions:                                5
       Number of Cartesian basis functions:                                   34
       Number of spherical basis functions:                                   29
       Norm type:                                                              2

       Normalised Cartesian orbitals:

                        Set   Shell   Orbital            Exponent    Coefficient

                          1       1    2s                5.599010      -0.388516
                                                         2.008517      -0.222960
                                                         0.755557       0.256069
                                                         0.292158       0.177682
                                                         0.105328       0.019401

                          1       2    3s                5.599010       0.700337
                                                         2.008517       0.202467
                                                         0.755557      -0.073086
                                                         0.292158      -0.004274
                                                         0.105328       0.122810

                          1       3    4s                5.599010      -2.176345
                                                         2.008517      -0.220775
                                                         0.755557       0.109238
                                                         0.292158      -0.129517
                                                         0.105328       0.038801

                          1       4    3px               5.599010      -0.769001
                                                         2.008517      -0.634471
                                                         0.755557      -0.400220
                                                         0.292158      -0.124705
                                                         0.105328      -0.014325
                          1       4    3py               5.599010      -0.769001
                                                         2.008517      -0.634471
                                                         0.755557      -0.400220
                                                         0.292158      -0.124705
                                                         0.105328      -0.014325
                          1       4    3pz               5.599010      -0.769001
                                                         2.008517      -0.634471
                                                         0.755557      -0.400220
                                                         0.292158      -0.124705
                                                         0.105328      -0.014325

                          1       5    4px               5.599010       0.895802
                                                         2.008517       0.817480
                                                         0.755557       0.269326
                                                         0.292158       0.009009
                                                         0.105328      -0.085852
                          1       5    4py               5.599010       0.895802
                                                         2.008517       0.817480
                                                         0.755557       0.269326
                                                         0.292158       0.009009
                                                         0.105328      -0.085852
                          1       5    4pz               5.599010       0.895802
                                                         2.008517       0.817480
                                                         0.755557       0.269326
                                                         0.292158       0.009009
                                                         0.105328      -0.085852

                          1       6    5px               5.599010       1.029767
                                                         2.008517       2.903527
                                                         0.755557       0.336187
                                                         0.292158      -0.258025
                                                         0.105328       0.023472
                          1       6    5py               5.599010       1.029767
                                                         2.008517       2.903527
                                                         0.755557       0.336187
                                                         0.292158      -0.258025
                                                         0.105328       0.023472
                          1       6    5pz               5.599010       1.029767
                                                         2.008517       2.903527
                                                         0.755557       0.336187
                                                         0.292158      -0.258025
                                                         0.105328       0.023472

                          1       7    4dx2              5.599010      -4.629244
                                                         2.008517       1.670071
                                                         0.755557       0.309368
                                                         0.292158       0.124707
                                                         0.105328      -0.001260
                          1       7    4dxy              5.599010      -8.018085
                                                         2.008517       2.892648
                                                         0.755557       0.535841
                                                         0.292158       0.215998
                                                         0.105328      -0.002182
                          1       7    4dxz              5.599010      -8.018085
                                                         2.008517       2.892648
                                                         0.755557       0.535841
                                                         0.292158       0.215998
                                                         0.105328      -0.002182
                          1       7    4dy2              5.599010      -4.629244
                                                         2.008517       1.670071
                                                         0.755557       0.309368
                                                         0.292158       0.124707
                                                         0.105328      -0.001260
                          1       7    4dyz              5.599010      -8.018085
                                                         2.008517       2.892648
                                                         0.755557       0.535841
                                                         0.292158       0.215998
                                                         0.105328      -0.002182
                          1       7    4dz2              5.599010      -4.629244
                                                         2.008517       1.670071
                                                         0.755557       0.309368
                                                         0.292158       0.124707
                                                         0.105328      -0.001260

                          1       8    5dx2              5.599010      -0.765539
                                                         2.008517       0.044731
                                                         0.755557       0.033894
                                                         0.292158       0.006499
                                                         0.105328       0.031042
                          1       8    5dxy              5.599010      -1.325952
                                                         2.008517       0.077477
                                                         0.755557       0.058707
                                                         0.292158       0.011257
                                                         0.105328       0.053766
                          1       8    5dxz              5.599010      -1.325952
                                                         2.008517       0.077477
                                                         0.755557       0.058707
                                                         0.292158       0.011257
                                                         0.105328       0.053766
                          1       8    5dy2              5.599010      -0.765539
                                                         2.008517       0.044731
                                                         0.755557       0.033894
                                                         0.292158       0.006499
                                                         0.105328       0.031042
                          1       8    5dyz              5.599010      -1.325952
                                                         2.008517       0.077477
                                                         0.755557       0.058707
                                                         0.292158       0.011257
                                                         0.105328       0.053766
                          1       8    5dz2              5.599010      -0.765539
                                                         2.008517       0.044731
                                                         0.755557       0.033894
                                                         0.292158       0.006499
                                                         0.105328       0.031042

                          1       9    5fx3              5.599010      -0.150044
                                                         2.008517      -0.042629
                                                         0.755557       0.009866
                                                         0.292158       0.091648
                                                         0.105328       0.000020
                          1       9    5fx2y             5.599010      -0.335509
                                                         2.008517      -0.095321
                                                         0.755557       0.022061
                                                         0.292158       0.204931
                                                         0.105328       0.000045
                          1       9    5fx2z             5.599010      -0.335509
                                                         2.008517      -0.095321
                                                         0.755557       0.022061
                                                         0.292158       0.204931
                                                         0.105328       0.000045
                          1       9    5fxy2             5.599010      -0.335509
                                                         2.008517      -0.095321
                                                         0.755557       0.022061
                                                         0.292158       0.204931
                                                         0.105328       0.000045
                          1       9    5fxyz             5.599010      -0.581119
                                                         2.008517      -0.165100
                                                         0.755557       0.038210
                                                         0.292158       0.354951
                                                         0.105328       0.000078
                          1       9    5fxz2             5.599010      -0.335509
                                                         2.008517      -0.095321
                                                         0.755557       0.022061
                                                         0.292158       0.204931
                                                         0.105328       0.000045
                          1       9    5fy3              5.599010      -0.150044
                                                         2.008517      -0.042629
                                                         0.755557       0.009866
                                                         0.292158       0.091648
                                                         0.105328       0.000020
                          1       9    5fy2z             5.599010      -0.335509
                                                         2.008517      -0.095321
                                                         0.755557       0.022061
                                                         0.292158       0.204931
                                                         0.105328       0.000045
                          1       9    5fyz2             5.599010      -0.335509
                                                         2.008517      -0.095321
                                                         0.755557       0.022061
                                                         0.292158       0.204931
                                                         0.105328       0.000045
                          1       9    5fz3              5.599010      -0.150044
                                                         2.008517      -0.042629
                                                         0.755557       0.009866
                                                         0.292158       0.091648
                                                         0.105328       0.000020

       Atomic covalent radius [Angstrom]:                                  0.770

       Atomic van der Waals radius [Angstrom]:                             1.700

     The atoms of this atomic kind are PAW atoms (GAPW):
       Hard Gaussian function radius:                                      1.520
       Rho0 radius:                                                        1.520
       Maximum GTO radius used for PAW projector construction:            24.566

     GAPW Soft Basis Set                            TZV2P-MOLOPT-PBE-GTH-q4_soft

       Number of orbital shell sets:                                           1
       Number of orbital shells:                                               9
       Number of primitive Cartesian functions:                                4
       Number of Cartesian basis functions:                                   34
       Number of spherical basis functions:                                   29
       Norm type:                                                              2

       Normalised Cartesian orbitals:

                        Set   Shell   Orbital            Exponent    Coefficient

                          1       1    2s                2.008517      -0.222960
                                                         0.755557       0.256069
                                                         0.292158       0.177682
                                                         0.105328       0.019401

                          1       2    3s                2.008517       0.202467
                                                         0.755557      -0.073086
                                                         0.292158      -0.004274
                                                         0.105328       0.122810

                          1       3    4s                2.008517      -0.220775
                                                         0.755557       0.109238
                                                         0.292158      -0.129517
                                                         0.105328       0.038801

                          1       4    3px               2.008517      -0.634471
                                                         0.755557      -0.400220
                                                         0.292158      -0.124705
                                                         0.105328      -0.014325
                          1       4    3py               2.008517      -0.634471
                                                         0.755557      -0.400220
                                                         0.292158      -0.124705
                                                         0.105328      -0.014325
                          1       4    3pz               2.008517      -0.634471
                                                         0.755557      -0.400220
                                                         0.292158      -0.124705
                                                         0.105328      -0.014325

                          1       5    4px               2.008517       0.817480
                                                         0.755557       0.269326
                                                         0.292158       0.009009
                                                         0.105328      -0.085852
                          1       5    4py               2.008517       0.817480
                                                         0.755557       0.269326
                                                         0.292158       0.009009
                                                         0.105328      -0.085852
                          1       5    4pz               2.008517       0.817480
                                                         0.755557       0.269326
                                                         0.292158       0.009009
                                                         0.105328      -0.085852

                          1       6    5px               2.008517       2.903527
                                                         0.755557       0.336187
                                                         0.292158      -0.258025
                                                         0.105328       0.023472
                          1       6    5py               2.008517       2.903527
                                                         0.755557       0.336187
                                                         0.292158      -0.258025
                                                         0.105328       0.023472
                          1       6    5pz               2.008517       2.903527
                                                         0.755557       0.336187
                                                         0.292158      -0.258025
                                                         0.105328       0.023472

                          1       7    4dx2              2.008517       1.670071
                                                         0.755557       0.309368
                                                         0.292158       0.124707
                                                         0.105328      -0.001260
                          1       7    4dxy              2.008517       2.892648
                                                         0.755557       0.535841
                                                         0.292158       0.215998
                                                         0.105328      -0.002182
                          1       7    4dxz              2.008517       2.892648
                                                         0.755557       0.535841
                                                         0.292158       0.215998
                                                         0.105328      -0.002182
                          1       7    4dy2              2.008517       1.670071
                                                         0.755557       0.309368
                                                         0.292158       0.124707
                                                         0.105328      -0.001260
                          1       7    4dyz              2.008517       2.892648
                                                         0.755557       0.535841
                                                         0.292158       0.215998
                                                         0.105328      -0.002182
                          1       7    4dz2              2.008517       1.670071
                                                         0.755557       0.309368
                                                         0.292158       0.124707
                                                         0.105328      -0.001260

                          1       8    5dx2              2.008517       0.044731
                                                         0.755557       0.033894
                                                         0.292158       0.006499
                                                         0.105328       0.031042
                          1       8    5dxy              2.008517       0.077477
                                                         0.755557       0.058707
                                                         0.292158       0.011257
                                                         0.105328       0.053766
                          1       8    5dxz              2.008517       0.077477
                                                         0.755557       0.058707
                                                         0.292158       0.011257
                                                         0.105328       0.053766
                          1       8    5dy2              2.008517       0.044731
                                                         0.755557       0.033894
                                                         0.292158       0.006499
                                                         0.105328       0.031042
                          1       8    5dyz              2.008517       0.077477
                                                         0.755557       0.058707
                                                         0.292158       0.011257
                                                         0.105328       0.053766
                          1       8    5dz2              2.008517       0.044731
                                                         0.755557       0.033894
                                                         0.292158       0.006499
                                                         0.105328       0.031042

                          1       9    5fx3              2.008517      -0.042629
                                                         0.755557       0.009866
                                                         0.292158       0.091648
                                                         0.105328       0.000020
                          1       9    5fx2y             2.008517      -0.095321
                                                         0.755557       0.022061
                                                         0.292158       0.204931
                                                         0.105328       0.000045
                          1       9    5fx2z             2.008517      -0.095321
                                                         0.755557       0.022061
                                                         0.292158       0.204931
                                                         0.105328       0.000045
                          1       9    5fxy2             2.008517      -0.095321
                                                         0.755557       0.022061
                                                         0.292158       0.204931
                                                         0.105328       0.000045
                          1       9    5fxyz             2.008517      -0.165100
                                                         0.755557       0.038210
                                                         0.292158       0.354951
                                                         0.105328       0.000078
                          1       9    5fxz2             2.008517      -0.095321
                                                         0.755557       0.022061
                                                         0.292158       0.204931
                                                         0.105328       0.000045
                          1       9    5fy3              2.008517      -0.042629
                                                         0.755557       0.009866
                                                         0.292158       0.091648
                                                         0.105328       0.000020
                          1       9    5fy2z             2.008517      -0.095321
                                                         0.755557       0.022061
                                                         0.292158       0.204931
                                                         0.105328       0.000045
                          1       9    5fyz2             2.008517      -0.095321
                                                         0.755557       0.022061
                                                         0.292158       0.204931
                                                         0.105328       0.000045
                          1       9    5fz3              2.008517      -0.042629
                                                         0.755557       0.009866
                                                         0.292158       0.091648
                                                         0.105328       0.000020

     GTH Potential information for                                    GTH-PBE-q4

       Description:                       Goedecker-Teter-Hutter pseudopotential
                                           Goedecker et al., PRB 54, 1703 (1996)
                                          Hartwigsen et al., PRB 58, 3641 (1998)
                                                      Krack, TCA 114, 145 (2005)

       Gaussian exponent of the core charge distribution:               4.362265
       Electronic configuration (s p d ...):                       2   2   0   0

       Parameters of the local part of the GTH pseudopotential:

                          rloc        C1          C2          C3          C4
                        0.338555   -8.804552    1.338377

       Parameters of the non-local part of the GTH pseudopotential:

                   l      r(l)      h(i,j,l)

                   0    0.302610    9.622862


 MOLECULE KIND INFORMATION


 All atoms are their own molecule, skipping detailed information


 TOTAL NUMBERS AND MAXIMUM NUMBERS

  Total number of            - Atomic kinds:                                   1
                             - Atoms:                                          8
                             - Shell sets:                                     8
                             - Shells:                                        72
                             - Primitive Cartesian functions:                 40
                             - Cartesian basis functions:                    272
                             - Spherical basis functions:                    232

  Maximum angular momentum of- Orbital basis functions:                        3
                             - Local part of the GTH pseudopotential:          2
                             - Non-local part of the GTH pseudopotential:      0


 MODULE QUICKSTEP: ATOMIC COORDINATES IN ANGSTROM

   Atom Kind Element         X             Y             Z       Z(eff)     Mass
      1    1 C     6      0.000000      0.000000      0.000000   4.0000  12.0107
      2    1 C     6      0.000000      1.776500      1.776500   4.0000  12.0107
      3    1 C     6      1.776500      0.000000      1.776500   4.0000  12.0107
      4    1 C     6      1.776500      1.776500      0.000000   4.0000  12.0107
      5    1 C     6      0.888250      0.888250      0.888250   4.0000  12.0107
      6    1 C     6      0.888250      2.664750      2.664750   4.0000  12.0107
      7    1 C     6      2.664750      0.888250      2.664750   4.0000  12.0107
      8    1 C     6      2.664750      2.664750      0.888250   4.0000  12.0107



 SCF PARAMETERS         Density guess:                                    ATOMIC
                        --------------------------------------------------------
                        max_scf:                                             200
                        max_scf_history:                                       0
                        max_diis:                                              4
                        --------------------------------------------------------
                        eps_scf:                                        5.00E-07
                        eps_scf_history:                                0.00E+00
                        eps_diis:                                       1.00E-01
                        eps_eigval:                                     1.00E-05
                        --------------------------------------------------------
                        level_shift [a.u.]:                             0.000000
                        --------------------------------------------------------
                        Mixing method:                            BROYDEN_MIXING
                                                charge density mixing in g-space
                        --------------------------------------------------------
                        Outer loop SCF in use 
                        No variables optimised in outer loop
                        eps_scf                                         5.00E-07
                        max_scf                                                5
                        No outer loop optimization
                        step_size                                       5.00E-01

 PW_GRID| Information for grid number                                          1
 PW_GRID| Cutoff [a.u.]                                                    200.0
 PW_GRID| spherical cutoff:                                                   NO
 PW_GRID|   Bounds   1            -22      22                Points:          45
 PW_GRID|   Bounds   2            -22      22                Points:          45
 PW_GRID|   Bounds   3            -22      22                Points:          45
 PW_GRID| Volume element (a.u.^3)  0.3322E-02     Volume (a.u.^3)       302.6790
 PW_GRID| Grid span                                                    FULLSPACE

 PW_GRID| Information for grid number                                          2
 PW_GRID| Number of the reference grid                                         1
 PW_GRID| Cutoff [a.u.]                                                     66.7
 PW_GRID| spherical cutoff:                                                   NO
 PW_GRID|   Bounds   1            -12      12                Points:          25
 PW_GRID|   Bounds   2            -12      12                Points:          25
 PW_GRID|   Bounds   3            -12      12                Points:          25
 PW_GRID| Volume element (a.u.^3)  0.1937E-01     Volume (a.u.^3)       302.6790
 PW_GRID| Grid span                                                    FULLSPACE

 PW_GRID| Information for grid number                                          3
 PW_GRID| Number of the reference grid                                         1
 PW_GRID| Cutoff [a.u.]                                                     22.2
 PW_GRID| spherical cutoff:                                                   NO
 PW_GRID|   Bounds   1             -7       7                Points:          15
 PW_GRID|   Bounds   2             -7       7                Points:          15
 PW_GRID|   Bounds   3             -7       7                Points:          15
 PW_GRID| Volume element (a.u.^3)  0.8968E-01     Volume (a.u.^3)       302.6790
 PW_GRID| Grid span                                                    FULLSPACE

 PW_GRID| Information for grid number                                          4
 PW_GRID| Number of the reference grid                                         1
 PW_GRID| Cutoff [a.u.]                                                      7.4
 PW_GRID| spherical cutoff:                                                   NO
 PW_GRID|   Bounds   1             -4       4                Points:           9
 PW_GRID|   Bounds   2             -4       4                Points:           9
 PW_GRID|   Bounds   3             -4       4                Points:           9
 PW_GRID| Volume element (a.u.^3)  0.4152         Volume (a.u.^3)       302.6790
 PW_GRID| Grid span                                                    FULLSPACE

 PW_GRID| Information for grid number                                          5
 PW_GRID| Number of the reference grid                                         1
 PW_GRID| Cutoff [a.u.]                                                      2.5
 PW_GRID| spherical cutoff:                                                   NO
 PW_GRID|   Bounds   1             -3       2                Points:           6
 PW_GRID|   Bounds   2             -3       2                Points:           6
 PW_GRID|   Bounds   3             -3       2                Points:           6
 PW_GRID| Volume element (a.u.^3)   1.401         Volume (a.u.^3)       302.6790
 PW_GRID| Grid span                                                    FULLSPACE

 POISSON| Solver                                                        PERIODIC
 POISSON| Periodicity                                                        XYZ

 RS_GRID| Information for grid number                                          1
 RS_GRID|   Bounds   1            -22      22                Points:          45
 RS_GRID|   Bounds   2            -22      22                Points:          45
 RS_GRID|   Bounds   3            -22      22                Points:          45

 RS_GRID| Information for grid number                                          2
 RS_GRID|   Bounds   1            -12      12                Points:          25
 RS_GRID|   Bounds   2            -12      12                Points:          25
 RS_GRID|   Bounds   3            -12      12                Points:          25

 RS_GRID| Information for grid number                                          3
 RS_GRID|   Bounds   1             -7       7                Points:          15
 RS_GRID|   Bounds   2             -7       7                Points:          15
 RS_GRID|   Bounds   3             -7       7                Points:          15

 RS_GRID| Information for grid number                                          4
 RS_GRID|   Bounds   1             -4       4                Points:           9
 RS_GRID|   Bounds   2             -4       4                Points:           9
 RS_GRID|   Bounds   3             -4       4                Points:           9

 RS_GRID| Information for grid number                                          5
 RS_GRID|   Bounds   1             -3       2                Points:           6
 RS_GRID|   Bounds   2             -3       2                Points:           6
 RS_GRID|   Bounds   3             -3       2                Points:           6

 *******************************************************************************
                                    Kpoints
 *******************************************************************************
 BRILLOUIN| K-point scheme                                        Monkhorst-Pack
 BRILLOUIN| K-Point grid                                             4    4    4
 BRILLOUIN| Gamma-centered k-point mesh                                     ON
 BRILLOUIN| K-point symmetry accuracy                               0.100000E-07
 BRILLOUIN| K-Point point group symmetrization                                ON
 BRILLOUIN| Symmetry backend                                               K290
 BRILLOUIN| Symmetry reduction method                                      K290
 BRILLOUIN| Wavefunction type                                            COMPLEX
 BRILLOUIN| List of Kpoints [2 Pi/Bohr]                                       10
 BRILLOUIN| Number           Weight            X              Y              Z
 BRILLOUIN|     1           0.12500       -0.25000       -0.25000       -0.25000
 BRILLOUIN|     2           0.18750       -0.25000       -0.25000        0.00000
 BRILLOUIN|     3           0.18750       -0.25000       -0.25000        0.50000
 BRILLOUIN|     4           0.09375       -0.25000        0.00000        0.00000
 BRILLOUIN|     5           0.18750       -0.25000        0.00000        0.50000
 BRILLOUIN|     6           0.09375       -0.25000        0.50000        0.50000
 BRILLOUIN|     7           0.01562        0.00000        0.00000        0.00000
 BRILLOUIN|     8           0.04688        0.00000        0.00000        0.50000
 BRILLOUIN|     9           0.04688        0.00000        0.50000        0.50000
 BRILLOUIN|    10           0.01562        0.50000        0.50000        0.50000
 *******************************************************************************

 Extrapolation method: initial_guess

 Atomic guess: The first density matrix is obtained in terms of atomic orbitals
               and electronic configurations assigned to each atomic kind

 Guess for atomic kind: C

 Electronic structure
    Total number of core electrons                                          2.00
    Total number of valence electrons                                       4.00
    Total number of electrons                                               6.00
    Multiplicity                                                   not specified
    S   [  2.00] 2.00
    P      2.00


 *******************************************************************************
                  Iteration          Convergence                     Energy [au]
 *******************************************************************************
                          1        0.117779                      -5.273315477849
                          2        0.811746E-01                  -5.277882950325
                          3        0.375808E-03                  -5.282044538817
                          4        0.116303E-03                  -5.282044581600
                          5        0.136159E-06                  -5.282044589276

 Energy components [Hartree]           Total Energy ::           -5.282044589276
                                        Band Energy ::           -1.313808155897
                                     Kinetic Energy ::            3.394620915655
                                   Potential Energy ::           -8.676665504931
                                      Virial (-V/T) ::            2.556004255119
                                        Core Energy ::           -8.294411848339
                                          XC Energy ::           -1.378447971455
                                     Coulomb Energy ::            4.390815230518
                       Total Pseudopotential Energy ::          -11.723548360395
                       Local Pseudopotential Energy ::          -12.387857835263
                    Nonlocal Pseudopotential Energy ::            0.664309474867
                                        Confinement ::            0.345155964011

 Orbital energies  State     L     Occupation   Energy[a.u.]          Energy[eV]

                       1     0          2.000      -0.483294          -13.151096

                       1     1          2.000      -0.173610           -4.724173


 Total Electron Density at R=0:                                         0.000017
 Re-scaling the density matrix to get the right number of electrons
                  # Electrons              Trace(P)               Scaling factor
                           32                32.000                        1.000

 Number of electrons:                                                         32
 Number of occupied orbitals:                                                 16
 Number of molecular orbitals:                                                16

 Number of orbital functions:                                                232
 Number of independent orbital functions:                                    232


 SCF WAVEFUNCTION OPTIMIZATION

  Step     Update method      Time    Convergence         Total energy    Change
  ------------------------------------------------------------------------------

 *** WARNING in qs_ks_methods.F:773 :: Native SKALA grid evaluation with   ***
 *** k-points is using the CPU TorchScript path. Use a mutually compatible ***
 *** BLAS, ScaLAPACK, OpenMP, and LibTorch runtime stack, or select        ***
 *** NATIVE_GRID_USE_CUDA T.                                               ***

 SKALA_GPW| Atom-composite cross support/maxima   2.458199645922E+00   5.731268158315E-02   1.426927125762E-01   7.759765194008E-01
 SKALA_GPW| Active atom-composite XC energy  -1.3804801191666268E+01
 SKALA_GPW| Active atom-composite electrons   3.2071189466899831E+01
 SKALA_GPW| Active atom-composite density range   9.9570796921634591E-03   1.2701683526374397E-01
 SKALA_GPW| Active atom-composite tau range   7.7629971243499277E-03   1.2792969254814919E+00
 SKALA_GPW| Active atom-composite tau integral   2.7197737275161639E+01
 SKALA_GPW| Active atom-composite max gradient   2.8338197251609187E-01
     1 NoMix/Diag. 0.20E+00  233.9     0.56614197       -46.9068606995 -4.69E+01
 SKALA_GPW| Atom-composite cross support/maxima   2.458199645922E+00   3.753614790603E-02   1.803755283262E-01   1.239913003975E+00
 SKALA_GPW| Active atom-composite XC energy  -1.4215552160764494E+01
 SKALA_GPW| Active atom-composite electrons   3.2046880158341637E+01
 SKALA_GPW| Active atom-composite density range   1.6317550361626132E-05   1.5404555409573106E-01
 SKALA_GPW| Active atom-composite tau range   7.6776449713493898E-03   2.0251953844551474E+00
 SKALA_GPW| Active atom-composite tau integral   3.5654094899193232E+01
 SKALA_GPW| Active atom-composite max gradient   3.7732638176333477E-01
     2 Broy./Diag. 0.20E+00  237.1     0.09268346       -43.2807496072  3.63E+00
 SKALA_GPW| Atom-composite cross support/maxima   2.458199645922E+00   3.785122125900E-02   1.929734364848E-01   1.326404615107E+00
 SKALA_GPW| Active atom-composite XC energy  -1.4394370781519195E+01
 SKALA_GPW| Active atom-composite electrons   3.2041369557107757E+01
 SKALA_GPW| Active atom-composite density range   1.7495998729646911E-05   1.5938826134145723E-01
 SKALA_GPW| Active atom-composite tau range   6.5306895317935381E-03   2.1358161171452212E+00
 SKALA_GPW| Active atom-composite tau integral   3.6672372637311732E+01
 SKALA_GPW| Active atom-composite max gradient   3.9308734447379373E-01
     3 Broy./Diag. 0.20E+00  233.8     0.15298741       -40.1751800584  3.11E+00
 SKALA_GPW| Atom-composite cross support/maxima   2.458199645922E+00   4.053636897639E-02   2.128177934111E-01   1.461676693445E+00
 SKALA_GPW| Active atom-composite XC energy  -1.4676977397484146E+01
 SKALA_GPW| Active atom-composite electrons   3.2035041671695268E+01
 SKALA_GPW| Active atom-composite density range   1.8160255413623982E-05   1.7272969205377453E-01
 SKALA_GPW| Active atom-composite tau range   4.9804055004263863E-03   2.3369397713664108E+00
 SKALA_GPW| Active atom-composite tau integral   3.8547119262673483E+01
 SKALA_GPW| Active atom-composite max gradient   4.2591784112465580E-01
     4 Broy./Diag. 0.20E+00  237.1     0.14502659       -42.0837445503 -1.91E+00
 SKALA_GPW| Atom-composite cross support/maxima   2.458199645922E+00   3.805689372465E-02   1.849131762127E-01   1.280921013827E+00
 SKALA_GPW| Active atom-composite XC energy  -1.4411747992788728E+01
 SKALA_GPW| Active atom-composite electrons   3.2041505787880922E+01
 SKALA_GPW| Active atom-composite density range   1.9079649676859156E-05   1.6254776632364770E-01
 SKALA_GPW| Active atom-composite tau range   6.6029067643954545E-03   2.0948800733824586E+00
 SKALA_GPW| Active atom-composite tau integral   3.6660484839779500E+01
 SKALA_GPW| Active atom-composite max gradient   3.8738899818880790E-01
     5 Broy./Diag. 0.20E+00  230.6     0.08630004       -44.2228386136 -2.14E+00
 SKALA_GPW| Atom-composite cross support/maxima   2.458199645922E+00   3.652685382277E-02   1.754097247743E-01   1.216355662265E+00
 SKALA_GPW| Active atom-composite XC energy  -1.4271511983644629E+01
 SKALA_GPW| Active atom-composite electrons   3.2045116807618186E+01
 SKALA_GPW| Active atom-composite density range   2.0304966662387791E-05   1.5600516261993030E-01
 SKALA_GPW| Active atom-composite tau range   7.4640967601528217E-03   1.9953415347903865E+00
 SKALA_GPW| Active atom-composite tau integral   3.5726110814743741E+01
 SKALA_GPW| Active atom-composite max gradient   3.7065215748107300E-01
     6 Broy./Diag. 0.20E+00  237.5     0.05395688       -45.1288561161 -9.06E-01
 SKALA_GPW| Atom-composite cross support/maxima   2.458199645922E+00   3.587561354653E-02   1.730719057415E-01   1.198012683598E+00
 SKALA_GPW| Active atom-composite XC energy  -1.4207624605765441E+01
 SKALA_GPW| Active atom-composite electrons   3.2046729848838190E+01
 SKALA_GPW| Active atom-composite density range   1.7091593908925840E-05   1.5232730852256005E-01
 SKALA_GPW| Active atom-composite tau range   7.8386363504097511E-03   1.9611438869631224E+00
 SKALA_GPW| Active atom-composite tau integral   3.5327139656274760E+01
 SKALA_GPW| Active atom-composite max gradient   3.6470726201805553E-01
     7 Broy./Diag. 0.20E+00  237.5     0.03674220       -45.2195861315 -9.07E-02
 SKALA_GPW| Atom-composite cross support/maxima   2.458199645922E+00   3.589835256403E-02   1.752034294200E-01   1.209420415399E+00
 SKALA_GPW| Active atom-composite XC energy  -1.4200553518043368E+01
 SKALA_GPW| Active atom-composite electrons   3.2046822184607933E+01
 SKALA_GPW| Active atom-composite density range   1.4872767527651654E-05   1.5135401368502902E-01
 SKALA_GPW| Active atom-composite tau range   7.8400438616842687E-03   1.9718977256102930E+00
 SKALA_GPW| Active atom-composite tau integral   3.5320612680065345E+01
 SKALA_GPW| Active atom-composite max gradient   3.6625009835565842E-01
     8 Broy./Diag. 0.20E+00  235.7     0.02044655       -45.2885630261 -6.90E-02
 SKALA_GPW| Atom-composite cross support/maxima   2.458199645922E+00   3.579388107976E-02   1.750139149584E-01   1.206383600834E+00
 SKALA_GPW| Active atom-composite XC energy  -1.4178488073909300E+01
 SKALA_GPW| Active atom-composite electrons   3.2047426511394534E+01
 SKALA_GPW| Active atom-composite density range   1.4730216787918471E-05   1.5006563223583677E-01
 SKALA_GPW| Active atom-composite tau range   7.9764502876659357E-03   1.9649358088093374E+00
 SKALA_GPW| Active atom-composite tau integral   3.5202132721211463E+01
 SKALA_GPW| Active atom-composite max gradient   3.6504980974067835E-01
     9 Broy./Diag. 0.20E+00  235.0     0.01135178       -45.4049048040 -1.16E-01
 SKALA_GPW| Atom-composite cross support/maxima   2.458199645922E+00   3.568390786569E-02   1.752036382028E-01   1.206986550571E+00
 SKALA_GPW| Active atom-composite XC energy  -1.4169237574677162E+01
 SKALA_GPW| Active atom-composite electrons   3.2047643839752816E+01
 SKALA_GPW| Active atom-composite density range   1.5014119013855021E-05   1.4938462891750742E-01
 SKALA_GPW| Active atom-composite tau range   8.0281961773787710E-03   1.9628748424265097E+00
 SKALA_GPW| Active atom-composite tau integral   3.5148350669612597E+01
 SKALA_GPW| Active atom-composite max gradient   3.6456095393957577E-01
    10 Broy./Diag. 0.20E+00  231.1     0.00418610       -45.3973837845  7.52E-03
 SKALA_GPW| Atom-composite cross support/maxima   2.458199645922E+00   3.568777764419E-02   1.758819001870E-01   1.211290332169E+00
 SKALA_GPW| Active atom-composite XC energy  -1.4172640969102531E+01
 SKALA_GPW| Active atom-composite electrons   3.2047517338036172E+01
 SKALA_GPW| Active atom-composite density range   1.5287363562731249E-05   1.4940978693313639E-01
 SKALA_GPW| Active atom-composite tau range   7.9962512314528424E-03   1.9676217384433077E+00
 SKALA_GPW| Active atom-composite tau integral   3.5173722741471977E+01
 SKALA_GPW| Active atom-composite max gradient   3.6526671126591392E-01
    11 Broy./Diag. 0.20E+00  233.5     0.00334286       -45.4385027744 -4.11E-02
 SKALA_GPW| Atom-composite cross support/maxima   2.458199645922E+00   3.563274500451E-02   1.754527902072E-01   1.208222756900E+00
 SKALA_GPW| Active atom-composite XC energy  -1.4165242810901503E+01
 SKALA_GPW| Active atom-composite electrons   3.2047738306226719E+01
 SKALA_GPW| Active atom-composite density range   1.5316882415496169E-05   1.4906917488591637E-01
 SKALA_GPW| Active atom-composite tau range   8.0484658792332464E-03   1.9629819606103471E+00
 SKALA_GPW| Active atom-composite tau integral   3.5127628415982066E+01
 SKALA_GPW| Active atom-composite max gradient   3.6450265922704439E-01
    12 Broy./Diag. 0.20E+00  234.4     0.00164074       -45.4831430215 -4.46E-02
 SKALA_GPW| Atom-composite cross support/maxima   2.458199645922E+00   3.558886546069E-02   1.753169948981E-01   1.207275125132E+00
 SKALA_GPW| Active atom-composite XC energy  -1.4162342834409998E+01
 SKALA_GPW| Active atom-composite electrons   3.2047816353451083E+01
 SKALA_GPW| Active atom-composite density range   1.5391809515888366E-05   1.4889965379610134E-01
 SKALA_GPW| Active atom-composite tau range   8.0674041414216836E-03   1.9611612345096534E+00
 SKALA_GPW| Active atom-composite tau integral   3.5107927822247071E+01
 SKALA_GPW| Active atom-composite max gradient   3.6417723468971896E-01
    13 Broy./Diag. 0.20E+00  232.4     0.00090371       -45.4955870345 -1.24E-02
 SKALA_GPW| Atom-composite cross support/maxima   2.458199645922E+00   3.557247275995E-02   1.753189372387E-01   1.207284580192E+00
 SKALA_GPW| Active atom-composite XC energy  -1.4161852587093648E+01
 SKALA_GPW| Active atom-composite electrons   3.2047826589505945E+01
 SKALA_GPW| Active atom-composite density range   1.5438870368242319E-05   1.4885368741400840E-01
 SKALA_GPW| Active atom-composite tau range   8.0697007549270384E-03   1.9609392497175653E+00
 SKALA_GPW| Active atom-composite tau integral   3.5104220418619228E+01
 SKALA_GPW| Active atom-composite max gradient   3.6412694858307681E-01
    14 Broy./Diag. 0.20E+00  233.3     0.00032826       -45.4967123100 -1.13E-03
 SKALA_GPW| Atom-composite cross support/maxima   2.458199645922E+00   3.556872390688E-02   1.753333666760E-01   1.207382641820E+00
 SKALA_GPW| Active atom-composite XC energy  -1.4161870320953035E+01
 SKALA_GPW| Active atom-composite electrons   3.2047824606132579E+01
 SKALA_GPW| Active atom-composite density range   1.5456081918212294E-05   1.4884564693535030E-01
 SKALA_GPW| Active atom-composite tau range   8.0691423709706618E-03   1.9610079614907141E+00
 SKALA_GPW| Active atom-composite tau integral   3.5104220766428746E+01
 SKALA_GPW| Active atom-composite max gradient   3.6413371576806619E-01
    15 Broy./Diag. 0.20E+00  231.3     0.00013127       -45.4951777932  1.53E-03
 SKALA_GPW| Atom-composite cross support/maxima   2.458199645922E+00   3.556996811130E-02   1.753525441907E-01   1.207514351674E+00
 SKALA_GPW| Active atom-composite XC energy  -1.4162091706256215E+01
 SKALA_GPW| Active atom-composite electrons   3.2047817684652365E+01
 SKALA_GPW| Active atom-composite density range   1.5461006217860895E-05   1.4885333634904599E-01
 SKALA_GPW| Active atom-composite tau range   8.0674406854692720E-03   1.9611869561361954E+00
 SKALA_GPW| Active atom-composite tau integral   3.5105674573559718E+01
 SKALA_GPW| Active atom-composite max gradient   3.6416209671896538E-01
    16 Broy./Diag. 0.20E+00  234.9     0.00005926       -45.4937226148  1.46E-03
 SKALA_GPW| Atom-composite cross support/maxima   2.458199645922E+00   3.557129014252E-02   1.753602656700E-01   1.207567295690E+00
 SKALA_GPW| Active atom-composite XC energy  -1.4162194285016112E+01
 SKALA_GPW| Active atom-composite electrons   3.2047814653327592E+01
 SKALA_GPW| Active atom-composite density range   1.5460888746175738E-05   1.4885811277184444E-01
 SKALA_GPW| Active atom-composite tau range   8.0667225223849982E-03   1.9612676792663017E+00
 SKALA_GPW| Active atom-composite tau integral   3.5106385814249428E+01
 SKALA_GPW| Active atom-composite max gradient   3.6417539570286550E-01
    17 Broy./Diag. 0.20E+00  237.5     0.00002314       -45.4931440174  5.79E-04
 SKALA_GPW| Atom-composite cross support/maxima   2.458199645922E+00   3.557197275915E-02   1.753625078534E-01   1.207582102354E+00
 SKALA_GPW| Active atom-composite XC energy  -1.4162225372396515E+01
 SKALA_GPW| Active atom-composite electrons   3.2047813815328304E+01
 SKALA_GPW| Active atom-composite density range   1.5460203338035772E-05   1.4886001422690120E-01
 SKALA_GPW| Active atom-composite tau range   8.0665277789525557E-03   1.9612934334593501E+00
 SKALA_GPW| Active atom-composite tau integral   3.5106622235440064E+01
 SKALA_GPW| Active atom-composite max gradient   3.6417985342874748E-01
    18 Broy./Diag. 0.20E+00  238.4     0.00001283       -45.4930033061  1.41E-04
 SKALA_GPW| Atom-composite cross support/maxima   2.458199645922E+00   3.557220668004E-02   1.753630686162E-01   1.207584680343E+00
 SKALA_GPW| Active atom-composite XC energy  -1.4162234500844722E+01
 SKALA_GPW| Active atom-composite electrons   3.2047813587189339E+01
 SKALA_GPW| Active atom-composite density range   1.5459805594100762E-05   1.4886076438744017E-01
 SKALA_GPW| Active atom-composite tau range   8.0664788124682526E-03   1.9612988391915636E+00
 SKALA_GPW| Active atom-composite tau integral   3.5106690899496876E+01
 SKALA_GPW| Active atom-composite max gradient   3.6418115220792802E-01
    19 Broy./Diag. 0.20E+00  233.9     0.00000814       -45.4930969347 -9.36E-05
 SKALA_GPW| Atom-composite cross support/maxima   2.458199645922E+00   3.557210512614E-02   1.753620591044E-01   1.207576314475E+00
 SKALA_GPW| Active atom-composite XC energy  -1.4162223065200429E+01
 SKALA_GPW| Active atom-composite electrons   3.2047813933110504E+01
 SKALA_GPW| Active atom-composite density range   1.5459551963602214E-05   1.4886042318649248E-01
 SKALA_GPW| Active atom-composite tau range   8.0665709153055001E-03   1.9612869330561689E+00
 SKALA_GPW| Active atom-composite tau integral   3.5106610629103713E+01
 SKALA_GPW| Active atom-composite max gradient   3.6417965510339062E-01
    20 Broy./Diag. 0.20E+00  231.5     0.00000277       -45.4931701589 -7.32E-05
 SKALA_GPW| Atom-composite cross support/maxima   2.458199645922E+00   3.557202458880E-02   1.753617688067E-01   1.207573240970E+00
 SKALA_GPW| Active atom-composite XC energy  -1.4162219242337709E+01
 SKALA_GPW| Active atom-composite electrons   3.2047814044369083E+01
 SKALA_GPW| Active atom-composite density range   1.5459537828728387E-05   1.4886030119310026E-01
 SKALA_GPW| Active atom-composite tau range   8.0666003117848533E-03   1.9612822882291010E+00
 SKALA_GPW| Active atom-composite tau integral   3.5106581602280976E+01
 SKALA_GPW| Active atom-composite max gradient   3.6417916620112778E-01
    21 Broy./Diag. 0.20E+00  231.0     0.00000294       -45.4931332642  3.69E-05
 SKALA_GPW| Atom-composite cross support/maxima   2.458199645922E+00   3.557206860193E-02   1.753621261158E-01   1.207575766509E+00
 SKALA_GPW| Active atom-composite XC energy  -1.4162223149530572E+01
 SKALA_GPW| Active atom-composite electrons   3.2047813929478686E+01
 SKALA_GPW| Active atom-composite density range   1.5459573661329162E-05   1.4886047254772289E-01
 SKALA_GPW| Active atom-composite tau range   8.0665745881278207E-03   1.9612861900561827E+00
 SKALA_GPW| Active atom-composite tau integral   3.5106610120258438E+01
 SKALA_GPW| Active atom-composite max gradient   3.6417973260519487E-01
    22 Broy./Diag. 0.20E+00  232.4     0.00000307       -45.4930760274  5.72E-05
 SKALA_GPW| Atom-composite cross support/maxima   2.458199645922E+00   3.557214825077E-02   1.753624553046E-01   1.207578924915E+00
 SKALA_GPW| Active atom-composite XC energy  -1.4162226943941072E+01
 SKALA_GPW| Active atom-composite electrons   3.2047813819387201E+01
 SKALA_GPW| Active atom-composite density range   1.5459593963332297E-05   1.4886062253469254E-01
 SKALA_GPW| Active atom-composite tau range   8.0665519714251174E-03   1.9612911187076860E+00
 SKALA_GPW| Active atom-composite tau integral   3.5106639483627525E+01
 SKALA_GPW| Active atom-composite max gradient   3.6418026917489810E-01
    23 Broy./Diag. 0.20E+00  248.4     0.00000092       -45.4930683537  7.67E-06
 SKALA_GPW| Atom-composite cross support/maxima   2.458199645922E+00   3.557216916284E-02   1.753624296429E-01   1.207579256506E+00
 SKALA_GPW| Active atom-composite XC energy  -1.4162226813996728E+01
 SKALA_GPW| Active atom-composite electrons   3.2047813824936654E+01
 SKALA_GPW| Active atom-composite density range   1.5459582220662960E-05   1.4886061160391334E-01
 SKALA_GPW| Active atom-composite tau range   8.0665547337073953E-03   1.9612916671975578E+00
 SKALA_GPW| Active atom-composite tau integral   3.5106639369033182E+01
 SKALA_GPW| Active atom-composite max gradient   3.6418023806812549E-01
    24 Broy./Diag. 0.20E+00  233.7     0.00000111       -45.4930872771 -1.89E-05
 SKALA_GPW| Atom-composite cross support/maxima   2.458199645922E+00   3.557214957324E-02   1.753622927621E-01   1.207578286224E+00
 SKALA_GPW| Active atom-composite XC energy  -1.4162225364874502E+01
 SKALA_GPW| Active atom-composite electrons   3.2047813867375396E+01
 SKALA_GPW| Active atom-composite density range   1.5459568290465686E-05   1.4886054706811447E-01
 SKALA_GPW| Active atom-composite tau range   8.0665648673121926E-03   1.9612901732324151E+00
 SKALA_GPW| Active atom-composite tau integral   3.5106628529784494E+01
 SKALA_GPW| Active atom-composite max gradient   3.6418002368081637E-01
    25 Broy./Diag. 0.20E+00  229.4     0.00000057       -45.4931003276 -1.31E-05
 SKALA_GPW| Atom-composite cross support/maxima   2.458199645922E+00   3.557213136771E-02   1.753622301647E-01   1.207577643927E+00
 SKALA_GPW| Active atom-composite XC energy  -1.4162224667248118E+01
 SKALA_GPW| Active atom-composite electrons   3.2047813886670419E+01
 SKALA_GPW| Active atom-composite density range   1.5459565241161821E-05   1.4886051556885374E-01
 SKALA_GPW| Active atom-composite tau range   8.0665697226168561E-03   1.9612891727552948E+00
 SKALA_GPW| Active atom-composite tau integral   3.5106622903502476E+01
 SKALA_GPW| Active atom-composite max gradient   3.6417992583184150E-01
    26 Broy./Diag. 0.20E+00  237.9     0.00000021       -45.4930998900  4.38E-07

  *** SCF run converged in    26 steps ***


  Electronic density on regular grids:        -32.0000000000        0.0000000000
  Core density on regular grids:               32.0000000000       -0.0000000000
  Total charge density on r-space grids:       -0.0000000000
  Total charge density g-space grids:          -0.0000000000

  Overlap energy of the core charge distribution:               0.00000011105121
  Self energy of the core charge distribution:               -106.65373446668259
  Core Hamiltonian energy:                                     33.87300506503083
  Hartree energy:                                              41.54149839252020
  Exchange-correlation energy:                                  0.00000000000000
  Dispersion energy:                                           -0.09164432465796

  GAPW_XC| Exc from hard and soft atomic rho1:                -14.16222466724812

  Total energy:                                               -45.49309988998643

  outer SCF iter =    1 RMS gradient =   0.21E-06 energy =        -45.4930998900
  outer SCF loop converged in   1 iterations or   26 steps


 !-----------------------------------------------------------------------------!
                     Mulliken Population Analysis

 #  Atom  Element  Kind  Atomic population                           Net charge
       1     C        1          4.000544                             -0.000544
       2     C        1          3.999820                              0.000180
       3     C        1          3.999820                              0.000180
       4     C        1          3.999820                              0.000180
       5     C        1          3.999773                              0.000227
       6     C        1          4.000020                             -0.000020
       7     C        1          4.000072                             -0.000072
       8     C        1          4.000130                             -0.000130
 # Total charge                             32.000000                 -0.000000

 !-----------------------------------------------------------------------------!

 !-----------------------------------------------------------------------------!
                           Hirshfeld Charges

  #Atom  Element  Kind  Ref Charge     Population                    Net charge
      1       C      1       4.000          4.000                         0.000
      2       C      1       4.000          4.000                        -0.000
      3       C      1       4.000          4.000                        -0.000
      4       C      1       4.000          4.000                        -0.000
      5       C      1       4.000          4.000                        -0.000
      6       C      1       4.000          4.000                         0.000
      7       C      1       4.000          4.000                         0.000
      8       C      1       4.000          4.000                         0.000

  Total Charge                                                           -0.000
 !-----------------------------------------------------------------------------!

 ENERGY| Total FORCE_EVAL ( QS ) energy [hartree]            -45.493099889986432

 -------------------------------------------------------------------------------
 -                                                                             -
 -                                DBCSR STATISTICS                             -
 -                                                                             -
 -------------------------------------------------------------------------------
 COUNTER                                    TOTAL       BLAS       SMM       ACC
 flops inhomo. stacks                           0       0.0%      0.0%      0.0%
 flops total                         0.000000E+00       0.0%      0.0%      0.0%
 flops max/rank                      0.000000E+00       0.0%      0.0%      0.0%
 matmuls inhomo. stacks                         0       0.0%      0.0%      0.0%
 matmuls total                                  0       0.0%      0.0%      0.0%
 number of processed stacks                     0       0.0%      0.0%      0.0%
 average stack size                                     0.0       0.0       0.0
 marketing flops                     0.000000E+00
 -------------------------------------------------------------------------------
 -                                                                             -
 -                      DBCSR MESSAGE PASSING PERFORMANCE                      -
 -                                                                             -
 -------------------------------------------------------------------------------
 ROUTINE             CALLS      AVE VOLUME [Bytes]
 MP_Bcast                1                     12.
 MP_Allreduce           19                     21.
 MP_Alltoall         30516                 280377.
 -------------------------------------------------------------------------------

 -------------------------------------------------------------------------------
 -                                                                             -
 -                                GRID STATISTICS                              -
 -                                                                             -
 -------------------------------------------------------------------------------
 LP    KERNEL             BACKEND                              COUNT     PERCENT
 6     collocate ortho    CPU                                1762344      34.65%
 6     integrate ortho    CPU                                1697072      33.36%
 8     collocate ortho    CPU                                 829008      16.30%
 8     integrate ortho    CPU                                 798304      15.69%
 0     collocate general  CPU                                     24       0.00%
 0     integrate general  CPU                                      8       0.00%
 -------------------------------------------------------------------------------

 -------------------------------------------------------------------------------
 -                                                                             -
 -                          OFFLOAD MEMPOOL STATISTICS                         -
 -                                                                             -
 -------------------------------------------------------------------------------
 Memory consumption                Number of allocations  Used [MiB]  Size [MiB]
 Host                                                  9         187    89774841
 -------------------------------------------------------------------------------

 MEMORY| Estimated peak process memory [MiB]                                2546

 -------------------------------------------------------------------------------
 ----                             MULTIGRID INFO                            ----
 -------------------------------------------------------------------------------
 count for grid        1:          13531          cutoff [a.u.]          200.00
 count for grid        2:          24637          cutoff [a.u.]           66.67
 count for grid        3:          22492          cutoff [a.u.]           22.22
 count for grid        4:          14962          cutoff [a.u.]            7.41
 count for grid        5:              0          cutoff [a.u.]            2.47
 total gridlevel count  :          75622

 -------------------------------------------------------------------------------
 -                                                                             -
 -                         MESSAGE PASSING PERFORMANCE                         -
 -                                                                             -
 -------------------------------------------------------------------------------

 ROUTINE             CALLS      AVE VOLUME [Bytes]
 MP_Group               31
 MP_Bcast             9925                   8821.
 MP_Allreduce        32275                  33525.
 MP_Sync                 5
 MP_Wait              7900
 MP_ISend            11060                  61519.
 MP_IRecv            11060                  61519.
 -------------------------------------------------------------------------------


 -------------------------------------------------------------------------------
 -                                                                             -
 -                           R E F E R E N C E S                               -
 -                                                                             -
 -------------------------------------------------------------------------------
 
 CP2K version 2026.2 (Development Version), the CP2K developers group (2026).
 CP2K is freely available from https://www.cp2k.org/ .
 
 M. Iannuzzi, J. Wilhelm, F. Stein, A. Bussy, H. Elgabarty, D. Golze, A. Hehn, 
 M. Graml, S. Marek, B. Sertcan Gökmen, C. Schran, H. Forbert, R. Z. 
 Khaliullin, A. Kozhevnikov, M. Taillefumier, R. Meli, V. V. Rybkin, M. Brehm, 
 R. Schade, O. Schütt, J. V. Pototschnig, H. Mirhosseini, A. Knüpfer, D. Marx, 
 M. Krack, J. Hutter, T. D. Kühne.
 J. Phys. Chem. B 130, 1237-1310 (2026).
 The CP2K Program Package Made Simple.
 https://doi.org/10.1021/acs.jpcb.5c05851

 L. Wittmann, I. Gordiy, M. Friede, B. Helmich-Paris, S. Grimme, A. Hansen, M. 
 Bursch.
 Phys. Chem. Chem. Phys. 26, 21379-21394 (2024).
 Extension of the D3 and D4 London dispersion corrections to the full actinides 
 series.
 https://doi.org/10.1039/d4cp01514b

 T. D. Kühne, M. Iannuzzi, M. Del Ben, V. V. Rybkin, P. Seewald, F. Stein, T. 
 Laino, R. Z. Khaliullin, O. Schütt, F. Schiffmann, D. Golze, J. Wilhelm, S. 
 Chulkov, M. H. Bani-Hashemian, V. Weber, U. Borstnik, M. Taillefumier, A. S. 
 Jakobovits, A. Lazzaro, H. Pabst, T. Müller, R. Schade, M. Guidon, S. 
 Andermatt, N. Holmberg, G. K. Schenter, A. Hehn, A. Bussy, F. Belleflamme, G. 
 Tabacchi, A. Glöß, M. Lass, I. Bethune, C. J. Mundy, C. Plessl, M. Watkins, 
 J. VandeVondele, M. Krack, J. Hutter.
 J. Chem. Phys. 152, 194103 (2020).
 CP2K: An electronic structure and molecular dynamics software package - 
 Quickstep: Efficient and accurate electronic structure calculations.
 https://doi.org/10.1063/5.0007045

 L. Goerigk, A. Hansen, C. Bauer, S. Ehrlich, A. Najibi, S. Grimme.
 Phys. Chem. Chem. Phys. 19, 32184-32215 (2017).
 A look at the density functional theory zoo with the advanced GMTKN55 database 
 for general main group thermochemistry, kinetics and noncovalent interactions.
 https://doi.org/10.1039/C7CP04913G

 O. Schuett, P. Messmer, J. Hutter, J. VandeVondele.
 Electronic Structure Calculations on Graphics Processing Units, 173-190 (2016).
 GPU-Accelerated Sparse Matrix-Matrix Multiplication for Linear Scaling Density 
 Functional Theory.
 https://doi.org/10.1002/9781118670712.ch8

 U. Borstnik, J. VandeVondele, V. Weber, J. Hutter.
 Parallel Comput. 40, 47-58 (2014).
 Sparse matrix multiplication: The distributed block-compressed sparse row 
 library.
 https://doi.org/10.1016/j.parco.2014.03.012

 S. Grimme, S. Ehrlich, L. Goerigk.
 J. Comput. Chem. 32, 1456 (2011).
 Effect of the damping function in dispersion corrected density functional 
 theory.
 https://doi.org/10.1002/jcc.21759

 S. Grimme, J. Antony, S. Ehrlich, H. Krieg.
 J. Chem. Phys. 132, 154104 (2010).
 A consistent and accurate ab initio parametrization of density functional 
 dispersion correction (DFT-D) for the 94 elements H-Pu.
 https://doi.org/10.1063/1.3382344

 J. VandeVondele, J. Hutter.
 J. Chem. Phys. 127, 114105 (2007).
 Gaussian basis sets for accurate calculations on molecular systems in gas and 
 condensed phases.
 https://doi.org/10.1063/1.2770708

 M. Krack.
 Theor. Chem. Acc. 114, 145-152 (2005).
 Pseudopotentials for H to Kr optimized for gradient-corrected 
 exchange-correlation functionals.
 https://doi.org/10.1007/s00214-005-0655-y

 M. Frigo, S. G. Johnson.
 Proc. IEEE 93, 216-231 (2005).
 The design and implementation of FFTW3.
 https://doi.org/10.1109/JPROC.2004.840301

 C. Hartwigsen, S. Goedecker, J. Hutter.
 Phys. Rev. B 58, 3641-3662 (1998).
 Relativistic separable dual-space Gaussian pseudopotentials from H to Rn.
 https://doi.org/10.1103/PhysRevB.58.3641

 S. Goedecker, M. Teter, J. Hutter.
 Phys. Rev. B 54, 1703-1710 (1996).
 Separable dual-space Gaussian pseudopotentials.
 https://doi.org/10.1103/PhysRevB.54.1703

 C.-L. Fu, K.-M. Ho.
 Phys. Rev. B 28, 5480-5486 (1983).
 First-principles calculation of the equilibrium ground-state properties of 
 transition metals: Applications to Nb and Mo.
 https://doi.org/10.1103/PhysRevB.28.5480

 T. G. Worlton, J. L. Warren.
 Comput. Phys. Commun. 3, 88-117 (1972).
 Group-theoretical analysis of lattice vibrations.
 https://doi.org/10.1016/0010-4655(72)90058-6

 C. G. Broyden.
 Math. Comput. 19, 577-593 (1965).
 A class of methods for solving nonlinear simultaneous equations.
 https://doi.org/10.1090/S0025-5718-1965-0198670-6


 -------------------------------------------------------------------------------
 -                                                                             -
 -                                T I M I N G                                  -
 -                                                                             -
 -------------------------------------------------------------------------------
 SUBROUTINE                       CALLS  ASD         SELF TIME        TOTAL TIME
                                MAXIMUM       AVERAGE  MAXIMUM  AVERAGE  MAXIMUM
 CP2K                                 1  1.0    0.018    0.018 6114.481 6114.481
 qs_energies                          1  2.0    0.001    0.001 6114.344 6114.344
 scf_env_do_scf                       1  3.0    0.000    0.000 6111.411 6111.411
 scf_env_do_scf_inner_loop           26  4.0    0.012    0.012 6111.411 6111.411
 qs_ks_update_qs_env                 26  5.0    0.000    0.000 5860.192 5860.192
 rebuild_ks_matrix                   26  6.0    0.000    0.000 5859.271 5859.271
 qs_ks_build_kohn_sham_matrix        26  7.0    0.019    0.019 5859.270 5859.270
 calculate_vxc_atom                  26  8.0 4728.114 4728.114 5707.651 5707.651
 calc_tau_atom                      624  9.0  265.288  265.288  265.288  265.288
 gaVxcgb_GC                         416  9.0  211.951  211.951  211.951  211.951
 qs_rho_update_rho_low               27  5.0    0.005    0.005  194.404  194.404
 skala_atom_torch_backward           26  9.0  188.311  188.311  188.311  188.311
 calculate_rho_atom_coeff            27  6.0  174.532  174.532  174.532  174.532
 dgaVtaudgb                         416  9.0  158.490  158.490  158.490  158.490
 skala_atom_torch_forward            26  9.0    0.021    0.021  134.336  134.336
 torch_model_forward_mol_tensor      26 10.0  134.315  134.315  134.315  134.315
 -------------------------------------------------------------------------------

 The number of warnings for this run is : 2
 
 -------------------------------------------------------------------------------
  **** **** ******  **  PROGRAM ENDED AT                 2026-08-31 09:56:57.844
 ***** ** ***  *** **   PROGRAM RAN ON                                     terok
 **    ****   ******    PROGRAM RAN BY                                  kuehne88
 ***** **    ** ** **   PROGRAM PROCESS ID                               3580898
  **** **  *******  **  PROGRAM STOPPED IN /home/kuehne88/work/native-skala-tero
                                           k/goldzak12/diagnostics/symmetry-tigh
                                           t-eps5e7-20260831T0745/runs/gapwxc-gt
                                           h/C/reduced
