 DBCSR| CPU Multiplication driver                                           BLAS (U)
 DBCSR| Multrec recursion limit                                              512 (U)
 DBCSR| Multiplication stack size                                           1000 (D)
 DBCSR| Maximum elements for images                                    UNLIMITED (U)
 DBCSR| Multiplicative factor virtual images                                   1 (U)
 DBCSR| Use multiplication densification                                       T (D)
 DBCSR| Multiplication size stacks                                             3 (U)
 DBCSR| Use memory pool for CPU allocation                                     F (U)
 DBCSR| OMP: Current number of threads                                         8
 DBCSR| OMP: Max number of threads                                             8
 DBCSR| Split modifier for TAS multiplication algorithm                  1.0E+00 (U)


  **** **** ******  **  PROGRAM STARTED AT               2026-08-31 21:32:53.538
 ***** ** ***  *** **   PROGRAM STARTED ON                                cge029
 **    ****   ******    PROGRAM STARTED BY                              kuehne88
 ***** **    ** ** **   PROGRAM PROCESS ID                               3375623
  **** **  *******  **  PROGRAM STARTED IN /data/home2/kuehne88/cp2k-native-skal
                                           a/goldzak12/runs/production/gapw-ae/A
                                           lN/v04

 CP2K| version string:                 CP2K version 2026.2 (Development Version)
 CP2K| source code revision number:                                   c1bff3eeb8
 CP2K| cp2kflags: omp fftw3 spglib openblas libtorch libtorch_cuda              
 CP2K| is freely available from                            https://www.cp2k.org/
 CP2K| Program compiled at                                   2026-08-23 23:01:13
 CP2K| Program compiled on                                                cge022
 CP2K| Program compiled for                                               x86_64
 CP2K| Data directory path            /home/kuehne88/cp2k-native-skala/cp2k/data
 CP2K| Input file name                                          actual-input.inp

 GLOBAL| Force Environment number                                              1
 GLOBAL| Basis set file name                             BASIS_MOLOPT_UZH_2026.2
 GLOBAL| Potential file name                                POTENTIAL_UZH_2026.2
 GLOBAL| MM Potential file name                                     MM_POTENTIAL
 GLOBAL| Coordinate file name                                      __STD_INPUT__
 GLOBAL| Method name                                                        CP2K
 GLOBAL| Project name                         G12_AlN_gapw-ae_v0p9666666667_k555
 GLOBAL| Run type                                                         ENERGY
 GLOBAL| FFT library                                                       FFTW3
 GLOBAL| Diagonalization library                                       ScaLAPACK
 GLOBAL| Cholesky decomposition library                                ScaLAPACK
 GLOBAL| DGEMM library                                                      BLAS
 GLOBAL| Direct generalized diagonalization requested                          F
 GLOBAL| Orthonormality check for eigenvectors                          DISABLED
 GLOBAL| Matrix multiplication library                                 ScaLAPACK
 GLOBAL| All-to-all communication in single precision                          F
 GLOBAL| FFTs using library dependent lengths                                  F
 GLOBAL| Grid backend                                                       AUTO
 GLOBAL| Global print level                                               MEDIUM
 GLOBAL| MPI I/O enabled                                                       T
 GLOBAL| Total number of message passing processes                             1
 GLOBAL| Number of distributed systems (nodes)                                 1
 GLOBAL| Number of threads for this process                                    8
 GLOBAL| This output is from process                                           0
 GLOBAL| OpenMP stack size per thread (OMP_STACKSIZE)                       256M
 GLOBAL| CPU model name                          AMD EPYC 9654 96-Core Processor

 MEMORY| system memory details [Kb]
 MEMORY|                        rank 0           min           max       average
 MEMORY| MemTotal           1584970600    1584970600    1584970600    1584970600
 MEMORY| MemFree            1489584912    1489584912    1489584912    1489584912
 MEMORY| Buffers                     0             0             0             0
 MEMORY| Cached               10440816      10440816      10440816      10440816
 MEMORY| Slab                  2336084       2336084       2336084       2336084
 MEMORY| SReclaimable           637848        637848        637848        637848
 MEMORY| MemLikelyFree      1500663576    1500663576    1500663576    1500663576


 *** Fundamental physical constants (SI units) ***

 *** Literature: B. J. Mohr and B. N. Taylor,
 ***             CODATA recommended values of the fundamental physical
 ***             constants: 2006, Web Version 5.1
 ***             http://physics.nist.gov/constants

 Speed of light in vacuum [m/s]                             2.99792458000000E+08
 Magnetic constant or permeability of vacuum [N/A**2]       1.25663706143592E-06
 Electric constant or permittivity of vacuum [F/m]          8.85418781762039E-12
 Planck constant (h) [J*s]                                  6.62606896000000E-34
 Planck constant (h-bar) [J*s]                              1.05457162825177E-34
 Elementary charge [C]                                      1.60217648700000E-19
 Electron mass [kg]                                         9.10938215000000E-31
 Electron g factor [ ]                                     -2.00231930436220E+00
 Proton mass [kg]                                           1.67262163700000E-27
 Fine-structure constant                                    7.29735253760000E-03
 Rydberg constant [1/m]                                     1.09737315685270E+07
 Avogadro constant [1/mol]                                  6.02214179000000E+23
 Boltzmann constant [J/K]                                   1.38065040000000E-23
 Atomic mass unit [kg]                                      1.66053878200000E-27
 Bohr radius [m]                                            5.29177208590000E-11

 *** Conversion factors ***

 [u] -> [a.u.]                                              1.82288848426455E+03
 [Angstrom] -> [Bohr] = [a.u.]                              1.88972613288564E+00
 [a.u.] = [Bohr] -> [Angstrom]                              5.29177208590000E-01
 [a.u.] -> [s]                                              2.41888432650478E-17
 [a.u.] -> [fs]                                             2.41888432650478E-02
 [a.u.] -> [J]                                              4.35974393937059E-18
 [a.u.] -> [N]                                              8.23872205491840E-08
 [a.u.] -> [K]                                              3.15774647902944E+05
 [a.u.] -> [kJ/mol]                                         2.62549961709828E+03
 [a.u.] -> [kcal/mol]                                       6.27509468713739E+02
 [a.u.] -> [Pa]                                             2.94210107994716E+13
 [a.u.] -> [bar]                                            2.94210107994716E+08
 [a.u.] -> [atm]                                            2.90362800883016E+08
 [a.u.] -> [eV]                                             2.72113838565563E+01
 [a.u.] -> [Hz]                                             6.57968392072181E+15
 [a.u.] -> [1/cm] (wave numbers)                            2.19474631370540E+05
 [a.u./Bohr**2] -> [1/cm]                                   5.14048714338585E+03
 

 CELL| Volume [angstrom^3]:                                            80.560960
 CELL| Vector a [angstrom]:       4.319     0.000     0.000   |a| =     4.318917
 CELL| Vector b [angstrom]:       0.000     4.319     0.000   |b| =     4.318917
 CELL| Vector c [angstrom]:       0.000     0.000     4.319   |c| =     4.318917
 CELL| Angle (b,c), alpha [degree]:                                    90.000000
 CELL| Angle (a,c), beta  [degree]:                                    90.000000
 CELL| Angle (a,b), gamma [degree]:                                    90.000000
 CELL| Numerically orthorhombic:                                             YES
 CELL| Periodicity                                                           XYZ

 CELL_REF| Volume [angstrom^3]:                                        80.560960
 CELL_REF| Vector a [angstrom     4.319     0.000     0.000   |a| =     4.318917
 CELL_REF| Vector b [angstrom     0.000     4.319     0.000   |b| =     4.318917
 CELL_REF| Vector c [angstrom     0.000     0.000     4.319   |c| =     4.318917
 CELL_REF| Angle (b,c), alpha [degree]:                                90.000000
 CELL_REF| Angle (a,c), beta  [degree]:                                90.000000
 CELL_REF| Angle (a,b), gamma [degree]:                                90.000000
 CELL_REF| Numerically orthorhombic:                                         YES
 CELL_REF| Periodicity                                                       XYZ

 GENERATE|  Preliminary Number of Bonds generated:                             0
 GENERATE|  Achieved consistency in connectivity generation.

 *******************************************************************************
 *******************************************************************************
 **                                                                           **
 **     #####                         ##              ##                      **
 **    ##   ##            ##          ##              ##                      **
 **   ##     ##                       ##            ######                    **
 **   ##     ##  ##   ##  ##   #####  ##  ##   ####   ##    #####    #####    **
 **   ##     ##  ##   ##  ##  ##      ## ##   ##      ##   ##   ##  ##   ##   **
 **   ##  ## ##  ##   ##  ##  ##      ####     ###    ##   ######   ######    **
 **    ##  ###   ##   ##  ##  ##      ## ##      ##   ##   ##       ##        **
 **     #######   #####   ##   #####  ##  ##  ####    ##    #####   ##        **
 **           ##                                                    ##        **
 **                                                                           **
 **                                                ... make the atoms dance   **
 **                                                                           **
 **            Copyright (C) by CP2K developers group (2000-2026)             **
 **                      J. Chem. Phys. 152, 194103 (2020)                    **
 **                                                                           **
 *******************************************************************************

 DFT| Spin restricted Kohn-Sham (RKS) calculation                            RKS
 DFT| Multiplicity                                                             1
 DFT| Number of spin states                                                    1
 DFT| Charge                                                                   0
 DFT| Self-interaction correction (SIC)                                       NO
 DFT| Cutoffs: density                                              1.000000E-10
 DFT|          gradient                                             1.000000E-10
 DFT|          tau                                                  1.000000E-10
 DFT|          cutoff_smoothing_range                               0.000000E+00
 DFT| XC density smoothing                                                  NONE
 DFT| XC derivatives                                                          PW

 FUNCTIONAL| GAUXC:
 FUNCTIONAL| Functional computed by GauXC Skala model SKALA                     

 vdW POTENTIAL|                                                   Pair Potential
 vdW POTENTIAL|          DFT-D3 (Version 3.1)
 vdW POTENTIAL|          Potential Form: S. Grimme et al, JCP 132: 154104 (2010)
 vdW POTENTIAL|          BJ Damping: S. Grimme et al, JCC 32: 1456 (2011)
 vdW POTENTIAL|          Cutoff Radius [Bohr]:                             37.79
 vdW POTENTIAL|          s6 Scaling Factor:                               1.0000
 vdW POTENTIAL|          a1 Damping Factor:                               0.3981
 vdW POTENTIAL|          s8 Scaling Factor:                               1.9889
 vdW POTENTIAL|          a2 Damping Factor:                               4.4211
 vdW POTENTIAL|          Cutoff for CN calculation:                   0.1000E-05

 QS| Method:                                                                GAPW
 QS| Density plane wave grid type                        NON-SPHERICAL FULLSPACE
 QS| Number of grid levels:                                                    5
 QS| Density cutoff [a.u.]:                                                400.0
 QS| Multi grid cutoff [a.u.]: 1) grid level                               400.0
 QS|                           2) grid level                               133.3
 QS|                           3) grid level                                44.4
 QS|                           4) grid level                                14.8
 QS|                           5) grid level                                 4.9
 QS| Grid level progression factor:                                          3.0
 QS| Relative density cutoff [a.u.]:                                        30.0
 QS| Interaction thresholds: eps_pgf_orb:                                1.0E-07
 QS|                         eps_filter_matrix:                          0.0E+00
 QS|                         eps_core_charge:                            1.0E-16
 QS|                         eps_rho_gspace:                             1.0E-14
 QS|                         eps_rho_rspace:                             1.0E-14
 QS|                         eps_gvg_rspace:                             1.0E-07
 QS|                         eps_ppl:                                    1.0E-02
 QS|                         eps_ppnl:                                   1.0E-09
 QS| GAPW|      XC integration using accurate scheme: Ref. exponent     6.000000
 QS| GAPW|      One center basis extended with primitives (small:s)
 QS| GAPW|                   eps_fit:                                    1.0E-04
 QS| GAPW|                   eps_iso:                                    1.0E-12
 QS| GAPW|                   eps_svd:                                    1.0E-08
 QS| GAPW|                   eps_cpc:                                    1.0E-14
 QS| GAPW|   atom-r-grid: quadrature:                                     GC_LOG
 QS| GAPW|      atom-s-grid:  max l :                                          6
 QS| GAPW|      max_l_rho0 :                                                   4


 ATOMIC KIND INFORMATION

  1. Atomic kind: Al                                    Number of atoms:       4

     Orbital Basis Set                                       TZVPP-MOLOPT-PBE-ae

       Number of orbital shell sets:                                           3
       Number of orbital shells:                                              14
       Number of primitive Cartesian functions:                               17
       Number of Cartesian basis functions:                                   48
       Number of spherical basis functions:                                   42
       Norm type:                                                              2

       Normalised Cartesian orbitals:

                        Set   Shell   Orbital            Exponent    Coefficient

                          1       1    1s            37792.562568       1.087036
                                                      5668.107384       2.047063
                                                      1289.982926       3.429104
                                                       364.877998       5.170346
                                                       118.653376       6.362760
                                                        42.008686       5.315677
                                                        15.356196       1.824247

                          2       1    1s              452.528436       0.533774
                                                       107.119023       1.481162
                                                        34.047655       2.555551
                                                        12.525255       1.342997
                                                         4.333798      -2.749242

                          2       2    2px             452.528436       5.781888
                                                       107.119023      11.471936
                                                        34.047655      10.257031
                                                        12.525255      11.178282
                                                         4.333798       6.078700
                          2       2    2py             452.528436       5.781888
                                                       107.119023      11.471936
                                                        34.047655      10.257031
                                                        12.525255      11.178282
                                                         4.333798       6.078700
                          2       2    2pz             452.528436       5.781888
                                                       107.119023      11.471936
                                                        34.047655      10.257031
                                                        12.525255      11.178282
                                                         4.333798       6.078700

                          3       1    1s                4.148366      -0.110183
                                                         1.609191       0.843263
                                                         0.613444       0.107188
                                                         0.201490       0.008536
                                                         0.064494       0.000126

                          3       2    2s                4.148366      -0.041966
                                                         1.609191      -0.052318
                                                         0.613444       0.004994
                                                         0.201490       0.211045
                                                         0.064494       0.004139

                          3       3    3s                4.148366       0.003951
                                                         1.609191       0.071691
                                                         0.613444      -0.131957
                                                         0.201490      -0.009651
                                                         0.064494       0.101883

                          3       4    2px               4.148366       0.214757
                                                         1.609191       2.668939
                                                         0.613444      -0.085652
                                                         0.201490       0.020353
                                                         0.064494      -0.001875
                          3       4    2py               4.148366       0.214757
                                                         1.609191       2.668939
                                                         0.613444      -0.085652
                                                         0.201490       0.020353
                                                         0.064494      -0.001875
                          3       4    2pz               4.148366       0.214757
                                                         1.609191       2.668939
                                                         0.613444      -0.085652
                                                         0.201490       0.020353
                                                         0.064494      -0.001875

                          3       5    3px               4.148366      -0.033400
                                                         1.609191       0.168378
                                                         0.613444       0.616554
                                                         0.201490       0.039222
                                                         0.064494       0.000695
                          3       5    3py               4.148366      -0.033400
                                                         1.609191       0.168378
                                                         0.613444       0.616554
                                                         0.201490       0.039222
                                                         0.064494       0.000695
                          3       5    3pz               4.148366      -0.033400
                                                         1.609191       0.168378
                                                         0.613444       0.616554
                                                         0.201490       0.039222
                                                         0.064494       0.000695

                          3       6    4px               4.148366       0.751861
                                                         1.609191      -0.439071
                                                         0.613444      -0.240203
                                                         0.201490       0.245629
                                                         0.064494      -0.004502
                          3       6    4py               4.148366       0.751861
                                                         1.609191      -0.439071
                                                         0.613444      -0.240203
                                                         0.201490       0.245629
                                                         0.064494      -0.004502
                          3       6    4pz               4.148366       0.751861
                                                         1.609191      -0.439071
                                                         0.613444      -0.240203
                                                         0.201490       0.245629
                                                         0.064494      -0.004502

                          3       7    5px               4.148366      -0.246539
                                                         1.609191       0.070129
                                                         0.613444      -0.029590
                                                         0.201490       0.013369
                                                         0.064494       0.044496
                          3       7    5py               4.148366      -0.246539
                                                         1.609191       0.070129
                                                         0.613444      -0.029590
                                                         0.201490       0.013369
                                                         0.064494       0.044496
                          3       7    5pz               4.148366      -0.246539
                                                         1.609191       0.070129
                                                         0.613444      -0.029590
                                                         0.201490       0.013369
                                                         0.064494       0.044496

                          3       8    3dx2              4.148366       0.780612
                                                         1.609191       3.654166
                                                         0.613444       0.020190
                                                         0.201490      -0.009316
                                                         0.064494      -0.000807
                          3       8    3dxy              4.148366       1.352059
                                                         1.609191       6.329202
                                                         0.613444       0.034970
                                                         0.201490      -0.016136
                                                         0.064494      -0.001397
                          3       8    3dxz              4.148366       1.352059
                                                         1.609191       6.329202
                                                         0.613444       0.034970
                                                         0.201490      -0.016136
                                                         0.064494      -0.001397
                          3       8    3dy2              4.148366       0.780612
                                                         1.609191       3.654166
                                                         0.613444       0.020190
                                                         0.201490      -0.009316
                                                         0.064494      -0.000807
                          3       8    3dyz              4.148366       1.352059
                                                         1.609191       6.329202
                                                         0.613444       0.034970
                                                         0.201490      -0.016136
                                                         0.064494      -0.001397
                          3       8    3dz2              4.148366       0.780612
                                                         1.609191       3.654166
                                                         0.613444       0.020190
                                                         0.201490      -0.009316
                                                         0.064494      -0.000807

                          3       9    4dx2              4.148366      -0.359381
                                                         1.609191      -0.148001
                                                         0.613444       0.751436
                                                         0.201490      -0.007238
                                                         0.064494      -0.000166
                          3       9    4dxy              4.148366      -0.622466
                                                         1.609191      -0.256345
                                                         0.613444       1.301526
                                                         0.201490      -0.012536
                                                         0.064494      -0.000288
                          3       9    4dxz              4.148366      -0.622466
                                                         1.609191      -0.256345
                                                         0.613444       1.301526
                                                         0.201490      -0.012536
                                                         0.064494      -0.000288
                          3       9    4dy2              4.148366      -0.359381
                                                         1.609191      -0.148001
                                                         0.613444       0.751436
                                                         0.201490      -0.007238
                                                         0.064494      -0.000166
                          3       9    4dyz              4.148366      -0.622466
                                                         1.609191      -0.256345
                                                         0.613444       1.301526
                                                         0.201490      -0.012536
                                                         0.064494      -0.000288
                          3       9    4dz2              4.148366      -0.359381
                                                         1.609191      -0.148001
                                                         0.613444       0.751436
                                                         0.201490      -0.007238
                                                         0.064494      -0.000166

                          3      10    5dx2              4.148366       1.916010
                                                         1.609191       0.316831
                                                         0.613444       0.042788
                                                         0.201490       0.080089
                                                         0.064494       0.002608
                          3      10    5dxy              4.148366       3.318627
                                                         1.609191       0.548767
                                                         0.613444       0.074111
                                                         0.201490       0.138718
                                                         0.064494       0.004517
                          3      10    5dxz              4.148366       3.318627
                                                         1.609191       0.548767
                                                         0.613444       0.074111
                                                         0.201490       0.138718
                                                         0.064494       0.004517
                          3      10    5dy2              4.148366       1.916010
                                                         1.609191       0.316831
                                                         0.613444       0.042788
                                                         0.201490       0.080089
                                                         0.064494       0.002608
                          3      10    5dyz              4.148366       3.318627
                                                         1.609191       0.548767
                                                         0.613444       0.074111
                                                         0.201490       0.138718
                                                         0.064494       0.004517
                          3      10    5dz2              4.148366       1.916010
                                                         1.609191       0.316831
                                                         0.613444       0.042788
                                                         0.201490       0.080089
                                                         0.064494       0.002608

                          3      11    4fx3              4.148366      -0.345579
                                                         1.609191       0.017213
                                                         0.613444       0.205065
                                                         0.201490       0.029769
                                                         0.064494      -0.000200
                          3      11    4fx2y             4.148366      -0.772738
                                                         1.609191       0.038489
                                                         0.613444       0.458539
                                                         0.201490       0.066565
                                                         0.064494      -0.000448
                          3      11    4fx2z             4.148366      -0.772738
                                                         1.609191       0.038489
                                                         0.613444       0.458539
                                                         0.201490       0.066565
                                                         0.064494      -0.000448
                          3      11    4fxy2             4.148366      -0.772738
                                                         1.609191       0.038489
                                                         0.613444       0.458539
                                                         0.201490       0.066565
                                                         0.064494      -0.000448
                          3      11    4fxyz             4.148366      -1.338422
                                                         1.609191       0.066664
                                                         0.613444       0.794214
                                                         0.201490       0.115293
                                                         0.064494      -0.000776
                          3      11    4fxz2             4.148366      -0.772738
                                                         1.609191       0.038489
                                                         0.613444       0.458539
                                                         0.201490       0.066565
                                                         0.064494      -0.000448
                          3      11    4fy3              4.148366      -0.345579
                                                         1.609191       0.017213
                                                         0.613444       0.205065
                                                         0.201490       0.029769
                                                         0.064494      -0.000200
                          3      11    4fy2z             4.148366      -0.772738
                                                         1.609191       0.038489
                                                         0.613444       0.458539
                                                         0.201490       0.066565
                                                         0.064494      -0.000448
                          3      11    4fyz2             4.148366      -0.772738
                                                         1.609191       0.038489
                                                         0.613444       0.458539
                                                         0.201490       0.066565
                                                         0.064494      -0.000448
                          3      11    4fz3              4.148366      -0.345579
                                                         1.609191       0.017213
                                                         0.613444       0.205065
                                                         0.201490       0.029769
                                                         0.064494      -0.000200

       Atomic covalent radius [Angstrom]:                                  1.180

       Atomic van der Waals radius [Angstrom]:                             1.840

     The atoms of this atomic kind are PAW atoms (GAPW):
       Hard Gaussian function radius:                                      1.900
       Rho0 radius:                                                        1.900
       Maximum GTO radius used for PAW projector construction:            24.566

     GAPW Soft Basis Set                                TZVPP-MOLOPT-PBE-ae_soft

       Number of orbital shell sets:                                           3
       Number of orbital shells:                                              14
       Number of primitive Cartesian functions:                                4
       Number of Cartesian basis functions:                                   48
       Number of spherical basis functions:                                   42
       Norm type:                                                              2

       Normalised Cartesian orbitals:

                        Set   Shell   Orbital            Exponent    Coefficient

                          1       1    1s         

                          2       1    1s         

                          2       2    2px        
                          2       2    2py        
                          2       2    2pz        

                          3       1    1s                1.609191       0.843263
                                                         0.613444       0.107188
                                                         0.201490       0.008536
                                                         0.064494       0.000126

                          3       2    2s                1.609191      -0.052318
                                                         0.613444       0.004994
                                                         0.201490       0.211045
                                                         0.064494       0.004139

                          3       3    3s                1.609191       0.071691
                                                         0.613444      -0.131957
                                                         0.201490      -0.009651
                                                         0.064494       0.101883

                          3       4    2px               1.609191       2.668939
                                                         0.613444      -0.085652
                                                         0.201490       0.020353
                                                         0.064494      -0.001875
                          3       4    2py               1.609191       2.668939
                                                         0.613444      -0.085652
                                                         0.201490       0.020353
                                                         0.064494      -0.001875
                          3       4    2pz               1.609191       2.668939
                                                         0.613444      -0.085652
                                                         0.201490       0.020353
                                                         0.064494      -0.001875

                          3       5    3px               1.609191       0.168378
                                                         0.613444       0.616554
                                                         0.201490       0.039222
                                                         0.064494       0.000695
                          3       5    3py               1.609191       0.168378
                                                         0.613444       0.616554
                                                         0.201490       0.039222
                                                         0.064494       0.000695
                          3       5    3pz               1.609191       0.168378
                                                         0.613444       0.616554
                                                         0.201490       0.039222
                                                         0.064494       0.000695

                          3       6    4px               1.609191      -0.439071
                                                         0.613444      -0.240203
                                                         0.201490       0.245629
                                                         0.064494      -0.004502
                          3       6    4py               1.609191      -0.439071
                                                         0.613444      -0.240203
                                                         0.201490       0.245629
                                                         0.064494      -0.004502
                          3       6    4pz               1.609191      -0.439071
                                                         0.613444      -0.240203
                                                         0.201490       0.245629
                                                         0.064494      -0.004502

                          3       7    5px               1.609191       0.070129
                                                         0.613444      -0.029590
                                                         0.201490       0.013369
                                                         0.064494       0.044496
                          3       7    5py               1.609191       0.070129
                                                         0.613444      -0.029590
                                                         0.201490       0.013369
                                                         0.064494       0.044496
                          3       7    5pz               1.609191       0.070129
                                                         0.613444      -0.029590
                                                         0.201490       0.013369
                                                         0.064494       0.044496

                          3       8    3dx2              1.609191       3.654166
                                                         0.613444       0.020190
                                                         0.201490      -0.009316
                                                         0.064494      -0.000807
                          3       8    3dxy              1.609191       6.329202
                                                         0.613444       0.034970
                                                         0.201490      -0.016136
                                                         0.064494      -0.001397
                          3       8    3dxz              1.609191       6.329202
                                                         0.613444       0.034970
                                                         0.201490      -0.016136
                                                         0.064494      -0.001397
                          3       8    3dy2              1.609191       3.654166
                                                         0.613444       0.020190
                                                         0.201490      -0.009316
                                                         0.064494      -0.000807
                          3       8    3dyz              1.609191       6.329202
                                                         0.613444       0.034970
                                                         0.201490      -0.016136
                                                         0.064494      -0.001397
                          3       8    3dz2              1.609191       3.654166
                                                         0.613444       0.020190
                                                         0.201490      -0.009316
                                                         0.064494      -0.000807

                          3       9    4dx2              1.609191      -0.148001
                                                         0.613444       0.751436
                                                         0.201490      -0.007238
                                                         0.064494      -0.000166
                          3       9    4dxy              1.609191      -0.256345
                                                         0.613444       1.301526
                                                         0.201490      -0.012536
                                                         0.064494      -0.000288
                          3       9    4dxz              1.609191      -0.256345
                                                         0.613444       1.301526
                                                         0.201490      -0.012536
                                                         0.064494      -0.000288
                          3       9    4dy2              1.609191      -0.148001
                                                         0.613444       0.751436
                                                         0.201490      -0.007238
                                                         0.064494      -0.000166
                          3       9    4dyz              1.609191      -0.256345
                                                         0.613444       1.301526
                                                         0.201490      -0.012536
                                                         0.064494      -0.000288
                          3       9    4dz2              1.609191      -0.148001
                                                         0.613444       0.751436
                                                         0.201490      -0.007238
                                                         0.064494      -0.000166

                          3      10    5dx2              1.609191       0.316831
                                                         0.613444       0.042788
                                                         0.201490       0.080089
                                                         0.064494       0.002608
                          3      10    5dxy              1.609191       0.548767
                                                         0.613444       0.074111
                                                         0.201490       0.138718
                                                         0.064494       0.004517
                          3      10    5dxz              1.609191       0.548767
                                                         0.613444       0.074111
                                                         0.201490       0.138718
                                                         0.064494       0.004517
                          3      10    5dy2              1.609191       0.316831
                                                         0.613444       0.042788
                                                         0.201490       0.080089
                                                         0.064494       0.002608
                          3      10    5dyz              1.609191       0.548767
                                                         0.613444       0.074111
                                                         0.201490       0.138718
                                                         0.064494       0.004517
                          3      10    5dz2              1.609191       0.316831
                                                         0.613444       0.042788
                                                         0.201490       0.080089
                                                         0.064494       0.002608

                          3      11    4fx3              1.609191       0.017213
                                                         0.613444       0.205065
                                                         0.201490       0.029769
                                                         0.064494      -0.000200
                          3      11    4fx2y             1.609191       0.038489
                                                         0.613444       0.458539
                                                         0.201490       0.066565
                                                         0.064494      -0.000448
                          3      11    4fx2z             1.609191       0.038489
                                                         0.613444       0.458539
                                                         0.201490       0.066565
                                                         0.064494      -0.000448
                          3      11    4fxy2             1.609191       0.038489
                                                         0.613444       0.458539
                                                         0.201490       0.066565
                                                         0.064494      -0.000448
                          3      11    4fxyz             1.609191       0.066664
                                                         0.613444       0.794214
                                                         0.201490       0.115293
                                                         0.064494      -0.000776
                          3      11    4fxz2             1.609191       0.038489
                                                         0.613444       0.458539
                                                         0.201490       0.066565
                                                         0.064494      -0.000448
                          3      11    4fy3              1.609191       0.017213
                                                         0.613444       0.205065
                                                         0.201490       0.029769
                                                         0.064494      -0.000200
                          3      11    4fy2z             1.609191       0.038489
                                                         0.613444       0.458539
                                                         0.201490       0.066565
                                                         0.064494      -0.000448
                          3      11    4fyz2             1.609191       0.038489
                                                         0.613444       0.458539
                                                         0.201490       0.066565
                                                         0.064494      -0.000448
                          3      11    4fz3              1.609191       0.017213
                                                         0.613444       0.205065
                                                         0.201490       0.029769
                                                         0.064494      -0.000200

     AE Potential information for                                            ALL

       Description:                                       All-electron potential
                                          Krack, Parrinello, PCCP 2, 2105 (2000)

       Gaussian exponent of the core charge distribution:               2.469136
       Electronic configuration (s p d ...):                           6   7   0

  2. Atomic kind: N                                     Number of atoms:       4

     Orbital Basis Set                                       TZVPP-MOLOPT-PBE-ae

       Number of orbital shell sets:                                           2
       Number of orbital shells:                                              11
       Number of primitive Cartesian functions:                               12
       Number of Cartesian basis functions:                                   36
       Number of spherical basis functions:                                   31
       Norm type:                                                              2

       Normalised Cartesian orbitals:

                        Set   Shell   Orbital            Exponent    Coefficient

                          1       1    1s            19730.758242       0.654856
                                                      2958.006020       1.769548
                                                       673.387518       2.322723
                                                       190.675174       4.547417
                                                        62.366448       3.527190
                                                        22.833858       5.352733

                          2       1    1s               49.270190       0.802518
                                                         8.608625       2.378505
                                                         2.987378       0.535699
                                                         0.930550      -0.061635
                                                         0.322032       0.036074
                                                         0.113512       0.014500

                          2       2    2s               49.270190      -0.622920
                                                         8.608625      -0.061481
                                                         2.987378       0.054918
                                                         0.930550       0.396674
                                                         0.322032       0.082974
                                                         0.113512       0.032692

                          2       3    3s               49.270190      -0.366977
                                                         8.608625      -0.870010
                                                         2.987378      -0.229943
                                                         0.930550      -0.408076
                                                         0.322032       0.306069
                                                         0.113512       0.047996

                          2       4    4s               49.270190      -7.166333
                                                         8.608625      -0.961511
                                                         2.987378       0.637930
                                                         0.930550      -0.188982
                                                         0.322032      -0.186943
                                                         0.113512       0.171213

                          2       5    2px              49.270190      12.161855
                                                         8.608625       1.288759
                                                         2.987378       1.750760
                                                         0.930550       0.811118
                                                         0.322032       0.040684
                                                         0.113512       0.006367
                          2       5    2py              49.270190      12.161855
                                                         8.608625       1.288759
                                                         2.987378       1.750760
                                                         0.930550       0.811118
                                                         0.322032       0.040684
                                                         0.113512       0.006367
                          2       5    2pz              49.270190      12.161855
                                                         8.608625       1.288759
                                                         2.987378       1.750760
                                                         0.930550       0.811118
                                                         0.322032       0.040684
                                                         0.113512       0.006367

                          2       6    3px              49.270190     -28.403920
                                                         8.608625       0.375399
                                                         2.987378      -0.764833
                                                         0.930550      -0.153789
                                                         0.322032       0.344073
                                                         0.113512       0.011134
                          2       6    3py              49.270190     -28.403920
                                                         8.608625       0.375399
                                                         2.987378      -0.764833
                                                         0.930550      -0.153789
                                                         0.322032       0.344073
                                                         0.113512       0.011134
                          2       6    3pz              49.270190     -28.403920
                                                         8.608625       0.375399
                                                         2.987378      -0.764833
                                                         0.930550      -0.153789
                                                         0.322032       0.344073
                                                         0.113512       0.011134

                          2       7    4px              49.270190       8.328837
                                                         8.608625      -0.402261
                                                         2.987378      -0.049280
                                                         0.930550      -0.121777
                                                         0.322032      -0.047567
                                                         0.113512       0.104427
                          2       7    4py              49.270190       8.328837
                                                         8.608625      -0.402261
                                                         2.987378      -0.049280
                                                         0.930550      -0.121777
                                                         0.322032      -0.047567
                                                         0.113512       0.104427
                          2       7    4pz              49.270190       8.328837
                                                         8.608625      -0.402261
                                                         2.987378      -0.049280
                                                         0.930550      -0.121777
                                                         0.322032      -0.047567
                                                         0.113512       0.104427

                          2       8    3dx2             49.270190     -47.156995
                                                         8.608625     -15.504622
                                                         2.987378       4.861216
                                                         0.930550       0.975526
                                                         0.322032       0.004138
                                                         0.113512       0.008426
                          2       8    3dxy             49.270190     -81.678311
                                                         8.608625     -26.854794
                                                         2.987378       8.419873
                                                         0.930550       1.689661
                                                         0.322032       0.007167
                                                         0.113512       0.014594
                          2       8    3dxz             49.270190     -81.678311
                                                         8.608625     -26.854794
                                                         2.987378       8.419873
                                                         0.930550       1.689661
                                                         0.322032       0.007167
                                                         0.113512       0.014594
                          2       8    3dy2             49.270190     -47.156995
                                                         8.608625     -15.504622
                                                         2.987378       4.861216
                                                         0.930550       0.975526
                                                         0.322032       0.004138
                                                         0.113512       0.008426
                          2       8    3dyz             49.270190     -81.678311
                                                         8.608625     -26.854794
                                                         2.987378       8.419873
                                                         0.930550       1.689661
                                                         0.322032       0.007167
                                                         0.113512       0.014594
                          2       8    3dz2             49.270190     -47.156995
                                                         8.608625     -15.504622
                                                         2.987378       4.861216
                                                         0.930550       0.975526
                                                         0.322032       0.004138
                                                         0.113512       0.008426

                          2       9    4dx2             49.270190      69.517765
                                                         8.608625      17.703387
                                                         2.987378      -3.348764
                                                         0.930550       0.469670
                                                         0.322032       0.207542
                                                         0.113512      -0.007657
                          2       9    4dxy             49.270190     120.408301
                                                         8.608625      30.663165
                                                         2.987378      -5.800229
                                                         0.930550       0.813493
                                                         0.322032       0.359472
                                                         0.113512      -0.013263
                          2       9    4dxz             49.270190     120.408301
                                                         8.608625      30.663165
                                                         2.987378      -5.800229
                                                         0.930550       0.813493
                                                         0.322032       0.359472
                                                         0.113512      -0.013263
                          2       9    4dy2             49.270190      69.517765
                                                         8.608625      17.703387
                                                         2.987378      -3.348764
                                                         0.930550       0.469670
                                                         0.322032       0.207542
                                                         0.113512      -0.007657
                          2       9    4dyz             49.270190     120.408301
                                                         8.608625      30.663165
                                                         2.987378      -5.800229
                                                         0.930550       0.813493
                                                         0.322032       0.359472
                                                         0.113512      -0.013263
                          2       9    4dz2             49.270190      69.517765
                                                         8.608625      17.703387
                                                         2.987378      -3.348764
                                                         0.930550       0.469670
                                                         0.322032       0.207542
                                                         0.113512      -0.007657

                          2      10    4fx3             49.270190     240.939936
                                                         8.608625      -7.108652
                                                         2.987378       1.277764
                                                         0.930550       1.022795
                                                         0.322032       0.026408
                                                         0.113512       0.000350
                          2      10    4fx2y            49.270190     538.758076
                                                         8.608625     -15.895429
                                                         2.987378       2.857166
                                                         0.930550       2.287038
                                                         0.322032       0.059050
                                                         0.113512       0.000782
                          2      10    4fx2z            49.270190     538.758076
                                                         8.608625     -15.895429
                                                         2.987378       2.857166
                                                         0.930550       2.287038
                                                         0.322032       0.059050
                                                         0.113512       0.000782
                          2      10    4fxy2            49.270190     538.758076
                                                         8.608625     -15.895429
                                                         2.987378       2.857166
                                                         0.930550       2.287038
                                                         0.322032       0.059050
                                                         0.113512       0.000782
                          2      10    4fxyz            49.270190     933.156361
                                                         8.608625     -27.531691
                                                         2.987378       4.948757
                                                         0.930550       3.961267
                                                         0.322032       0.102278
                                                         0.113512       0.001354
                          2      10    4fxz2            49.270190     538.758076
                                                         8.608625     -15.895429
                                                         2.987378       2.857166
                                                         0.930550       2.287038
                                                         0.322032       0.059050
                                                         0.113512       0.000782
                          2      10    4fy3             49.270190     240.939936
                                                         8.608625      -7.108652
                                                         2.987378       1.277764
                                                         0.930550       1.022795
                                                         0.322032       0.026408
                                                         0.113512       0.000350
                          2      10    4fy2z            49.270190     538.758076
                                                         8.608625     -15.895429
                                                         2.987378       2.857166
                                                         0.930550       2.287038
                                                         0.322032       0.059050
                                                         0.113512       0.000782
                          2      10    4fyz2            49.270190     538.758076
                                                         8.608625     -15.895429
                                                         2.987378       2.857166
                                                         0.930550       2.287038
                                                         0.322032       0.059050
                                                         0.113512       0.000782
                          2      10    4fz3             49.270190     240.939936
                                                         8.608625      -7.108652
                                                         2.987378       1.277764
                                                         0.930550       1.022795
                                                         0.322032       0.026408
                                                         0.113512       0.000350

       Atomic covalent radius [Angstrom]:                                  0.750

       Atomic van der Waals radius [Angstrom]:                             1.550

     The atoms of this atomic kind are PAW atoms (GAPW):
       Hard Gaussian function radius:                                      1.400
       Rho0 radius:                                                        1.400
       Maximum GTO radius used for PAW projector construction:            24.566

     GAPW Soft Basis Set                                TZVPP-MOLOPT-PBE-ae_soft

       Number of orbital shell sets:                                           2
       Number of orbital shells:                                              11
       Number of primitive Cartesian functions:                                4
       Number of Cartesian basis functions:                                   36
       Number of spherical basis functions:                                   31
       Norm type:                                                              2

       Normalised Cartesian orbitals:

                        Set   Shell   Orbital            Exponent    Coefficient

                          1       1    1s         

                          2       1    1s                2.987378       0.535699
                                                         0.930550      -0.061635
                                                         0.322032       0.036074
                                                         0.113512       0.014500

                          2       2    2s                2.987378       0.054918
                                                         0.930550       0.396674
                                                         0.322032       0.082974
                                                         0.113512       0.032692

                          2       3    3s                2.987378      -0.229943
                                                         0.930550      -0.408076
                                                         0.322032       0.306069
                                                         0.113512       0.047996

                          2       4    4s                2.987378       0.637930
                                                         0.930550      -0.188982
                                                         0.322032      -0.186943
                                                         0.113512       0.171213

                          2       5    2px               2.987378       1.750760
                                                         0.930550       0.811118
                                                         0.322032       0.040684
                                                         0.113512       0.006367
                          2       5    2py               2.987378       1.750760
                                                         0.930550       0.811118
                                                         0.322032       0.040684
                                                         0.113512       0.006367
                          2       5    2pz               2.987378       1.750760
                                                         0.930550       0.811118
                                                         0.322032       0.040684
                                                         0.113512       0.006367

                          2       6    3px               2.987378      -0.764833
                                                         0.930550      -0.153789
                                                         0.322032       0.344073
                                                         0.113512       0.011134
                          2       6    3py               2.987378      -0.764833
                                                         0.930550      -0.153789
                                                         0.322032       0.344073
                                                         0.113512       0.011134
                          2       6    3pz               2.987378      -0.764833
                                                         0.930550      -0.153789
                                                         0.322032       0.344073
                                                         0.113512       0.011134

                          2       7    4px               2.987378      -0.049280
                                                         0.930550      -0.121777
                                                         0.322032      -0.047567
                                                         0.113512       0.104427
                          2       7    4py               2.987378      -0.049280
                                                         0.930550      -0.121777
                                                         0.322032      -0.047567
                                                         0.113512       0.104427
                          2       7    4pz               2.987378      -0.049280
                                                         0.930550      -0.121777
                                                         0.322032      -0.047567
                                                         0.113512       0.104427

                          2       8    3dx2              2.987378       4.861216
                                                         0.930550       0.975526
                                                         0.322032       0.004138
                                                         0.113512       0.008426
                          2       8    3dxy              2.987378       8.419873
                                                         0.930550       1.689661
                                                         0.322032       0.007167
                                                         0.113512       0.014594
                          2       8    3dxz              2.987378       8.419873
                                                         0.930550       1.689661
                                                         0.322032       0.007167
                                                         0.113512       0.014594
                          2       8    3dy2              2.987378       4.861216
                                                         0.930550       0.975526
                                                         0.322032       0.004138
                                                         0.113512       0.008426
                          2       8    3dyz              2.987378       8.419873
                                                         0.930550       1.689661
                                                         0.322032       0.007167
                                                         0.113512       0.014594
                          2       8    3dz2              2.987378       4.861216
                                                         0.930550       0.975526
                                                         0.322032       0.004138
                                                         0.113512       0.008426

                          2       9    4dx2              2.987378      -3.348764
                                                         0.930550       0.469670
                                                         0.322032       0.207542
                                                         0.113512      -0.007657
                          2       9    4dxy              2.987378      -5.800229
                                                         0.930550       0.813493
                                                         0.322032       0.359472
                                                         0.113512      -0.013263
                          2       9    4dxz              2.987378      -5.800229
                                                         0.930550       0.813493
                                                         0.322032       0.359472
                                                         0.113512      -0.013263
                          2       9    4dy2              2.987378      -3.348764
                                                         0.930550       0.469670
                                                         0.322032       0.207542
                                                         0.113512      -0.007657
                          2       9    4dyz              2.987378      -5.800229
                                                         0.930550       0.813493
                                                         0.322032       0.359472
                                                         0.113512      -0.013263
                          2       9    4dz2              2.987378      -3.348764
                                                         0.930550       0.469670
                                                         0.322032       0.207542
                                                         0.113512      -0.007657

                          2      10    4fx3              2.987378       1.277764
                                                         0.930550       1.022795
                                                         0.322032       0.026408
                                                         0.113512       0.000350
                          2      10    4fx2y             2.987378       2.857166
                                                         0.930550       2.287038
                                                         0.322032       0.059050
                                                         0.113512       0.000782
                          2      10    4fx2z             2.987378       2.857166
                                                         0.930550       2.287038
                                                         0.322032       0.059050
                                                         0.113512       0.000782
                          2      10    4fxy2             2.987378       2.857166
                                                         0.930550       2.287038
                                                         0.322032       0.059050
                                                         0.113512       0.000782
                          2      10    4fxyz             2.987378       4.948757
                                                         0.930550       3.961267
                                                         0.322032       0.102278
                                                         0.113512       0.001354
                          2      10    4fxz2             2.987378       2.857166
                                                         0.930550       2.287038
                                                         0.322032       0.059050
                                                         0.113512       0.000782
                          2      10    4fy3              2.987378       1.277764
                                                         0.930550       1.022795
                                                         0.322032       0.026408
                                                         0.113512       0.000350
                          2      10    4fy2z             2.987378       2.857166
                                                         0.930550       2.287038
                                                         0.322032       0.059050
                                                         0.113512       0.000782
                          2      10    4fyz2             2.987378       2.857166
                                                         0.930550       2.287038
                                                         0.322032       0.059050
                                                         0.113512       0.000782
                          2      10    4fz3              2.987378       1.277764
                                                         0.930550       1.022795
                                                         0.322032       0.026408
                                                         0.113512       0.000350

     AE Potential information for                                            ALL

       Description:                                       All-electron potential
                                          Krack, Parrinello, PCCP 2, 2105 (2000)

       Gaussian exponent of the core charge distribution:               5.979100
       Electronic configuration (s p d ...):                           4   3   0


 MOLECULE KIND INFORMATION


 All atoms are their own molecule, skipping detailed information


 TOTAL NUMBERS AND MAXIMUM NUMBERS

  Total number of            - Atomic kinds:                                   2
                             - Atoms:                                          8
                             - Shell sets:                                    20
                             - Shells:                                       100
                             - Primitive Cartesian functions:                116
                             - Cartesian basis functions:                    336
                             - Spherical basis functions:                    292

  Maximum angular momentum of the orbital basis functions:                     3


 MODULE QUICKSTEP: ATOMIC COORDINATES IN ANGSTROM

   Atom Kind Element         X             Y             Z       Z(eff)     Mass
      1    1 Al   13      0.000000      0.000000      0.000000  13.0000  26.9815
      2    1 Al   13      0.000000      2.159459      2.159459  13.0000  26.9815
      3    1 Al   13      2.159459      0.000000      2.159459  13.0000  26.9815
      4    1 Al   13      2.159459      2.159459      0.000000  13.0000  26.9815
      5    2 N     7      1.079729      1.079729      1.079729   7.0000  14.0067
      6    2 N     7      1.079729      3.239188      3.239188   7.0000  14.0067
      7    2 N     7      3.239188      1.079729      3.239188   7.0000  14.0067
      8    2 N     7      3.239188      3.239188      1.079729   7.0000  14.0067



 SCF PARAMETERS         Density guess:                                    ATOMIC
                        --------------------------------------------------------
                        max_scf:                                             200
                        max_scf_history:                                       0
                        max_diis:                                              4
                        --------------------------------------------------------
                        eps_scf:                                        5.00E-06
                        eps_scf_history:                                0.00E+00
                        eps_diis:                                       1.00E-01
                        eps_eigval:                                     1.00E-05
                        --------------------------------------------------------
                        level_shift [a.u.]:                             0.000000
                        --------------------------------------------------------
                        Mixing method:                           DIRECT_P_MIXING
                        --------------------------------------------------------
                        Outer loop SCF in use 
                        No variables optimised in outer loop
                        eps_scf                                         5.00E-06
                        max_scf                                                5
                        No outer loop optimization
                        step_size                                       5.00E-01

 PW_GRID| Information for grid number                                          1
 PW_GRID| Cutoff [a.u.]                                                    400.0
 PW_GRID| spherical cutoff:                                                   NO
 PW_GRID|   Bounds   1            -37      37                Points:          75
 PW_GRID|   Bounds   2            -37      37                Points:          75
 PW_GRID|   Bounds   3            -37      37                Points:          75
 PW_GRID| Volume element (a.u.^3)  0.1289E-02     Volume (a.u.^3)       543.6523
 PW_GRID| Grid span                                                    FULLSPACE

 PW_GRID| Information for grid number                                          2
 PW_GRID| Number of the reference grid                                         1
 PW_GRID| Cutoff [a.u.]                                                    133.3
 PW_GRID| spherical cutoff:                                                   NO
 PW_GRID|   Bounds   1            -22      22                Points:          45
 PW_GRID|   Bounds   2            -22      22                Points:          45
 PW_GRID|   Bounds   3            -22      22                Points:          45
 PW_GRID| Volume element (a.u.^3)  0.5966E-02     Volume (a.u.^3)       543.6523
 PW_GRID| Grid span                                                    FULLSPACE

 PW_GRID| Information for grid number                                          3
 PW_GRID| Number of the reference grid                                         1
 PW_GRID| Cutoff [a.u.]                                                     44.4
 PW_GRID| spherical cutoff:                                                   NO
 PW_GRID|   Bounds   1            -12      12                Points:          25
 PW_GRID|   Bounds   2            -12      12                Points:          25
 PW_GRID|   Bounds   3            -12      12                Points:          25
 PW_GRID| Volume element (a.u.^3)  0.3479E-01     Volume (a.u.^3)       543.6523
 PW_GRID| Grid span                                                    FULLSPACE

 PW_GRID| Information for grid number                                          4
 PW_GRID| Number of the reference grid                                         1
 PW_GRID| Cutoff [a.u.]                                                     14.8
 PW_GRID| spherical cutoff:                                                   NO
 PW_GRID|   Bounds   1             -7       7                Points:          15
 PW_GRID|   Bounds   2             -7       7                Points:          15
 PW_GRID|   Bounds   3             -7       7                Points:          15
 PW_GRID| Volume element (a.u.^3)  0.1611         Volume (a.u.^3)       543.6523
 PW_GRID| Grid span                                                    FULLSPACE

 PW_GRID| Information for grid number                                          5
 PW_GRID| Number of the reference grid                                         1
 PW_GRID| Cutoff [a.u.]                                                      4.9
 PW_GRID| spherical cutoff:                                                   NO
 PW_GRID|   Bounds   1             -4       4                Points:           9
 PW_GRID|   Bounds   2             -4       4                Points:           9
 PW_GRID|   Bounds   3             -4       4                Points:           9
 PW_GRID| Volume element (a.u.^3)  0.7458         Volume (a.u.^3)       543.6523
 PW_GRID| Grid span                                                    FULLSPACE

 POISSON| Solver                                                        PERIODIC
 POISSON| Periodicity                                                        XYZ

 RS_GRID| Information for grid number                                          1
 RS_GRID|   Bounds   1            -37      37                Points:          75
 RS_GRID|   Bounds   2            -37      37                Points:          75
 RS_GRID|   Bounds   3            -37      37                Points:          75

 RS_GRID| Information for grid number                                          2
 RS_GRID|   Bounds   1            -22      22                Points:          45
 RS_GRID|   Bounds   2            -22      22                Points:          45
 RS_GRID|   Bounds   3            -22      22                Points:          45

 RS_GRID| Information for grid number                                          3
 RS_GRID|   Bounds   1            -12      12                Points:          25
 RS_GRID|   Bounds   2            -12      12                Points:          25
 RS_GRID|   Bounds   3            -12      12                Points:          25

 RS_GRID| Information for grid number                                          4
 RS_GRID|   Bounds   1             -7       7                Points:          15
 RS_GRID|   Bounds   2             -7       7                Points:          15
 RS_GRID|   Bounds   3             -7       7                Points:          15

 RS_GRID| Information for grid number                                          5
 RS_GRID|   Bounds   1             -4       4                Points:           9
 RS_GRID|   Bounds   2             -4       4                Points:           9
 RS_GRID|   Bounds   3             -4       4                Points:           9

 *******************************************************************************
                                    Kpoints
 *******************************************************************************
 BRILLOUIN| K-point scheme                                        Monkhorst-Pack
 BRILLOUIN| K-Point grid                                             5    5    5
 BRILLOUIN| Gamma-centered k-point mesh                                     ON
 BRILLOUIN| K-point symmetry accuracy                               0.100000E-07
 BRILLOUIN| K-Point point group symmetrization                                ON
 BRILLOUIN| Symmetry backend                                               K290
 BRILLOUIN| Symmetry reduction method                                      K290
 BRILLOUIN| Wavefunction type                                            COMPLEX
 BRILLOUIN| List of Kpoints [2 Pi/Bohr]                                       10
 BRILLOUIN| Number           Weight            X              Y              Z
 BRILLOUIN|     1           0.06400       -0.40000       -0.40000       -0.40000
 BRILLOUIN|     2           0.19200       -0.40000       -0.40000       -0.20000
 BRILLOUIN|     3           0.09600       -0.40000       -0.40000        0.00000
 BRILLOUIN|     4           0.19200       -0.40000       -0.20000       -0.20000
 BRILLOUIN|     5           0.19200       -0.40000       -0.20000        0.00000
 BRILLOUIN|     6           0.04800       -0.40000        0.00000        0.00000
 BRILLOUIN|     7           0.06400       -0.20000       -0.20000       -0.20000
 BRILLOUIN|     8           0.09600       -0.20000       -0.20000        0.00000
 BRILLOUIN|     9           0.04800       -0.20000        0.00000        0.00000
 BRILLOUIN|    10           0.00800        0.00000        0.00000        0.00000
 *******************************************************************************

 Extrapolation method: initial_guess

 Atomic guess: The first density matrix is obtained in terms of atomic orbitals
               and electronic configurations assigned to each atomic kind

 Guess for atomic kind: Al

 Electronic structure
    Total number of core electrons                                          0.00
    Total number of valence electrons                                      13.00
    Total number of electrons                                              13.00
    Multiplicity                                                   not specified
    S      2.00  2.00  2.00
    P      6.00  1.00


 *******************************************************************************
                  Iteration          Convergence                     Energy [au]
 *******************************************************************************
                          1         1.12843                    -241.231202775627
                          2        0.716925                    -241.268666942577
                          3        0.492387E-02                -241.298256238337
                          4        0.383310E-02                -241.298290273318
                          5        0.238864E-04                -241.298298129914
                          6        0.189694E-06                -241.298298130670

 Energy components [Hartree]           Total Energy ::         -241.298298130670
                                        Band Energy ::         -134.145169422527
                                     Kinetic Energy ::          241.377314744803
                                   Potential Energy ::         -482.675612875473
                                      Virial (-V/T) ::            1.999672642749
                                        Core Energy ::         -336.592850635022
                                          XC Energy ::          -17.462347672753
                                     Coulomb Energy ::          112.756900177105

 Orbital energies  State     L     Occupation   Energy[a.u.]          Energy[eV]

                       1     0          2.000     -55.138816        -1500.403497
                       2     0          2.000      -3.928355         -106.895975
                       3     0          2.000      -0.282403           -7.684577

                       1     1          6.000      -2.557994          -69.606543
                       2     1          1.000      -0.098060           -2.668338


 Total Electron Density at R=0:                                      1349.331676

 Guess for atomic kind: N

 Electronic structure
    Total number of core electrons                                          0.00
    Total number of valence electrons                                       7.00
    Total number of electrons                                               7.00
    Multiplicity                                                   not specified
    S      2.00  2.00
    P      3.00


 *******************************************************************************
                  Iteration          Convergence                     Energy [au]
 *******************************************************************************
                          1        0.388374                     -53.972199509139
                          2        0.353293                     -53.976990897687
                          3        0.163616E-01                 -54.014551313244
                          4        0.500667E-03                 -54.014632721368
                          5        0.432519E-04                 -54.014632788190
                          6        0.221961E-06                 -54.014632788722

 Energy components [Hartree]           Total Energy ::          -54.014632788722
                                        Band Energy ::          -30.202432646837
                                     Kinetic Energy ::           53.701411266150
                                   Potential Energy ::         -107.716044054872
                                      Virial (-V/T) ::            2.005832649742
                                        Core Energy ::          -73.642211071888
                                          XC Energy ::           -6.131041439843
                                     Coulomb Energy ::           25.758619723010

 Orbital energies  State     L     Occupation   Energy[a.u.]          Energy[eV]

                       1     0          2.000     -14.018319         -381.457848
                       2     0          2.000      -0.679727          -18.496319

                       1     1          3.000      -0.268780           -7.313885


 Total Electron Density at R=0:                                       197.125592
 Re-scaling the density matrix to get the right number of electrons
                  # Electrons              Trace(P)               Scaling factor
                           80                80.000                        1.000

 Number of electrons:                                                         80
 Number of occupied orbitals:                                                 40
 Number of molecular orbitals:                                                40

 Number of orbital functions:                                                292
 Number of independent orbital functions:                                    292


 SCF WAVEFUNCTION OPTIMIZATION

  Step     Update method      Time    Convergence         Total energy    Change
  ------------------------------------------------------------------------------

 *** WARNING in qs_ks_methods.F:773 :: Native SKALA grid evaluation with   ***
 *** k-points is using the CPU TorchScript path. Use a mutually compatible ***
 *** BLAS, ScaLAPACK, OpenMP, and LibTorch runtime stack, or select        ***
 *** NATIVE_GRID_USE_CUDA T.                                               ***

 SKALA_GPW| Atom-composite cross support/maxima   2.797827671472E+00   3.483289240772E+02   6.315619432989E+03   2.990919135360E+04
 SKALA_GPW| Active atom-composite XC energy  -1.0220587629519383E+02
 SKALA_GPW| Active atom-composite electrons   8.0053326901436350E+01
 SKALA_GPW| Active atom-composite density range   7.6719589966521579E-03   6.7466904315256886E+02
 SKALA_GPW| Active atom-composite tau range   2.6223284964194608E-03   5.8971742103296659E+04
 SKALA_GPW| Active atom-composite tau integral   1.1803376679604326E+03
 SKALA_GPW| Active atom-composite max gradient   1.6959667774365902E+04
     1 P_Mix/Diag. 0.10E+00  910.5     0.94278345     -1192.1494196804 -1.19E+03
 SKALA_GPW| Atom-composite cross support/maxima   2.797827671472E+00   3.483126248450E+02   6.314850292823E+03   2.990442911642E+04
 SKALA_GPW| Active atom-composite XC energy  -1.0238849146633163E+02
 SKALA_GPW| Active atom-composite electrons   8.0050879548777090E+01
 SKALA_GPW| Active atom-composite density range   7.1905972077947744E-03   6.7460157257129129E+02
 SKALA_GPW| Active atom-composite tau range   2.5822157951091093E-03   5.8958513239981163E+04
 SKALA_GPW| Active atom-composite tau integral   1.1817214051891890E+03
 SKALA_GPW| Active atom-composite max gradient   1.6956785849111449E+04
     2 P_Mix/Diag. 0.10E+00  843.7     0.83592352     -1191.9043442443  2.45E-01
 SKALA_GPW| Atom-composite cross support/maxima   2.797827671472E+00   3.483022292987E+02   6.314241734119E+03   2.990071371513E+04
 SKALA_GPW| Active atom-composite XC energy  -1.0253798334332207E+02
 SKALA_GPW| Active atom-composite electrons   8.0048847162720747E+01
 SKALA_GPW| Active atom-composite density range   6.7765978370874233E-03   6.7454951222504883E+02
 SKALA_GPW| Active atom-composite tau range   2.4839520621846183E-03   5.8947520829322879E+04
 SKALA_GPW| Active atom-composite tau integral   1.1828027959349517E+03
 SKALA_GPW| Active atom-composite max gradient   1.6954409306651694E+04
     3 P_Mix/Diag. 0.10E+00  852.4     0.74205065     -1191.6740092280  2.30E-01
 SKALA_GPW| Atom-composite cross support/maxima   2.797827671472E+00   3.482960884004E+02   6.313758693009E+03   2.989780318520E+04
 SKALA_GPW| Active atom-composite XC energy  -1.0265990800607673E+02
 SKALA_GPW| Active atom-composite electrons   8.0047148639319872E+01
 SKALA_GPW| Active atom-composite density range   6.4195693706343600E-03   6.7450930430481344E+02
 SKALA_GPW| Active atom-composite tau range   2.4076822064615427E-03   5.8938340298360308E+04
 SKALA_GPW| Active atom-composite tau integral   1.1836531662329974E+03
 SKALA_GPW| Active atom-composite max gradient   1.6952440871101022E+04
     4 P_Mix/Diag. 0.10E+00  851.5     0.66068873     -1191.4615574059  2.12E-01
 SKALA_GPW| Atom-composite cross support/maxima   2.797827671472E+00   3.482929097011E+02   6.313372599533E+03   2.989550550432E+04
 SKALA_GPW| Active atom-composite XC energy  -1.0275873221789843E+02
 SKALA_GPW| Active atom-composite electrons   8.0045724385757879E+01
 SKALA_GPW| Active atom-composite density range   6.1120106389554773E-03   6.7447808123004552E+02
 SKALA_GPW| Active atom-composite tau range   2.3489392580213300E-03   5.8930623923620973E+04
 SKALA_GPW| Active atom-composite tau integral   1.1843244913935187E+03
 SKALA_GPW| Active atom-composite max gradient   1.6950799819166929E+04
     5 P_Mix/Diag. 0.10E+00  844.3     0.59077883     -1191.2674139081  1.94E-01
 SKALA_GPW| Atom-composite cross support/maxima   2.797827671472E+00   3.482916912082E+02   6.313060310391E+03   2.989367033069E+04
 SKALA_GPW| Active atom-composite XC energy  -1.0283780430771596E+02
 SKALA_GPW| Active atom-composite electrons   8.0044535367083952E+01
 SKALA_GPW| Active atom-composite density range   5.8484196012253192E-03   6.7445354788536940E+02
 SKALA_GPW| Active atom-composite tau range   2.3047753915495903E-03   5.8924086008080165E+04
 SKALA_GPW| Active atom-composite tau integral   1.1848541231518057E+03
 SKALA_GPW| Active atom-composite max gradient   1.6949419971060372E+04
     6 P_Mix/Diag. 0.10E+00  851.6     0.52950122     -1191.0907395600  1.77E-01
 SKALA_GPW| Atom-composite cross support/maxima   2.797827671472E+00   3.482917253657E+02   6.312804654064E+03   2.989218560155E+04
 SKALA_GPW| Active atom-composite XC energy  -1.0290059452520873E+02
 SKALA_GPW| Active atom-composite electrons   8.0043546582433009E+01
 SKALA_GPW| Active atom-composite density range   5.6227771075949874E-03   6.7443401489921951E+02
 SKALA_GPW| Active atom-composite tau range   2.2726898697542600E-03   5.8918503609995409E+04
 SKALA_GPW| Active atom-composite tau integral   1.1852719919082729E+03
 SKALA_GPW| Active atom-composite max gradient   1.6948249610452145E+04
     7 P_Mix/Diag. 0.10E+00  856.1     0.47391148     -1190.9305876803  1.60E-01
 SKALA_GPW| Atom-composite cross support/maxima   2.797827671472E+00   3.482925827567E+02   6.312594176092E+03   2.989097218750E+04
 SKALA_GPW| Active atom-composite XC energy  -1.0295091124789634E+02
 SKALA_GPW| Active atom-composite electrons   8.0042715473718872E+01
 SKALA_GPW| Active atom-composite density range   5.4279083960737601E-03   6.7441838301440634E+02
 SKALA_GPW| Active atom-composite tau range   2.2496887063646288E-03   5.8913713356661006E+04
 SKALA_GPW| Active atom-composite tau integral   1.1856047033571508E+03
 SKALA_GPW| Active atom-composite max gradient   1.6947252591168857E+04
     8 P_Mix/Diag. 0.10E+00  851.4     0.42366603     -1190.7859282548  1.45E-01
 SKALA_GPW| Atom-composite cross support/maxima   2.797827671472E+00   3.482939659516E+02   6.312419929707E+03   2.988996930369E+04
 SKALA_GPW| Active atom-composite XC energy  -1.0299175731258403E+02
 SKALA_GPW| Active atom-composite electrons   8.0042007141730721E+01
 SKALA_GPW| Active atom-composite density range   5.2581937160254373E-03   6.7440579289219261E+02
 SKALA_GPW| Active atom-composite tau range   2.2332604118065298E-03   5.8909582174914322E+04
 SKALA_GPW| Active atom-composite tau integral   1.1858723469359186E+03
 SKALA_GPW| Active atom-composite max gradient   1.6946399847887529E+04
     9 P_Mix/Diag. 0.10E+00  841.7     0.37872167     -1190.6555434506  1.30E-01
 SKALA_GPW| Atom-composite cross support/maxima   2.797827671472E+00   3.482956657038E+02   6.312275233319E+03   2.988913529772E+04
 SKALA_GPW| Active atom-composite XC energy  -1.0302526974163902E+02
 SKALA_GPW| Active atom-composite electrons   8.0041397589433330E+01
 SKALA_GPW| Active atom-composite density range   5.1095848447176391E-03   6.7439562560780689E+02
 SKALA_GPW| Active atom-composite tau range   2.2216490713129092E-03   5.8906010397047467E+04
 SKALA_GPW| Active atom-composite tau integral   1.1860897307956245E+03
 SKALA_GPW| Active atom-composite max gradient   1.6945668907964351E+04
    10 P_Mix/Diag. 0.10E+00  856.2     0.33875391     -1190.5381336445  1.17E-01
 SKALA_GPW| Atom-composite cross support/maxima   2.797827671472E+00   3.482975131159E+02   6.312154261903E+03   2.988843410766E+04
 SKALA_GPW| Active atom-composite XC energy  -1.0305292867829044E+02
 SKALA_GPW| Active atom-composite electrons   8.0040870230756468E+01
 SKALA_GPW| Active atom-composite density range   4.9790542150816609E-03   6.7438734724224605E+02
 SKALA_GPW| Active atom-composite tau range   2.2136714827666313E-03   5.8902908856080263E+04
 SKALA_GPW| Active atom-composite tau integral   1.1862673305987616E+03
 SKALA_GPW| Active atom-composite max gradient   1.6945039727897496E+04
    11 P_Mix/Diag. 0.10E+00  847.2     0.30322323     -1190.4324383178  1.06E-01
 SKALA_GPW| Atom-composite cross support/maxima   2.797827671472E+00   3.482993919931E+02   6.312052388508E+03   2.988783805930E+04
 SKALA_GPW| Active atom-composite XC energy  -1.0307585739822949E+02
 SKALA_GPW| Active atom-composite electrons   8.0040412482112615E+01
 SKALA_GPW| Active atom-composite density range   4.8641306440902199E-03   6.7438054278189145E+02
 SKALA_GPW| Active atom-composite tau range   2.2084709619944109E-03   5.8900204505387985E+04
 SKALA_GPW| Active atom-composite tau integral   1.1864131153257476E+03
 SKALA_GPW| Active atom-composite max gradient   1.6944495846965972E+04
    12 P_Mix/Diag. 0.10E+00  853.4     0.27161240     -1190.3372965547  9.51E-02
 SKALA_GPW| Atom-composite cross support/maxima   2.797827671472E+00   3.483012238923E+02   6.311965953287E+03   2.988732584689E+04
 SKALA_GPW| Active atom-composite XC energy  -1.0309494670547807E+02
 SKALA_GPW| Active atom-composite electrons   8.0040014150840761E+01
 SKALA_GPW| Active atom-composite density range   4.7627316383655567E-03   6.7437489131067025E+02
 SKALA_GPW| Active atom-composite tau range   2.2053934843385406E-03   5.8897837294773861E+04
 SKALA_GPW| Active atom-composite tau integral   1.1865333004629135E+03
 SKALA_GPW| Active atom-composite max gradient   1.6944023764148060E+04
    13 P_Mix/Diag. 0.10E+00  852.6     0.24346630     -1190.2516592105  8.56E-02
 SKALA_GPW| Atom-composite cross support/maxima   2.797827671472E+00   3.483029576463E+02   6.311892052387E+03   2.988688091823E+04
 SKALA_GPW| Active atom-composite XC energy  -1.0311091130094978E+02
 SKALA_GPW| Active atom-composite electrons   8.0039666701395390E+01
 SKALA_GPW| Active atom-composite density range   4.6730862713978711E-03   6.7437014411297366E+02
 SKALA_GPW| Active atom-composite tau range   2.2039244142589573E-03   5.8895757476369501E+04
 SKALA_GPW| Active atom-composite tau integral   1.1866327906377842E+03
 SKALA_GPW| Active atom-composite max gradient   1.6943612355088935E+04
    14 P_Mix/Diag. 0.10E+00  847.5     0.21838604     -1190.1745784947  7.71E-02
 SKALA_GPW| Atom-composite cross support/maxima   2.797827671472E+00   3.483045622210E+02   6.311828385157E+03   2.988649044279E+04
 SKALA_GPW| Active atom-composite XC energy  -1.0312433205455002E+02
 SKALA_GPW| Active atom-composite electrons   8.0039362898537746E+01
 SKALA_GPW| Active atom-composite density range   4.5936841303074964E-03   6.7436610922775992E+02
 SKALA_GPW| Active atom-composite tau range   2.2036541060632803E-03   5.8893923785308602E+04
 SKALA_GPW| Active atom-composite tau integral   1.1867154866179624E+03
 SKALA_GPW| Active atom-composite max gradient   1.6943252449230837E+04
    15 P_Mix/Diag. 0.10E+00  847.6     0.19602037     -1190.1052037081  6.94E-02
 SKALA_GPW| Atom-composite cross support/maxima   2.797827671472E+00   3.483060212706E+02   6.311773129679E+03   2.988614450182E+04
 SKALA_GPW| Active atom-composite XC energy  -1.0313567595892017E+02
 SKALA_GPW| Active atom-composite electrons   8.0039096599575188E+01
 SKALA_GPW| Active atom-composite density range   4.5232349890172840E-03   6.7436263906972704E+02
 SKALA_GPW| Active atom-composite tau range   2.2042571526006819E-03   5.8892301926505112E+04
 SKALA_GPW| Active atom-composite tau integral   1.1867845041367950E+03
 SKALA_GPW| Active atom-composite max gradient   1.6942936474231992E+04
    16 P_Mix/Diag. 0.10E+00  848.0     0.17605876     -1190.0427661573  6.24E-02
 SKALA_GPW| Atom-composite cross support/maxima   2.797827671472E+00   3.483073289238E+02   6.311724841477E+03   2.988583543552E+04
 SKALA_GPW| Active atom-composite XC energy  -1.0314532080504196E+02
 SKALA_GPW| Active atom-composite electrons   8.0038862598299474E+01
 SKALA_GPW| Active atom-composite density range   4.4606342614725587E-03   6.7435962045508109E+02
 SKALA_GPW| Active atom-composite tau range   2.2054774606720100E-03   5.8890863305153565E+04
 SKALA_GPW| Active atom-composite tau integral   1.1868423387482592E+03
 SKALA_GPW| Active atom-composite max gradient   1.6942658159006838E+04
    17 P_Mix/Diag. 0.10E+00  834.5     0.15822660     -1189.9865750972  5.62E-02
 SKALA_GPW| Atom-composite cross support/maxima   2.797827671472E+00   3.483084865921E+02   6.311682372850E+03   2.988555732508E+04
 SKALA_GPW| Active atom-composite XC energy  -1.0315357010676900E+02
 SKALA_GPW| Active atom-composite electrons   8.0038656489004339E+01
 SKALA_GPW| Active atom-composite density range   4.3800061159366011E-03   6.7435696674126302E+02
 SKALA_GPW| Active atom-composite tau range   2.2071160307058127E-03   5.8889583981200652E+04
 SKALA_GPW| Active atom-composite tau integral   1.1868909941863672E+03
 SKALA_GPW| Active atom-composite max gradient   1.6942412289903328E+04
    18 P_Mix/Diag. 0.10E+00  845.4     0.14228142     -1189.9360081510  5.06E-02
 SKALA_GPW| Atom-composite cross support/maxima   2.797827671472E+00   3.483095005553E+02   6.311644808569E+03   2.988530558273E+04
 SKALA_GPW| Active atom-composite XC energy  -1.0316066595187256E+02
 SKALA_GPW| Active atom-composite electrons   8.0038474543880085E+01
 SKALA_GPW| Active atom-composite density range   4.3058675631819686E-03   6.7435461161780245E+02
 SKALA_GPW| Active atom-composite tau range   2.2090203472785752E-03   5.8888443810144505E+04
 SKALA_GPW| Active atom-composite tau integral   1.1869320840091100E+03
 SKALA_GPW| Active atom-composite max gradient   1.6942194512840339E+04
    19 P_Mix/Diag. 0.10E+00  864.3     0.12800968     -1189.8905030871  4.55E-02
 SKALA_GPW| Atom-composite cross support/maxima   2.797827671472E+00   3.483103801312E+02   6.311611414855E+03   2.988507662785E+04
 SKALA_GPW| Active atom-composite XC energy  -1.0316680375275784E+02
 SKALA_GPW| Active atom-composite electrons   8.0038313604172998E+01
 SKALA_GPW| Active atom-composite density range   4.2397580765347774E-03   6.7435250422806098E+02
 SKALA_GPW| Active atom-composite tau range   2.2110751032096911E-03   5.8887425742835578E+04
 SKALA_GPW| Active atom-composite tau integral   1.1869669114774047E+03
 SKALA_GPW| Active atom-composite max gradient   1.6942001172112978E+04
    20 P_Mix/Diag. 0.10E+00  841.3     0.11522359     -1189.8495545904  4.09E-02
 SKALA_GPW| Atom-composite cross support/maxima   2.797827671472E+00   3.483111363500E+02   6.311581599469E+03   2.988486763799E+04
 SKALA_GPW| Active atom-composite XC energy  -1.0317214027577923E+02
 SKALA_GPW| Active atom-composite electrons   8.0038170985955517E+01
 SKALA_GPW| Active atom-composite density range   4.1807578245483725E-03   6.7435060540732661E+02
 SKALA_GPW| Active atom-composite tau range   2.2131953858196703E-03   5.8886515259081636E+04
 SKALA_GPW| Active atom-composite tau integral   1.1869965332630925E+03
 SKALA_GPW| Active atom-composite max gradient   1.6941829180546018E+04
    21 P_Mix/Diag. 0.10E+00  833.0     0.10375816     -1189.8127070274  3.68E-02
 SKALA_GPW| Atom-composite cross support/maxima   2.797827671472E+00   3.483117809962E+02   6.311554880622E+03   2.988467635809E+04
 SKALA_GPW| Active atom-composite XC energy  -1.0317680151156378E+02
 SKALA_GPW| Active atom-composite electrons   8.0038044400379391E+01
 SKALA_GPW| Active atom-composite density range   4.1280617655732859E-03   6.7434888479304936E+02
 SKALA_GPW| Active atom-composite tau range   2.2153190792244155E-03   5.8885699914300960E+04
 SKALA_GPW| Active atom-composite tau integral   1.1870218093917451E+03
 SKALA_GPW| Active atom-composite max gradient   1.6941675915762433E+04
    22 P_Mix/Diag. 0.10E+00  837.0     0.09346836     -1189.7795494820  3.32E-02
 SKALA_GPW| Atom-composite cross support/maxima   2.797827671472E+00   3.483123259346E+02   6.311530862829E+03   2.988450095741E+04
 SKALA_GPW| Active atom-composite XC energy  -1.0318089092169527E+02
 SKALA_GPW| Active atom-composite electrons   8.0037931887299635E+01
 SKALA_GPW| Active atom-composite density range   4.0809642452672651E-03   6.7434731862149204E+02
 SKALA_GPW| Active atom-composite tau range   2.2174020231037987E-03   5.8884968978427118E+04
 SKALA_GPW| Active atom-composite tau integral   1.1870434428734197E+03
 SKALA_GPW| Active atom-composite max gradient   1.6941539137238156E+04
    23 DIIS/Diag.  0.76E-04  846.1     0.08569240     -1189.7497132297  2.98E-02
 SKALA_GPW| Atom-composite cross support/maxima   2.797827671472E+00   3.483137968613E+02   6.311299372220E+03   2.988258390902E+04
 SKALA_GPW| Active atom-composite XC energy  -1.0321426955941598E+02
 SKALA_GPW| Active atom-composite electrons   8.0036986897963985E+01
 SKALA_GPW| Active atom-composite density range   3.6743893940689811E-03   6.7433017267865569E+02
 SKALA_GPW| Active atom-composite tau range   2.2441361172134957E-03   5.8878430959935351E+04
 SKALA_GPW| Active atom-composite tau integral   1.1871825978308696E+03
 SKALA_GPW| Active atom-composite max gradient   1.6940348167421675E+04
    24 DIIS/Diag.  0.21E-03  836.1     0.00192329     -1189.4815296420  2.68E-01
 SKALA_GPW| Atom-composite cross support/maxima   2.797827671472E+00   3.483150496267E+02   6.311310523656E+03   2.988270311784E+04
 SKALA_GPW| Active atom-composite XC energy  -1.0321318588262669E+02
 SKALA_GPW| Active atom-composite electrons   8.0036983747650055E+01
 SKALA_GPW| Active atom-composite density range   3.6725796188088740E-03   6.7433167706846120E+02
 SKALA_GPW| Active atom-composite tau range   2.2440317744316274E-03   5.8878471892499023E+04
 SKALA_GPW| Active atom-composite tau integral   1.1871848113663350E+03
 SKALA_GPW| Active atom-composite max gradient   1.6940354689902779E+04
    25 DIIS/Diag.  0.18E-02  846.4     0.00052257     -1189.4815164669  1.32E-05
 SKALA_GPW| Atom-composite cross support/maxima   2.797827671472E+00   3.483155693131E+02   6.311315380354E+03   2.988276449365E+04
 SKALA_GPW| Active atom-composite XC energy  -1.0321287623447523E+02
 SKALA_GPW| Active atom-composite electrons   8.0036983500850042E+01
 SKALA_GPW| Active atom-composite density range   3.6721319336017570E-03   6.7433233606848023E+02
 SKALA_GPW| Active atom-composite tau range   2.2439875307558223E-03   5.8878510630701516E+04
 SKALA_GPW| Active atom-composite tau integral   1.1871868501241527E+03
 SKALA_GPW| Active atom-composite max gradient   1.6940359580418848E+04
    26 DIIS/Diag.  0.25E-02  840.6     0.00226734     -1189.4815110075  5.46E-06
 SKALA_GPW| Atom-composite cross support/maxima   2.797827671472E+00   3.483165710840E+02   6.311314033489E+03   2.988287335968E+04
 SKALA_GPW| Active atom-composite XC energy  -1.0321729764775255E+02
 SKALA_GPW| Active atom-composite electrons   8.0036941722958531E+01
 SKALA_GPW| Active atom-composite density range   3.6624745827910144E-03   6.7433282641445919E+02
 SKALA_GPW| Active atom-composite tau range   2.2387399583277397E-03   5.8878449387632041E+04
 SKALA_GPW| Active atom-composite tau integral   1.1872227237116613E+03
 SKALA_GPW| Active atom-composite max gradient   1.6940326388115391E+04
    27 DIIS/Diag.  0.47E-02  854.6     0.00590289     -1189.4814929075  1.81E-05
 SKALA_GPW| Atom-composite cross support/maxima   2.797827671472E+00   3.483139822277E+02   6.311301897328E+03   2.988266390365E+04
 SKALA_GPW| Active atom-composite XC energy  -1.0321521390598899E+02
 SKALA_GPW| Active atom-composite electrons   8.0036989479669160E+01
 SKALA_GPW| Active atom-composite density range   3.6750348829987533E-03   6.7433055963371407E+02
 SKALA_GPW| Active atom-composite tau range   2.2440549355045966E-03   5.8878546221070916E+04
 SKALA_GPW| Active atom-composite tau integral   1.1871913436498353E+03
 SKALA_GPW| Active atom-composite max gradient   1.6940359287497373E+04
    28 DIIS/Diag.  0.13E-04  849.7     0.00013719     -1189.4815316767 -3.88E-05
 SKALA_GPW| Atom-composite cross support/maxima   2.797827671472E+00   3.483134794617E+02   6.311296179751E+03   2.988258420013E+04
 SKALA_GPW| Active atom-composite XC energy  -1.0321497878489470E+02
 SKALA_GPW| Active atom-composite electrons   8.0036986734250775E+01
 SKALA_GPW| Active atom-composite density range   3.6744718860635133E-03   6.7432981606195210E+02
 SKALA_GPW| Active atom-composite tau range   2.2437628028668145E-03   5.8878464734733461E+04
 SKALA_GPW| Active atom-composite tau integral   1.1871840597994501E+03
 SKALA_GPW| Active atom-composite max gradient   1.6940348346474046E+04
    29 DIIS/Diag.  0.66E-05  858.9     0.00005361     -1189.4815316558  2.10E-08
 SKALA_GPW| Atom-composite cross support/maxima   2.797827671472E+00   3.483136643235E+02   6.311298384258E+03   2.988261391624E+04
 SKALA_GPW| Active atom-composite XC energy  -1.0321496071427056E+02
 SKALA_GPW| Active atom-composite electrons   8.0036988590146862E+01
 SKALA_GPW| Active atom-composite density range   3.6748444104270669E-03   6.7433009735130884E+02
 SKALA_GPW| Active atom-composite tau range   2.2439575886422534E-03   5.8878496535004444E+04
 SKALA_GPW| Active atom-composite tau integral   1.1871860841562134E+03
 SKALA_GPW| Active atom-composite max gradient   1.6940352813207712E+04
    30 DIIS/Diag.  0.59E-07  843.9     0.00000753     -1189.4815316064  4.94E-08
 SKALA_GPW| Atom-composite cross support/maxima   2.797827671472E+00   3.483136644434E+02   6.311298337999E+03   2.988261410822E+04
 SKALA_GPW| Active atom-composite XC energy  -1.0321500635949799E+02
 SKALA_GPW| Active atom-composite electrons   8.0036988294767738E+01
 SKALA_GPW| Active atom-composite density range   3.6747883728031616E-03   6.7433009437772921E+02
 SKALA_GPW| Active atom-composite tau range   2.2439288275135608E-03   5.8878496303875669E+04
 SKALA_GPW| Active atom-composite tau integral   1.1871864108151792E+03
 SKALA_GPW| Active atom-composite max gradient   1.6940352650611734E+04
    31 DIIS/Diag.  0.39E-08  841.7     0.00000159     -1189.4815315935  1.29E-08

  *** SCF run converged in    31 steps ***


  Electronic density on regular grids:        -43.0582360182       36.9417639818
  Core density on regular grids:               80.0000000000        0.0000000000
  Hard and soft densities (Lebedev):         -365.7027059035     -328.7609418140
  Total Rho_soft + Rho1_hard - Rho1_soft      -80.0000001078
  Total charge density (r-space):              -0.0000001078
  Total Rho_soft + Rho0_soft (g-space):        -0.0000001195

  Overlap energy of the core charge distribution:               0.00000001617021
  Self energy of the core charge distribution:               -614.96737194860873
  Core Hamiltonian energy:                                   -559.77020696518650
  Hartree energy:                                             114.76737932335992
  Exchange-correlation energy:                                  0.00000000000000
  Dispersion energy:                                           -0.15142277974175

  GAPW| Exc from hard and soft atomic rho1:                  -103.21500635949799
  GAPW| local Eh = 1 center integrals:                        -26.14490287995731

  Total energy:                                             -1189.48153159346225

  outer SCF iter =    1 RMS gradient =   0.00E+00 energy =      -1189.4815315935
  outer SCF loop converged in   1 iterations or   31 steps


 !-----------------------------------------------------------------------------!
                     Mulliken Population Analysis

 #  Atom  Element  Kind  Atomic population                           Net charge
       1     Al       1         11.497241                              1.502759
       2     Al       1         11.489982                              1.510018
       3     Al       1         11.489982                              1.510018
       4     Al       1         11.489983                              1.510017
       5     N        2          8.508277                             -1.508277
       6     N        2          8.508171                             -1.508171
       7     N        2          8.508193                             -1.508193
       8     N        2          8.508171                             -1.508171
 # Total charge                             80.000000                  0.000000

 !-----------------------------------------------------------------------------!

 !-----------------------------------------------------------------------------!
                           Hirshfeld Charges

  #Atom  Element  Kind  Ref Charge     Population                    Net charge
      1       Al     1      13.000         13.508                        -0.508
      2       Al     1      13.000         13.507                        -0.507
      3       Al     1      13.000         13.507                        -0.507
      4       Al     1      13.000         13.507                        -0.507
      5       N      2       7.000          6.493                         0.507
      6       N      2       7.000          6.493                         0.507
      7       N      2       7.000          6.493                         0.507
      8       N      2       7.000          6.493                         0.507

  Total Charge                                                           -0.000
 !-----------------------------------------------------------------------------!

 ENERGY| Total FORCE_EVAL ( QS ) energy [hartree]          -1189.481531593462250

 -------------------------------------------------------------------------------
 -                                                                             -
 -                                DBCSR STATISTICS                             -
 -                                                                             -
 -------------------------------------------------------------------------------
 COUNTER                                    TOTAL       BLAS       SMM       ACC
 flops inhomo. stacks                           0       0.0%      0.0%      0.0%
 flops total                         0.000000E+00       0.0%      0.0%      0.0%
 flops max/rank                      0.000000E+00       0.0%      0.0%      0.0%
 matmuls inhomo. stacks                         0       0.0%      0.0%      0.0%
 matmuls total                                  0       0.0%      0.0%      0.0%
 number of processed stacks                     0       0.0%      0.0%      0.0%
 average stack size                                     0.0       0.0       0.0
 marketing flops                     0.000000E+00
 -------------------------------------------------------------------------------

 -------------------------------------------------------------------------------
 -                                                                             -
 -                                GRID STATISTICS                              -
 -                                                                             -
 -------------------------------------------------------------------------------
 LP    KERNEL             BACKEND                              COUNT     PERCENT
 6     collocate ortho    CPU                                 865024      25.39%
 8     collocate ortho    CPU                                 865024      25.39%
 6     integrate ortho    CPU                                 837992      24.60%
 8     integrate ortho    CPU                                 837992      24.60%
 4     collocate general  CPU                                    248       0.01%
 4     integrate general  CPU                                    248       0.01%
 0     collocate general  CPU                                     16       0.00%
 0     integrate general  CPU                                      8       0.00%
 -------------------------------------------------------------------------------

 -------------------------------------------------------------------------------
 -                                                                             -
 -                          OFFLOAD MEMPOOL STATISTICS                         -
 -                                                                             -
 -------------------------------------------------------------------------------
 Memory consumption                Number of allocations  Used [MiB]  Size [MiB]
 Host                                                  8         154          58
 -------------------------------------------------------------------------------

 MEMORY| Estimated peak process memory [MiB]                                5815

 -------------------------------------------------------------------------------
 ----                             MULTIGRID INFO                            ----
 -------------------------------------------------------------------------------
 count for grid        1:          58028          cutoff [a.u.]          400.00
 count for grid        2:          24129          cutoff [a.u.]          133.33
 count for grid        3:          18466          cutoff [a.u.]           44.44
 count for grid        4:          18976          cutoff [a.u.]           14.81
 count for grid        5:           3346          cutoff [a.u.]            4.94
 total gridlevel count  :         122945

 -------------------------------------------------------------------------------
 -                                                                             -
 -                           R E F E R E N C E S                               -
 -                                                                             -
 -------------------------------------------------------------------------------
 
 CP2K version 2026.2 (Development Version), the CP2K developers group (2026).
 CP2K is freely available from https://www.cp2k.org/ .
 
 M. Iannuzzi, J. Wilhelm, F. Stein, A. Bussy, H. Elgabarty, D. Golze, A. Hehn, 
 M. Graml, S. Marek, B. Sertcan Gökmen, C. Schran, H. Forbert, R. Z. 
 Khaliullin, A. Kozhevnikov, M. Taillefumier, R. Meli, V. V. Rybkin, M. Brehm, 
 R. Schade, O. Schütt, J. V. Pototschnig, H. Mirhosseini, A. Knüpfer, D. Marx, 
 M. Krack, J. Hutter, T. D. Kühne.
 J. Phys. Chem. B 130, 1237-1310 (2026).
 The CP2K Program Package Made Simple.
 https://doi.org/10.1021/acs.jpcb.5c05851

 L. Wittmann, I. Gordiy, M. Friede, B. Helmich-Paris, S. Grimme, A. Hansen, M. 
 Bursch.
 Phys. Chem. Chem. Phys. 26, 21379-21394 (2024).
 Extension of the D3 and D4 London dispersion corrections to the full actinides 
 series.
 https://doi.org/10.1039/d4cp01514b

 T. D. Kühne, M. Iannuzzi, M. Del Ben, V. V. Rybkin, P. Seewald, F. Stein, T. 
 Laino, R. Z. Khaliullin, O. Schütt, F. Schiffmann, D. Golze, J. Wilhelm, S. 
 Chulkov, M. H. Bani-Hashemian, V. Weber, U. Borstnik, M. Taillefumier, A. S. 
 Jakobovits, A. Lazzaro, H. Pabst, T. Müller, R. Schade, M. Guidon, S. 
 Andermatt, N. Holmberg, G. K. Schenter, A. Hehn, A. Bussy, F. Belleflamme, G. 
 Tabacchi, A. Glöß, M. Lass, I. Bethune, C. J. Mundy, C. Plessl, M. Watkins, 
 J. VandeVondele, M. Krack, J. Hutter.
 J. Chem. Phys. 152, 194103 (2020).
 CP2K: An electronic structure and molecular dynamics software package - 
 Quickstep: Efficient and accurate electronic structure calculations.
 https://doi.org/10.1063/5.0007045

 A. Togo, I. Tanaka.
 arXiv, 1808.01590 (2018).
 Spglib : a software library for crystal symmetry search.

 L. Goerigk, A. Hansen, C. Bauer, S. Ehrlich, A. Najibi, S. Grimme.
 Phys. Chem. Chem. Phys. 19, 32184-32215 (2017).
 A look at the density functional theory zoo with the advanced GMTKN55 database 
 for general main group thermochemistry, kinetics and noncovalent interactions.
 https://doi.org/10.1039/C7CP04913G

 O. Schuett, P. Messmer, J. Hutter, J. VandeVondele.
 Electronic Structure Calculations on Graphics Processing Units, 173-190 (2016).
 GPU-Accelerated Sparse Matrix-Matrix Multiplication for Linear Scaling Density 
 Functional Theory.
 https://doi.org/10.1002/9781118670712.ch8

 U. Borstnik, J. VandeVondele, V. Weber, J. Hutter.
 Parallel Comput. 40, 47-58 (2014).
 Sparse matrix multiplication: The distributed block-compressed sparse row 
 library.
 https://doi.org/10.1016/j.parco.2014.03.012

 S. Grimme, S. Ehrlich, L. Goerigk.
 J. Comput. Chem. 32, 1456 (2011).
 Effect of the damping function in dispersion corrected density functional 
 theory.
 https://doi.org/10.1002/jcc.21759

 S. Grimme, J. Antony, S. Ehrlich, H. Krieg.
 J. Chem. Phys. 132, 154104 (2010).
 A consistent and accurate ab initio parametrization of density functional 
 dispersion correction (DFT-D) for the 94 elements H-Pu.
 https://doi.org/10.1063/1.3382344

 J. VandeVondele, J. Hutter.
 J. Chem. Phys. 127, 114105 (2007).
 Gaussian basis sets for accurate calculations on molecular systems in gas and 
 condensed phases.
 https://doi.org/10.1063/1.2770708

 M. Frigo, S. G. Johnson.
 Proc. IEEE 93, 216-231 (2005).
 The design and implementation of FFTW3.
 https://doi.org/10.1109/JPROC.2004.840301

 M. Krack, M. Parrinello.
 Phys. Chem. Chem. Phys. 2, 2105-2112 (2000).
 All-electron ab-initio molecular dynamics.
 https://doi.org/10.1039/b001167n

 G. Lippert, J. Hutter, M. Parrinello.
 Theor. Chem. Acc. 103, 124-140 (1999).
 The Gaussian and augmented-plane-wave density functional method for ab initio 
 molecular dynamics simulations.
 https://doi.org/10.1007/s002140050523

 C.-L. Fu, K.-M. Ho.
 Phys. Rev. B 28, 5480-5486 (1983).
 First-principles calculation of the equilibrium ground-state properties of 
 transition metals: Applications to Nb and Mo.
 https://doi.org/10.1103/PhysRevB.28.5480

 T. G. Worlton, J. L. Warren.
 Comput. Phys. Commun. 3, 88-117 (1972).
 Group-theoretical analysis of lattice vibrations.
 https://doi.org/10.1016/0010-4655(72)90058-6


 -------------------------------------------------------------------------------
 -                                                                             -
 -                                T I M I N G                                  -
 -                                                                             -
 -------------------------------------------------------------------------------
 SUBROUTINE                       CALLS  ASD         SELF TIME        TOTAL TIME
                                MAXIMUM       AVERAGE  MAXIMUM  AVERAGE  MAXIMUM
 CP2K                                 1  1.0     0.05     0.05 26343.31 26343.31
 qs_energies                          1  2.0     0.00     0.00 26342.94 26342.94
 scf_env_do_scf                       1  3.0     0.00     0.00 26338.71 26338.71
 scf_env_do_scf_inner_loop           31  4.0     1.42     1.42 26338.71 26338.71
 qs_ks_update_qs_env                 31  5.0     0.00     0.00 25950.54 25950.54
 rebuild_ks_matrix                   31  6.0     0.00     0.00 25947.37 25947.37
 qs_ks_build_kohn_sham_matrix        31  7.0     0.03     0.03 25947.37 25947.37
 calculate_vxc_atom                  31  8.0 22388.24 22388.24 25713.96 25713.96
 skala_atom_torch_backward           93  9.0   916.46   916.46   916.46   916.46
 calc_tau_atom                      744  9.0   713.64   713.64   713.64   713.64
 gaVxcgb_GC                         496  9.0   642.88   642.88   642.88   642.88
 -------------------------------------------------------------------------------

 The number of warnings for this run is : 1
 
 -------------------------------------------------------------------------------
  **** **** ******  **  PROGRAM ENDED AT                 2026-09-01 04:51:56.946
 ***** ** ***  *** **   PROGRAM RAN ON                                    cge029
 **    ****   ******    PROGRAM RAN BY                                  kuehne88
 ***** **    ** ** **   PROGRAM PROCESS ID                               3375623
  **** **  *******  **  PROGRAM STOPPED IN /data/home2/kuehne88/cp2k-native-skal
                                           a/goldzak12/runs/production/gapw-ae/A
                                           lN/v04
