 DBCSR| CPU Multiplication driver                                           XSMM (U)
 DBCSR| Multrec recursion limit                                              512 (U)
 DBCSR| Multiplication stack size                                           1000 (D)
 DBCSR| Maximum elements for images                                    UNLIMITED (U)
 DBCSR| Multiplicative factor virtual images                                   1 (U)
 DBCSR| Use multiplication densification                                       T (D)
 DBCSR| Multiplication size stacks                                             3 (U)
 DBCSR| Use memory pool for CPU allocation                                     F (U)
 DBCSR| Number of 3D layers                                               SINGLE (U)
 DBCSR| Use MPI memory allocation                                              F (U)
 DBCSR| Use RMA algorithm                                                      F (U)
 DBCSR| Use Communication thread                                               T (U)
 DBCSR| Communication thread load                                             15 (D)
 DBCSR| MPI: My process id                                                     0
 DBCSR| MPI: Number of processes                                               1
 DBCSR| OMP: Current number of threads                                        20
 DBCSR| OMP: Max number of threads                                            20
 DBCSR| Split modifier for TAS multiplication algorithm                  1.0E+00 (U)


  **** **** ******  **  PROGRAM STARTED AT               2026-08-25 05:49:46.071
 ***** ** ***  *** **   PROGRAM STARTED ON                            spark-c86c
 **    ****   ******    PROGRAM STARTED BY                              kuehne88
 ***** **    ** ** **   PROGRAM PROCESS ID                                628792
  **** **  *******  **  PROGRAM STARTED IN /home/kuehne88/work/native-skala-spar
                                           k/diet-production-p25/gapwxc-gth-one-
                                           center/b3855c64e9f61158f5e449e2df7b79
                                           bf1fa599d7

 CP2K| version string:                 CP2K version 2026.2 (Development Version)
 CP2K| source code revision number:                                   c1bff3eeb8
 CP2K| cp2kflags: omp fftw3 parallel scalapack spglib openblas libtorch libtorch
 CP2K|            _cuda
 CP2K| is freely available from                            https://www.cp2k.org/
 CP2K| Program compiled at                                   2026-08-23 22:42:03
 CP2K| Program compiled on                                            spark-c86c
 CP2K| Program compiled for                                              aarch64
 CP2K| Data directory path      /home/kuehne88/work/native-skala-spark/cp2k/data
 CP2K| Input file name                                                 input.inp

 GLOBAL| Force Environment number                                              1
 GLOBAL| Basis set file name                             BASIS_MOLOPT_UZH_2026.2
 GLOBAL| Potential file name                                POTENTIAL_UZH_2026.2
 GLOBAL| MM Potential file name                                     MM_POTENTIAL
 GLOBAL| Coordinate file name                                      __STD_INPUT__
 GLOBAL| Method name                                                        CP2K
 GLOBAL| Project name                                b3855c64e9f6_gapwxc_gth_paw
 GLOBAL| Run type                                                         ENERGY
 GLOBAL| FFT library                                                       FFTW3
 GLOBAL| Diagonalization library                                       ScaLAPACK
 GLOBAL| Cholesky decomposition library                                ScaLAPACK
 GLOBAL| DGEMM library                                                      BLAS
 GLOBAL| Direct generalized diagonalization requested                          F
 GLOBAL| Orthonormality check for eigenvectors                          DISABLED
 GLOBAL| Matrix multiplication library                                 ScaLAPACK
 GLOBAL| All-to-all communication in single precision                          F
 GLOBAL| FFTs using library dependent lengths                                  F
 GLOBAL| Grid backend                                                       AUTO
 GLOBAL| Global print level                                               MEDIUM
 GLOBAL| MPI I/O enabled                                                       T
 GLOBAL| Total number of message passing processes                             1
 GLOBAL| Number of distributed systems (nodes)                                 1
 GLOBAL| Number of threads for this process                                   20
 GLOBAL| This output is from process                                           0
 GLOBAL| OpenMP stack size per thread (OMP_STACKSIZE)                       512M
 GLOBAL| CPU model name                                                  UNKNOWN
 GLOBAL| CPUID                                                              2000

 MEMORY| system memory details [Kb]
 MEMORY|                        rank 0           min           max       average
 MEMORY| MemTotal            125507828     125507828     125507828     125507828
 MEMORY| MemFree              96108760      96108760      96108760      96108760
 MEMORY| Buffers               3956792       3956792       3956792       3956792
 MEMORY| Cached               12459428      12459428      12459428      12459428
 MEMORY| Slab                  5949320       5949320       5949320       5949320
 MEMORY| SReclaimable          4998528       4998528       4998528       4998528
 MEMORY| MemLikelyFree       117523508     117523508     117523508     117523508


 *** Fundamental physical constants (SI units) ***

 *** Literature: B. J. Mohr and B. N. Taylor,
 ***             CODATA recommended values of the fundamental physical
 ***             constants: 2006, Web Version 5.1
 ***             http://physics.nist.gov/constants

 Speed of light in vacuum [m/s]                             2.99792458000000E+08
 Magnetic constant or permeability of vacuum [N/A**2]       1.25663706143592E-06
 Electric constant or permittivity of vacuum [F/m]          8.85418781762039E-12
 Planck constant (h) [J*s]                                  6.62606896000000E-34
 Planck constant (h-bar) [J*s]                              1.05457162825177E-34
 Elementary charge [C]                                      1.60217648700000E-19
 Electron mass [kg]                                         9.10938215000000E-31
 Electron g factor [ ]                                     -2.00231930436220E+00
 Proton mass [kg]                                           1.67262163700000E-27
 Fine-structure constant                                    7.29735253760000E-03
 Rydberg constant [1/m]                                     1.09737315685270E+07
 Avogadro constant [1/mol]                                  6.02214179000000E+23
 Boltzmann constant [J/K]                                   1.38065040000000E-23
 Atomic mass unit [kg]                                      1.66053878200000E-27
 Bohr radius [m]                                            5.29177208590000E-11

 *** Conversion factors ***

 [u] -> [a.u.]                                              1.82288848426455E+03
 [Angstrom] -> [Bohr] = [a.u.]                              1.88972613288564E+00
 [a.u.] = [Bohr] -> [Angstrom]                              5.29177208590000E-01
 [a.u.] -> [s]                                              2.41888432650478E-17
 [a.u.] -> [fs]                                             2.41888432650478E-02
 [a.u.] -> [J]                                              4.35974393937059E-18
 [a.u.] -> [N]                                              8.23872205491840E-08
 [a.u.] -> [K]                                              3.15774647902944E+05
 [a.u.] -> [kJ/mol]                                         2.62549961709828E+03
 [a.u.] -> [kcal/mol]                                       6.27509468713739E+02
 [a.u.] -> [Pa]                                             2.94210107994716E+13
 [a.u.] -> [bar]                                            2.94210107994716E+08
 [a.u.] -> [atm]                                            2.90362800883016E+08
 [a.u.] -> [eV]                                             2.72113838565563E+01
 [a.u.] -> [Hz]                                             6.57968392072181E+15
 [a.u.] -> [1/cm] (wave numbers)                            2.19474631370540E+05
 [a.u./Bohr**2] -> [1/cm]                                   5.14048714338585E+03
 

 CELL| Volume [angstrom^3]:                                         15625.000000
 CELL| Vector a [angstrom]:      25.000     0.000     0.000   |a| =    25.000000
 CELL| Vector b [angstrom]:       0.000    25.000     0.000   |b| =    25.000000
 CELL| Vector c [angstrom]:       0.000     0.000    25.000   |c| =    25.000000
 CELL| Angle (b,c), alpha [degree]:                                    90.000000
 CELL| Angle (a,c), beta  [degree]:                                    90.000000
 CELL| Angle (a,b), gamma [degree]:                                    90.000000
 CELL| Numerically orthorhombic:                                             YES
 CELL| Periodicity                                                          NONE

 CELL_REF| Volume [angstrom^3]:                                     15625.000000
 CELL_REF| Vector a [angstrom    25.000     0.000     0.000   |a| =    25.000000
 CELL_REF| Vector b [angstrom     0.000    25.000     0.000   |b| =    25.000000
 CELL_REF| Vector c [angstrom     0.000     0.000    25.000   |c| =    25.000000
 CELL_REF| Angle (b,c), alpha [degree]:                                90.000000
 CELL_REF| Angle (a,c), beta  [degree]:                                90.000000
 CELL_REF| Angle (a,b), gamma [degree]:                                90.000000
 CELL_REF| Numerically orthorhombic:                                         YES
 CELL_REF| Periodicity                                                      NONE

 GENERATE|  Preliminary Number of Bonds generated:                             0
 GENERATE|  Achieved consistency in connectivity generation.

 *******************************************************************************
 *******************************************************************************
 **                                                                           **
 **     #####                         ##              ##                      **
 **    ##   ##            ##          ##              ##                      **
 **   ##     ##                       ##            ######                    **
 **   ##     ##  ##   ##  ##   #####  ##  ##   ####   ##    #####    #####    **
 **   ##     ##  ##   ##  ##  ##      ## ##   ##      ##   ##   ##  ##   ##   **
 **   ##  ## ##  ##   ##  ##  ##      ####     ###    ##   ######   ######    **
 **    ##  ###   ##   ##  ##  ##      ## ##      ##   ##   ##       ##        **
 **     #######   #####   ##   #####  ##  ##  ####    ##    #####   ##        **
 **           ##                                                    ##        **
 **                                                                           **
 **                                                ... make the atoms dance   **
 **                                                                           **
 **            Copyright (C) by CP2K developers group (2000-2026)             **
 **                      J. Chem. Phys. 152, 194103 (2020)                    **
 **                                                                           **
 *******************************************************************************

 DFT| Spin restricted Kohn-Sham (RKS) calculation                            RKS
 DFT| Multiplicity                                                             1
 DFT| Number of spin states                                                    1
 DFT| Charge                                                                   0
 DFT| Self-interaction correction (SIC)                                       NO
 DFT| Cutoffs: density                                              1.000000E-10
 DFT|          gradient                                             1.000000E-10
 DFT|          tau                                                  1.000000E-10
 DFT|          cutoff_smoothing_range                               0.000000E+00
 DFT| XC density smoothing                                                  NONE
 DFT| XC derivatives                                                          PW

 FUNCTIONAL| GAUXC:
 FUNCTIONAL| Functional computed by GauXC Skala model SKALA                     

 vdW POTENTIAL|                                                   Pair Potential
 vdW POTENTIAL|          DFT-D3 (Version 3.1)
 vdW POTENTIAL|          Potential Form: S. Grimme et al, JCP 132: 154104 (2010)
 vdW POTENTIAL|          BJ Damping: S. Grimme et al, JCC 32: 1456 (2011)
 vdW POTENTIAL|          Cutoff Radius [Bohr]:                             37.79
 vdW POTENTIAL|          s6 Scaling Factor:                               1.0000
 vdW POTENTIAL|          a1 Damping Factor:                               0.3981
 vdW POTENTIAL|          s8 Scaling Factor:                               1.9889
 vdW POTENTIAL|          a2 Damping Factor:                               4.4211
 vdW POTENTIAL|          Cutoff for CN calculation:                   0.1000E-05

 QS| Method:                                                             GAPW_XC
 QS| Density plane wave grid type                        NON-SPHERICAL FULLSPACE
 QS| Number of grid levels:                                                    5
 QS| Density cutoff [a.u.]:                                                200.0
 QS| Multi grid cutoff [a.u.]: 1) grid level                               200.0
 QS|                           2) grid level                                66.7
 QS|                           3) grid level                                22.2
 QS|                           4) grid level                                 7.4
 QS|                           5) grid level                                 2.5
 QS| Grid level progression factor:                                          3.0
 QS| Relative density cutoff [a.u.]:                                        30.0
 QS| Interaction thresholds: eps_pgf_orb:                                1.0E-06
 QS|                         eps_filter_matrix:                          0.0E+00
 QS|                         eps_core_charge:                            1.0E-14
 QS|                         eps_rho_gspace:                             1.0E-12
 QS|                         eps_rho_rspace:                             1.0E-12
 QS|                         eps_gvg_rspace:                             1.0E-06
 QS|                         eps_ppl:                                    1.0E-02
 QS|                         eps_ppnl:                                   1.0E-08
 QS| GAPW_XC|      One center basis extended with primitives (small:s)
 QS| GAPW_XC|                eps_fit:                                    1.0E-04
 QS| GAPW_XC|                eps_iso:                                    1.0E-12
 QS| GAPW_XC|                eps_svd:                                    1.0E-08
 QS| GAPW_XC|atom-r-grid: quadrature:                 GC_LOG                        
 QS| GAPW_XC|   atom-s-grid:  max l :                                          4


 ATOMIC KIND INFORMATION

  1. Atomic kind: He                                    Number of atoms:       1

     Orbital Basis Set                                   TZV2P-MOLOPT-PBE-GTH-q2

       Number of orbital shell sets:                                           2
       Number of orbital shells:                                               6
       Number of primitive Cartesian functions:                               12
       Number of Cartesian basis functions:                                   15
       Number of spherical basis functions:                                   14
       Norm type:                                                              2

       Normalised Cartesian orbitals:

                        Set   Shell   Orbital            Exponent    Coefficient

                          1       1    1s               15.630897       0.159501
                                                         7.592172       0.191722
                                                         3.687637       0.194966
                                                         1.791143       0.209429
                                                         0.869986       0.167615
                                                         0.422566       0.104512
                                                         0.205247       0.042170
                                                         0.099692       0.007909

                          1       2    2s               15.630897      -0.140744
                                                         7.592172      -0.172379
                                                         3.687637      -0.198891
                                                         1.791143      -0.289660
                                                         0.869986      -0.218392
                                                         0.422566      -0.037164
                                                         0.205247       0.065124
                                                         0.099692       0.102925

                          1       3    3s               15.630897       0.140412
                                                         7.592172       0.299604
                                                         3.687637       0.120490
                                                         1.791143       0.807829
                                                         0.869986      -0.314160
                                                         0.422566       0.317598
                                                         0.205247      -0.724137
                                                         0.099692       0.326435

                          2       1    2px               2.405469       0.125641
                                                         0.809013       0.133790
                                                         0.272089       0.135449
                                                         0.091510       0.036987
                          2       1    2py               2.405469       0.125641
                                                         0.809013       0.133790
                                                         0.272089       0.135449
                                                         0.091510       0.036987
                          2       1    2pz               2.405469       0.125641
                                                         0.809013       0.133790
                                                         0.272089       0.135449
                                                         0.091510       0.036987

                          2       2    3px               2.405469      -0.233171
                                                         0.809013      -0.065798
                                                         0.272089      -0.326511
                                                         0.091510       0.092415
                          2       2    3py               2.405469      -0.233171
                                                         0.809013      -0.065798
                                                         0.272089      -0.326511
                                                         0.091510       0.092415
                          2       2    3pz               2.405469      -0.233171
                                                         0.809013      -0.065798
                                                         0.272089      -0.326511
                                                         0.091510       0.092415

                          2       3    3dx2              2.405469       0.127964
                                                         0.809013       0.139095
                                                         0.272089       0.099825
                                                         0.091510       0.011189
                          2       3    3dxy              2.405469       0.221639
                                                         0.809013       0.240920
                                                         0.272089       0.172902
                                                         0.091510       0.019380
                          2       3    3dxz              2.405469       0.221639
                                                         0.809013       0.240920
                                                         0.272089       0.172902
                                                         0.091510       0.019380
                          2       3    3dy2              2.405469       0.127964
                                                         0.809013       0.139095
                                                         0.272089       0.099825
                                                         0.091510       0.011189
                          2       3    3dyz              2.405469       0.221639
                                                         0.809013       0.240920
                                                         0.272089       0.172902
                                                         0.091510       0.019380
                          2       3    3dz2              2.405469       0.127964
                                                         0.809013       0.139095
                                                         0.272089       0.099825
                                                         0.091510       0.011189

       Atomic covalent radius [Angstrom]:                                  0.930

       Atomic van der Waals radius [Angstrom]:                             1.400

     The atoms of this atomic kind are PAW atoms (GAPW):
       Hard Gaussian function radius:                                      1.200
       Rho0 radius:                                                        1.200
       Maximum GTO radius used for PAW projector construction:            24.566

     GAPW Soft Basis Set                            TZV2P-MOLOPT-PBE-GTH-q2_soft

       Number of orbital shell sets:                                           2
       Number of orbital shells:                                               6
       Number of primitive Cartesian functions:                               10
       Number of Cartesian basis functions:                                   15
       Number of spherical basis functions:                                   14
       Norm type:                                                              2

       Normalised Cartesian orbitals:

                        Set   Shell   Orbital            Exponent    Coefficient

                          1       1    1s                3.687637       0.194966
                                                         1.791143       0.209429
                                                         0.869986       0.167615
                                                         0.422566       0.104512
                                                         0.205247       0.042170
                                                         0.099692       0.007909

                          1       2    2s                3.687637      -0.198891
                                                         1.791143      -0.289660
                                                         0.869986      -0.218392
                                                         0.422566      -0.037164
                                                         0.205247       0.065124
                                                         0.099692       0.102925

                          1       3    3s                3.687637       0.120490
                                                         1.791143       0.807829
                                                         0.869986      -0.314160
                                                         0.422566       0.317598
                                                         0.205247      -0.724137
                                                         0.099692       0.326435

                          2       1    2px               2.405469       0.125641
                                                         0.809013       0.133790
                                                         0.272089       0.135449
                                                         0.091510       0.036987
                          2       1    2py               2.405469       0.125641
                                                         0.809013       0.133790
                                                         0.272089       0.135449
                                                         0.091510       0.036987
                          2       1    2pz               2.405469       0.125641
                                                         0.809013       0.133790
                                                         0.272089       0.135449
                                                         0.091510       0.036987

                          2       2    3px               2.405469      -0.233171
                                                         0.809013      -0.065798
                                                         0.272089      -0.326511
                                                         0.091510       0.092415
                          2       2    3py               2.405469      -0.233171
                                                         0.809013      -0.065798
                                                         0.272089      -0.326511
                                                         0.091510       0.092415
                          2       2    3pz               2.405469      -0.233171
                                                         0.809013      -0.065798
                                                         0.272089      -0.326511
                                                         0.091510       0.092415

                          2       3    3dx2              2.405469       0.127964
                                                         0.809013       0.139095
                                                         0.272089       0.099825
                                                         0.091510       0.011189
                          2       3    3dxy              2.405469       0.221639
                                                         0.809013       0.240920
                                                         0.272089       0.172902
                                                         0.091510       0.019380
                          2       3    3dxz              2.405469       0.221639
                                                         0.809013       0.240920
                                                         0.272089       0.172902
                                                         0.091510       0.019380
                          2       3    3dy2              2.405469       0.127964
                                                         0.809013       0.139095
                                                         0.272089       0.099825
                                                         0.091510       0.011189
                          2       3    3dyz              2.405469       0.221639
                                                         0.809013       0.240920
                                                         0.272089       0.172902
                                                         0.091510       0.019380
                          2       3    3dz2              2.405469       0.127964
                                                         0.809013       0.139095
                                                         0.272089       0.099825
                                                         0.091510       0.011189

     GTH Potential information for                                    GTH-PBE-q2

       Description:                       Goedecker-Teter-Hutter pseudopotential
                                           Goedecker et al., PRB 54, 1703 (1996)
                                          Hartwigsen et al., PRB 58, 3641 (1998)
                                                      Krack, TCA 114, 145 (2005)

       Gaussian exponent of the core charge distribution:              12.472041
       Electronic configuration (s p d ...):                       2   0   0   0

       Parameters of the local part of the GTH pseudopotential:

                          rloc        C1          C2          C3          C4
                        0.200224   -9.121786    1.702708


 MOLECULE KIND INFORMATION


 All atoms are their own molecule, skipping detailed information


 TOTAL NUMBERS AND MAXIMUM NUMBERS

  Total number of            - Atomic kinds:                                   1
                             - Atoms:                                          1
                             - Shell sets:                                     2
                             - Shells:                                         6
                             - Primitive Cartesian functions:                 12
                             - Cartesian basis functions:                     15
                             - Spherical basis functions:                     14

  Maximum angular momentum of- Orbital basis functions:                        2
                             - Local part of the GTH pseudopotential:          2


 MODULE QUICKSTEP: ATOMIC COORDINATES IN ANGSTROM

   Atom Kind Element         X             Y             Z       Z(eff)     Mass
      1    1 He    2     12.500000     12.500000     12.500000   2.0000   4.0026



 SCF PARAMETERS         Density guess:                                    ATOMIC
                        --------------------------------------------------------
                        max_scf:                                             200
                        max_scf_history:                                       0
                        max_diis:                                              4
                        --------------------------------------------------------
                        eps_scf:                                        1.00E-07
                        eps_scf_history:                                0.00E+00
                        eps_diis:                                       0.00E+00
                        eps_eigval:                                     1.00E-05
                        --------------------------------------------------------
                        level_shift [a.u.]:                             0.000000
                        --------------------------------------------------------
                        Outer loop SCF in use 
                        No variables optimised in outer loop
                        eps_scf                                         1.00E-07
                        max_scf                                               20
                        No outer loop optimization
                        step_size                                       5.00E-01

 PW_GRID| Information for grid number                                          1
 PW_GRID| Cutoff [a.u.]                                                    200.0
 PW_GRID| spherical cutoff:                                                   NO
 PW_GRID|   Bounds   1           -160     159                Points:         320
 PW_GRID|   Bounds   2           -160     159                Points:         320
 PW_GRID|   Bounds   3           -160     159                Points:         320
 PW_GRID| Volume element (a.u.^3)  0.3218E-02     Volume (a.u.^3)    105442.7279
 PW_GRID| Grid span                                                    FULLSPACE

 PW_GRID| Information for grid number                                          2
 PW_GRID| Number of the reference grid                                         1
 PW_GRID| Cutoff [a.u.]                                                     66.7
 PW_GRID| spherical cutoff:                                                   NO
 PW_GRID|   Bounds   1            -90      89                Points:         180
 PW_GRID|   Bounds   2            -90      89                Points:         180
 PW_GRID|   Bounds   3            -90      89                Points:         180
 PW_GRID| Volume element (a.u.^3)  0.1808E-01     Volume (a.u.^3)    105442.7279
 PW_GRID| Grid span                                                    FULLSPACE

 PW_GRID| Information for grid number                                          3
 PW_GRID| Number of the reference grid                                         1
 PW_GRID| Cutoff [a.u.]                                                     22.2
 PW_GRID| spherical cutoff:                                                   NO
 PW_GRID|   Bounds   1            -54      53                Points:         108
 PW_GRID|   Bounds   2            -54      53                Points:         108
 PW_GRID|   Bounds   3            -54      53                Points:         108
 PW_GRID| Volume element (a.u.^3)  0.8370E-01     Volume (a.u.^3)    105442.7279
 PW_GRID| Grid span                                                    FULLSPACE

 PW_GRID| Information for grid number                                          4
 PW_GRID| Number of the reference grid                                         1
 PW_GRID| Cutoff [a.u.]                                                      7.4
 PW_GRID| spherical cutoff:                                                   NO
 PW_GRID|   Bounds   1            -30      29                Points:          60
 PW_GRID|   Bounds   2            -30      29                Points:          60
 PW_GRID|   Bounds   3            -30      29                Points:          60
 PW_GRID| Volume element (a.u.^3)  0.4882         Volume (a.u.^3)    105442.7279
 PW_GRID| Grid span                                                    FULLSPACE

 PW_GRID| Information for grid number                                          5
 PW_GRID| Number of the reference grid                                         1
 PW_GRID| Cutoff [a.u.]                                                      2.5
 PW_GRID| spherical cutoff:                                                   NO
 PW_GRID|   Bounds   1            -18      17                Points:          36
 PW_GRID|   Bounds   2            -18      17                Points:          36
 PW_GRID|   Bounds   3            -18      17                Points:          36
 PW_GRID| Volume element (a.u.^3)   2.260         Volume (a.u.^3)    105442.7279
 PW_GRID| Grid span                                                    FULLSPACE

 POISSON| Solver                                                        ANALYTIC
 POISSON| Periodicity                                                       NONE

 RS_GRID| Information for grid number                                          1
 RS_GRID|   Bounds   1           -160     159                Points:         320
 RS_GRID|   Bounds   2           -160     159                Points:         320
 RS_GRID|   Bounds   3           -160     159                Points:         320

 RS_GRID| Information for grid number                                          2
 RS_GRID|   Bounds   1            -90      89                Points:         180
 RS_GRID|   Bounds   2            -90      89                Points:         180
 RS_GRID|   Bounds   3            -90      89                Points:         180

 RS_GRID| Information for grid number                                          3
 RS_GRID|   Bounds   1            -54      53                Points:         108
 RS_GRID|   Bounds   2            -54      53                Points:         108
 RS_GRID|   Bounds   3            -54      53                Points:         108

 RS_GRID| Information for grid number                                          4
 RS_GRID|   Bounds   1            -30      29                Points:          60
 RS_GRID|   Bounds   2            -30      29                Points:          60
 RS_GRID|   Bounds   3            -30      29                Points:          60

 RS_GRID| Information for grid number                                          5
 RS_GRID|   Bounds   1            -18      17                Points:          36
 RS_GRID|   Bounds   2            -18      17                Points:          36
 RS_GRID|   Bounds   3            -18      17                Points:          36

 Extrapolation method: initial_guess

 Atomic guess: The first density matrix is obtained in terms of atomic orbitals
               and electronic configurations assigned to each atomic kind

 Guess for atomic kind: He

 Electronic structure
    Total number of core electrons                                          0.00
    Total number of valence electrons                                       2.00
    Total number of electrons                                               2.00
    Multiplicity                                                   not specified
    S      2.00


 *******************************************************************************
                  Iteration          Convergence                     Energy [au]
 *******************************************************************************
                          1        0.576072E-01                  -2.822255027115
                          2        0.239972E-01                  -2.823376089483
                          3        0.195578E-03                  -2.823603469435
                          4        0.312641E-06                  -2.823603486357

 Energy components [Hartree]           Total Energy ::           -2.823603486357
                                        Band Energy ::           -1.122316436416
                                     Kinetic Energy ::            2.722632181741
                                   Potential Energy ::           -5.546235668099
                                      Virial (-V/T) ::            2.037085914614
                                        Core Energy ::           -3.852652682220
                                          XC Energy ::           -0.975186818550
                                     Coulomb Energy ::            2.004236014413
                       Total Pseudopotential Energy ::           -6.584312021529
                       Local Pseudopotential Energy ::           -6.584312021529
                    Nonlocal Pseudopotential Energy ::            0.000000000000
                                        Confinement ::            0.090271575675

 Orbital energies  State     L     Occupation   Energy[a.u.]          Energy[eV]

                       1     0          2.000      -0.561158          -15.269892


 Total Electron Density at R=0:                                         2.266264
 Re-scaling the density matrix to get the right number of electrons
                  # Electrons              Trace(P)               Scaling factor
                            2                 2.000                        1.000

 Number of electrons:                                                          2
 Number of occupied orbitals:                                                  1
 Number of molecular orbitals:                                                 1

 Number of orbital functions:                                                 14
 Number of independent orbital functions:                                     14


 SCF WAVEFUNCTION OPTIMIZATION

  ----------------------------------- OT ---------------------------------------
  Minimizer      : DIIS                : direct inversion
                                         in the iterative subspace
                                         using   7 DIIS vectors
                                         safer DIIS on
  Preconditioner : FULL_ALL            : diagonalization, state selective
  Precond_solver : DEFAULT
  stepsize       :    0.10000000                  energy_gap     :    0.00100000
  eps_taylor     :   0.10000E-15                  max_taylor     :             4
  ----------------------------------- OT ---------------------------------------

  Step     Update method      Time    Convergence         Total energy    Change
  ------------------------------------------------------------------------------
 SKALA_GPW| Atom-composite cross support/maxima   2.050080416001E+00   0.000000000000E+00   0.000000000000E+00   0.000000000000E+00

 SKALA_GPW| Native grid Torch CUDA device 0 of 1 requested -1
 SKALA_GPW| Native grid Torch CUDA rank devices 0:0
 SKALA_GPW| Active atom-composite XC energy  -1.0425759094249107E+00
 SKALA_GPW| Active atom-composite electrons   2.0000001266727625E+00
 SKALA_GPW| Active atom-composite density range  -2.3451262298826507E-10   1.1331321346155165E+00
 SKALA_GPW| Active atom-composite tau range  -1.8785536702602160E-09   1.0414994740917380E+00
 SKALA_GPW| Active atom-composite tau integral   2.7226312883308692E+00
 SKALA_GPW| Active atom-composite max gradient   2.5106545199625003E+00
     1 OT DIIS     0.10E+00    9.0     0.01716326        -2.9000674950 -2.90E+00
 SKALA_GPW| Atom-composite cross support/maxima   2.050080416001E+00   0.000000000000E+00   0.000000000000E+00   0.000000000000E+00
 SKALA_GPW| Active atom-composite XC energy  -1.0489449897376240E+00
 SKALA_GPW| Active atom-composite electrons   2.0000001286079430E+00
 SKALA_GPW| Active atom-composite density range  -2.3965904450933958E-10   1.1471806574504440E+00
 SKALA_GPW| Active atom-composite tau range  -1.7588471928031824E-09   1.0577300254212660E+00
 SKALA_GPW| Active atom-composite tau integral   2.7541057376578491E+00
 SKALA_GPW| Active atom-composite max gradient   2.5447866507740500E+00
     2 OT DIIS     0.10E+00   10.8     0.00815180        -2.9003713813 -3.04E-04
 SKALA_GPW| Atom-composite cross support/maxima   2.050080416001E+00   0.000000000000E+00   0.000000000000E+00   0.000000000000E+00
 SKALA_GPW| Active atom-composite XC energy  -1.0545448465442790E+00
 SKALA_GPW| Active atom-composite electrons   2.0000001303395805E+00
 SKALA_GPW| Active atom-composite density range  -2.4458098244260874E-10   1.1598356956929505E+00
 SKALA_GPW| Active atom-composite tau range  -1.5542263541336012E-09   1.0724993230803559E+00
 SKALA_GPW| Active atom-composite tau integral   2.7822268826662162E+00
 SKALA_GPW| Active atom-composite max gradient   2.5756533130682597E+00
     3 OT DIIS     0.10E+00   11.4     0.00057583        -2.9004607420 -8.94E-05
 SKALA_GPW| Atom-composite cross support/maxima   2.050080416001E+00   0.000000000000E+00   0.000000000000E+00   0.000000000000E+00
 SKALA_GPW| Active atom-composite XC energy  -1.0544777699294503E+00
 SKALA_GPW| Active atom-composite electrons   2.0000001303562018E+00
 SKALA_GPW| Active atom-composite density range  -2.4503033654049120E-10   1.1600996338107987E+00
 SKALA_GPW| Active atom-composite tau range  -1.4329646164674095E-09   1.0729425537742847E+00
 SKALA_GPW| Active atom-composite tau integral   2.7824236475906647E+00
 SKALA_GPW| Active atom-composite max gradient   2.5764192093863549E+00
     4 OT DIIS     0.10E+00   10.6     0.00004594        -2.9004613111 -5.69E-07
 SKALA_GPW| Atom-composite cross support/maxima   2.050080416001E+00   0.000000000000E+00   0.000000000000E+00   0.000000000000E+00
 SKALA_GPW| Active atom-composite XC energy  -1.0544207030098875E+00
 SKALA_GPW| Active atom-composite electrons   2.0000001303430861E+00
 SKALA_GPW| Active atom-composite density range  -2.4504083937182569E-10   1.1600204076537342E+00
 SKALA_GPW| Active atom-composite tau range  -1.4202030072054994E-09   1.0728660935072538E+00
 SKALA_GPW| Active atom-composite tau integral   2.7822007472810628E+00
 SKALA_GPW| Active atom-composite max gradient   2.5762404526849947E+00
     5 OT DIIS     0.10E+00   10.6     0.00003996        -2.9004613063  4.81E-09
 SKALA_GPW| Atom-composite cross support/maxima   2.050080416001E+00   0.000000000000E+00   0.000000000000E+00   0.000000000000E+00
 SKALA_GPW| Active atom-composite XC energy  -1.0544421285417944E+00
 SKALA_GPW| Active atom-composite electrons   2.0000001303479271E+00
 SKALA_GPW| Active atom-composite density range  -2.4503687783361410E-10   1.1600501436300741E+00
 SKALA_GPW| Active atom-composite tau range  -1.4250040217800981E-09   1.0728947826030060E+00
 SKALA_GPW| Active atom-composite tau integral   2.7822844323398930E+00
 SKALA_GPW| Active atom-composite max gradient   2.5763075375757403E+00
     6 OT DIIS     0.10E+00   10.9     0.00000769        -2.9004613051  1.16E-09
 SKALA_GPW| Atom-composite cross support/maxima   2.050080416001E+00   0.000000000000E+00   0.000000000000E+00   0.000000000000E+00
 SKALA_GPW| Active atom-composite XC energy  -1.0544425218755342E+00
 SKALA_GPW| Active atom-composite electrons   2.0000001303480306E+00
 SKALA_GPW| Active atom-composite density range  -2.4503679597734394E-10   1.1600506866314488E+00
 SKALA_GPW| Active atom-composite tau range  -1.4250918413171886E-09   1.0728953062807205E+00
 SKALA_GPW| Active atom-composite tau integral   2.7822859611187805E+00
 SKALA_GPW| Active atom-composite max gradient   2.5763087624085221E+00
     7 OT DIIS     0.10E+00   10.9     0.00000711        -2.9004613069 -1.75E-09
 SKALA_GPW| Atom-composite cross support/maxima   2.050080416001E+00   0.000000000000E+00   0.000000000000E+00   0.000000000000E+00
 SKALA_GPW| Active atom-composite XC energy  -1.0544441208622337E+00
 SKALA_GPW| Active atom-composite electrons   2.0000001303483170E+00
 SKALA_GPW| Active atom-composite density range  -2.4503651550614716E-10   1.1600529033543234E+00
 SKALA_GPW| Active atom-composite tau range  -1.4254479696663539E-09   1.0728974467703898E+00
 SKALA_GPW| Active atom-composite tau integral   2.7822921944181451E+00
 SKALA_GPW| Active atom-composite max gradient   2.5763137650091172E+00
     8 OT DIIS     0.10E+00   11.1     0.00000470        -2.9004613109 -4.04E-09
 SKALA_GPW| Atom-composite cross support/maxima   2.050080416001E+00   0.000000000000E+00   0.000000000000E+00   0.000000000000E+00
 SKALA_GPW| Active atom-composite XC energy  -1.0544472480865115E+00
 SKALA_GPW| Active atom-composite electrons   2.0000001303492119E+00
 SKALA_GPW| Active atom-composite density range  -2.4503594451206001E-10   1.1600572490589176E+00
 SKALA_GPW| Active atom-composite tau range  -1.4261464471799940E-09   1.0729016426100701E+00
 SKALA_GPW| Active atom-composite tau integral   2.7823044155190524E+00
 SKALA_GPW| Active atom-composite max gradient   2.5763235718248798E+00
     9 OT DIIS     0.10E+00   10.2     5.2844E-09        -2.9004613108  1.43E-10

  *** SCF run converged in     9 steps ***


  Electronic density on regular grids:         -2.0000000051       -0.0000000051
  Core density on regular grids:                2.0000000000       -0.0000000000
  Total charge density on r-space grids:       -0.0000000051
  Total charge density g-space grids:          -0.0000000051

  Overlap energy of the core charge distribution:               0.00000000000000
  Self energy of the core charge distribution:                 -5.63558259017305
  Core Hamiltonian energy:                                      1.96230956797393
  Hartree energy:                                               1.82725895949193
  Exchange-correlation energy:                                  0.00000000000000

  GAPW_XC| Exc from hard and soft atomic rho1:                 -1.05444724808651

  Total energy:                                                -2.90046131079371

  outer SCF iter =    1 RMS gradient =   0.53E-08 energy =         -2.9004613108
  outer SCF loop converged in   1 iterations or    9 steps


 !-----------------------------------------------------------------------------!
                     Mulliken Population Analysis

 #  Atom  Element  Kind  Atomic population                           Net charge
       1     He       1          2.000000                             -0.000000
 # Total charge                              2.000000                 -0.000000

 !-----------------------------------------------------------------------------!

 !-----------------------------------------------------------------------------!
                           Hirshfeld Charges

  #Atom  Element  Kind  Ref Charge     Population                    Net charge
      1       He     1       2.000          2.000                         0.000

  Total Charge                                                            0.000
 !-----------------------------------------------------------------------------!

 ENERGY| Total FORCE_EVAL ( QS ) energy [hartree]             -2.900461310793707

 -------------------------------------------------------------------------------
 -                                                                             -
 -                                DBCSR STATISTICS                             -
 -                                                                             -
 -------------------------------------------------------------------------------
 COUNTER                                    TOTAL       BLAS       SMM       ACC
 flops    14 x     1 x     1                 1288       0.0%    100.0%      0.0%     
 flops    14 x    14 x     1                 3920       0.0%    100.0%      0.0%     
 flops    14 x     1 x    14                18424       0.0%    100.0%      0.0%     
 flops inhomo. stacks                        1208     100.0%      0.0%      0.0%
 flops total                        24.840000E+03       4.9%     95.1%      0.0%
 flops max/rank                     24.840000E+03       4.9%     95.1%      0.0%
 matmuls inhomo. stacks                       123     100.0%      0.0%      0.0%
 matmuls total                                226      54.4%     45.6%      0.0%
 number of processed stacks                   226      54.4%     45.6%      0.0%
 average stack size                                     1.0       1.0       0.0
 marketing flops                    24.868000E+03
 -------------------------------------------------------------------------------
 # multiplications                            227
 max memory usage/rank             360.018215E+09
 # max total images/rank                        1
 # max 3D layers                                1
 # MPI messages exchanged                       0
 -------------------------------------------------------------------------------
 -                                                                             -
 -                      DBCSR MESSAGE PASSING PERFORMANCE                      -
 -                                                                             -
 -------------------------------------------------------------------------------
 ROUTINE             CALLS      AVE VOLUME [Bytes]
 MP_Bcast                4                     12.
 MP_Allreduce         1105                      8.
 MP_Alltoall           863                     68.
 MP_ISend              904                     20.
 MP_IRecv              904                     20.
 -------------------------------------------------------------------------------

 -------------------------------------------------------------------------------
 -                                                                             -
 -                                GRID STATISTICS                              -
 -                                                                             -
 -------------------------------------------------------------------------------
 LP    KERNEL             BACKEND                              COUNT     PERCENT
 2     collocate ortho    CPU                                   1480      22.63%
 2     integrate ortho    CPU                                   1332      20.37%
 0     collocate ortho    CPU                                   1000      15.29%
 0     integrate ortho    CPU                                    900      13.76%
 4     collocate ortho    CPU                                    800      12.23%
 4     integrate ortho    CPU                                    720      11.01%
 6     collocate ortho    CPU                                    160       2.45%
 6     integrate ortho    CPU                                    144       2.20%
 0     collocate general  CPU                                      3       0.05%
 0     integrate general  CPU                                      1       0.02%
 -------------------------------------------------------------------------------

 -------------------------------------------------------------------------------
 -                                                                             -
 -                          OFFLOAD MEMPOOL STATISTICS                         -
 -                                                                             -
 -------------------------------------------------------------------------------
 Memory consumption                Number of allocations  Used [MiB]  Size [MiB]
 Host                                                  9         306   268435375
 -------------------------------------------------------------------------------

 MEMORY| Estimated peak process memory [MiB]                               23591

 -------------------------------------------------------------------------------
 ----                             MULTIGRID INFO                            ----
 -------------------------------------------------------------------------------
 count for grid        1:           4011          cutoff [a.u.]          200.00
 count for grid        2:           1690          cutoff [a.u.]           66.67
 count for grid        3:            970          cutoff [a.u.]           22.22
 count for grid        4:            233          cutoff [a.u.]            7.41
 count for grid        5:              0          cutoff [a.u.]            2.47
 total gridlevel count  :           6904

 -------------------------------------------------------------------------------
 -                                                                             -
 -                         MESSAGE PASSING PERFORMANCE                         -
 -                                                                             -
 -------------------------------------------------------------------------------

 ROUTINE             CALLS      AVE VOLUME [Bytes]
 MP_Group               14
 MP_Bcast               65                  42100.
 MP_Allreduce          651               36292492.
 MP_Sync                 9
 MP_comm_split           4
 -------------------------------------------------------------------------------


 -------------------------------------------------------------------------------
 -                                                                             -
 -                           R E F E R E N C E S                               -
 -                                                                             -
 -------------------------------------------------------------------------------
 
 CP2K version 2026.2 (Development Version), the CP2K developers group (2026).
 CP2K is freely available from https://www.cp2k.org/ .
 
 M. Iannuzzi, J. Wilhelm, F. Stein, A. Bussy, H. Elgabarty, D. Golze, A. Hehn, 
 M. Graml, S. Marek, B. Sertcan Gökmen, C. Schran, H. Forbert, R. Z. 
 Khaliullin, A. Kozhevnikov, M. Taillefumier, R. Meli, V. V. Rybkin, M. Brehm, 
 R. Schade, O. Schütt, J. V. Pototschnig, H. Mirhosseini, A. Knüpfer, D. Marx, 
 M. Krack, J. Hutter, T. D. Kühne.
 J. Phys. Chem. B 130, 1237-1310 (2026).
 The CP2K Program Package Made Simple.
 https://doi.org/10.1021/acs.jpcb.5c05851

 L. Wittmann, I. Gordiy, M. Friede, B. Helmich-Paris, S. Grimme, A. Hansen, M. 
 Bursch.
 Phys. Chem. Chem. Phys. 26, 21379-21394 (2024).
 Extension of the D3 and D4 London dispersion corrections to the full actinides 
 series.
 https://doi.org/10.1039/d4cp01514b

 T. D. Kühne, M. Iannuzzi, M. Del Ben, V. V. Rybkin, P. Seewald, F. Stein, T. 
 Laino, R. Z. Khaliullin, O. Schütt, F. Schiffmann, D. Golze, J. Wilhelm, S. 
 Chulkov, M. H. Bani-Hashemian, V. Weber, U. Borstnik, M. Taillefumier, A. S. 
 Jakobovits, A. Lazzaro, H. Pabst, T. Müller, R. Schade, M. Guidon, S. 
 Andermatt, N. Holmberg, G. K. Schenter, A. Hehn, A. Bussy, F. Belleflamme, G. 
 Tabacchi, A. Glöß, M. Lass, I. Bethune, C. J. Mundy, C. Plessl, M. Watkins, 
 J. VandeVondele, M. Krack, J. Hutter.
 J. Chem. Phys. 152, 194103 (2020).
 CP2K: An electronic structure and molecular dynamics software package - 
 Quickstep: Efficient and accurate electronic structure calculations.
 https://doi.org/10.1063/5.0007045

 L. Goerigk, A. Hansen, C. Bauer, S. Ehrlich, A. Najibi, S. Grimme.
 Phys. Chem. Chem. Phys. 19, 32184-32215 (2017).
 A look at the density functional theory zoo with the advanced GMTKN55 database 
 for general main group thermochemistry, kinetics and noncovalent interactions.
 https://doi.org/10.1039/C7CP04913G

 O. Schuett, P. Messmer, J. Hutter, J. VandeVondele.
 Electronic Structure Calculations on Graphics Processing Units, 173-190 (2016).
 GPU-Accelerated Sparse Matrix-Matrix Multiplication for Linear Scaling Density 
 Functional Theory.
 https://doi.org/10.1002/9781118670712.ch8

 U. Borstnik, J. VandeVondele, V. Weber, J. Hutter.
 Parallel Comput. 40, 47-58 (2014).
 Sparse matrix multiplication: The distributed block-compressed sparse row 
 library.
 https://doi.org/10.1016/j.parco.2014.03.012

 S. Grimme, S. Ehrlich, L. Goerigk.
 J. Comput. Chem. 32, 1456 (2011).
 Effect of the damping function in dispersion corrected density functional 
 theory.
 https://doi.org/10.1002/jcc.21759

 S. Grimme, J. Antony, S. Ehrlich, H. Krieg.
 J. Chem. Phys. 132, 154104 (2010).
 A consistent and accurate ab initio parametrization of density functional 
 dispersion correction (DFT-D) for the 94 elements H-Pu.
 https://doi.org/10.1063/1.3382344

 J. VandeVondele, J. Hutter.
 J. Chem. Phys. 127, 114105 (2007).
 Gaussian basis sets for accurate calculations on molecular systems in gas and 
 condensed phases.
 https://doi.org/10.1063/1.2770708

 M. Krack.
 Theor. Chem. Acc. 114, 145-152 (2005).
 Pseudopotentials for H to Kr optimized for gradient-corrected 
 exchange-correlation functionals.
 https://doi.org/10.1007/s00214-005-0655-y

 M. Frigo, S. G. Johnson.
 Proc. IEEE 93, 216-231 (2005).
 The design and implementation of FFTW3.
 https://doi.org/10.1109/JPROC.2004.840301

 J. VandeVondele, J. Hutter.
 J. Chem. Phys. 118, 4365-4369 (2003).
 An efficient orbital transformation method for electronic structure 
 calculations.
 https://doi.org/10.1063/1.1543154

 C. Hartwigsen, S. Goedecker, J. Hutter.
 Phys. Rev. B 58, 3641-3662 (1998).
 Relativistic separable dual-space Gaussian pseudopotentials from H to Rn.
 https://doi.org/10.1103/PhysRevB.58.3641

 S. Goedecker, M. Teter, J. Hutter.
 Phys. Rev. B 54, 1703-1710 (1996).
 Separable dual-space Gaussian pseudopotentials.
 https://doi.org/10.1103/PhysRevB.54.1703


 -------------------------------------------------------------------------------
 -                                                                             -
 -                                T I M I N G                                  -
 -                                                                             -
 -------------------------------------------------------------------------------
 SUBROUTINE                       CALLS  ASD         SELF TIME        TOTAL TIME
                                MAXIMUM       AVERAGE  MAXIMUM  AVERAGE  MAXIMUM
 CP2K                                 1  1.0    0.581    0.581  109.748  109.748
 qs_energies                          1  2.0    0.000    0.000  102.983  102.983
 scf_env_do_scf                       1  3.0    0.000    0.000   98.764   98.764
 scf_env_do_scf_inner_loop            9  4.0    0.001    0.001   89.768   89.768
 qs_ks_update_qs_env                 10  5.0    0.000    0.000   70.820   70.820
 rebuild_ks_matrix                    9  6.0    0.000    0.000   70.820   70.820
 qs_ks_build_kohn_sham_matrix         9  7.0    0.002    0.002   70.820   70.820
 fft_wrap_pw1pw2                    388  9.4    0.007    0.007   59.313   59.313
 fft_wrap_pw1pw2_200                160 10.4   15.837   15.837   54.981   54.981
 calculate_vxc_atom                   9  8.0   23.752   23.752   52.039   52.039
 qs_rho_update_rho_low               10  5.0    0.000    0.000   31.180   31.180
 calculate_rho_elec                  30  6.0    1.376    1.376   31.130   31.130
 density_rs2pw                       30  7.0    0.003    0.003   23.914   23.914
 fft3d_s                            389 11.4   23.847   23.847   23.864   23.864
 xc_pw_derive                        54  9.5    0.001    0.001   20.119   20.119
 xc_pw_divergence                     9  9.0    0.001    0.001   13.503   13.503
 pw_scatter_s                       183 12.2   13.341   13.341   13.341   13.341
 sum_up_and_integrate                 9  8.0    0.000    0.000   12.226   12.226
 integrate_v_rspace                  27  9.0    0.019    0.019   12.116   12.116
 potential_pw2rs                     27 10.0    0.075    0.075   11.798   11.798
 init_scf_loop                        1  4.0    0.000    0.000    8.994    8.994
 grid_collocate_task_list            30  7.0    5.840    5.840    5.840    5.840
 qs_init_subsys                       1  2.0    0.001    0.001    5.612    5.612
 qs_env_setup                         1  3.0    0.000    0.000    5.562    5.562
 qs_env_rebuild_pw_env                2  3.5    0.000    0.000    5.562    5.562
 pw_env_rebuild                       1  5.0    0.000    0.000    5.562    5.562
 pw_grid_setup                        5  6.0    0.000    0.000    5.561    5.561
 pw_grid_setup_internal               5  7.0    0.061    0.061    5.561    5.561
 pw_grid_sort                         5  8.0    3.786    3.786    4.841    4.841
 pw_gather_s                        205 10.8    3.812    3.812    3.812    3.812
 fft_wrap_pw1pw2_70                  57 10.4    1.149    1.149    3.675    3.675
 init_scf_run                         1  3.0    0.000    0.000    3.506    3.506
 scf_env_initial_rho_setup            1  4.0    0.000    0.000    3.506    3.506
 pw_poisson_solve                     9  8.0    0.000    0.000    3.155    3.155
 -------------------------------------------------------------------------------

 The number of warnings for this run is : 0
 
 -------------------------------------------------------------------------------
  **** **** ******  **  PROGRAM ENDED AT                 2026-08-25 05:51:36.079
 ***** ** ***  *** **   PROGRAM RAN ON                                spark-c86c
 **    ****   ******    PROGRAM RAN BY                                  kuehne88
 ***** **    ** ** **   PROGRAM PROCESS ID                                628792
  **** **  *******  **  PROGRAM STOPPED IN /home/kuehne88/work/native-skala-spar
                                           k/diet-production-p25/gapwxc-gth-one-
                                           center/b3855c64e9f61158f5e449e2df7b79
                                           bf1fa599d7
