 DBCSR| CPU Multiplication driver                                           BLAS (U)
 DBCSR| Multrec recursion limit                                              512 (U)
 DBCSR| Multiplication stack size                                           1000 (D)
 DBCSR| Maximum elements for images                                    UNLIMITED (U)
 DBCSR| Multiplicative factor virtual images                                   1 (U)
 DBCSR| Use multiplication densification                                       T (D)
 DBCSR| Multiplication size stacks                                             3 (U)
 DBCSR| Use memory pool for CPU allocation                                     F (U)
 DBCSR| OMP: Current number of threads                                         8
 DBCSR| OMP: Max number of threads                                             8
 DBCSR| Split modifier for TAS multiplication algorithm                  1.0E+00 (U)


  **** **** ******  **  PROGRAM STARTED AT               2026-09-01 11:14:16.826
 ***** ** ***  *** **   PROGRAM STARTED ON                                cge069
 **    ****   ******    PROGRAM STARTED BY                              kuehne88
 ***** **    ** ** **   PROGRAM PROCESS ID                               3942992
  **** **  *******  **  PROGRAM STARTED IN /data/home2/kuehne88/cp2k-native-skal
                                           a/goldzak12/runs/production/gapwxc-gt
                                           h/C/v03

 CP2K| version string:                 CP2K version 2026.2 (Development Version)
 CP2K| source code revision number:                                   c1bff3eeb8
 CP2K| cp2kflags: omp fftw3 spglib openblas libtorch libtorch_cuda              
 CP2K| is freely available from                            https://www.cp2k.org/
 CP2K| Program compiled at                                   2026-08-23 23:01:13
 CP2K| Program compiled on                                                cge022
 CP2K| Program compiled for                                               x86_64
 CP2K| Data directory path            /home/kuehne88/cp2k-native-skala/cp2k/data
 CP2K| Input file name                                          actual-input.inp

 GLOBAL| Force Environment number                                              1
 GLOBAL| Basis set file name                             BASIS_MOLOPT_UZH_2026.2
 GLOBAL| Potential file name                                POTENTIAL_UZH_2026.2
 GLOBAL| MM Potential file name                                     MM_POTENTIAL
 GLOBAL| Coordinate file name                                      __STD_INPUT__
 GLOBAL| Method name                                                        CP2K
 GLOBAL| Project name                        G12_C_gapwxc-gth_v0p9444444444_k777
 GLOBAL| Run type                                                         ENERGY
 GLOBAL| FFT library                                                       FFTW3
 GLOBAL| Diagonalization library                                       ScaLAPACK
 GLOBAL| Cholesky decomposition library                                ScaLAPACK
 GLOBAL| DGEMM library                                                      BLAS
 GLOBAL| Direct generalized diagonalization requested                          F
 GLOBAL| Orthonormality check for eigenvectors                          DISABLED
 GLOBAL| Matrix multiplication library                                 ScaLAPACK
 GLOBAL| All-to-all communication in single precision                          F
 GLOBAL| FFTs using library dependent lengths                                  F
 GLOBAL| Grid backend                                                       AUTO
 GLOBAL| Global print level                                               MEDIUM
 GLOBAL| MPI I/O enabled                                                       T
 GLOBAL| Total number of message passing processes                             1
 GLOBAL| Number of distributed systems (nodes)                                 1
 GLOBAL| Number of threads for this process                                    8
 GLOBAL| This output is from process                                           0
 GLOBAL| OpenMP stack size per thread (OMP_STACKSIZE)                       256M
 GLOBAL| CPU model name                          AMD EPYC 9654 96-Core Processor

 MEMORY| system memory details [Kb]
 MEMORY|                        rank 0           min           max       average
 MEMORY| MemTotal           1584791716    1584791716    1584791716    1584791716
 MEMORY| MemFree            1407078868    1407078868    1407078868    1407078868
 MEMORY| Buffers                     0             0             0             0
 MEMORY| Cached               12569104      12569104      12569104      12569104
 MEMORY| Slab                  4043960       4043960       4043960       4043960
 MEMORY| SReclaimable           918028        918028        918028        918028
 MEMORY| MemLikelyFree      1420566000    1420566000    1420566000    1420566000


 *** Fundamental physical constants (SI units) ***

 *** Literature: B. J. Mohr and B. N. Taylor,
 ***             CODATA recommended values of the fundamental physical
 ***             constants: 2006, Web Version 5.1
 ***             http://physics.nist.gov/constants

 Speed of light in vacuum [m/s]                             2.99792458000000E+08
 Magnetic constant or permeability of vacuum [N/A**2]       1.25663706143592E-06
 Electric constant or permittivity of vacuum [F/m]          8.85418781762039E-12
 Planck constant (h) [J*s]                                  6.62606896000000E-34
 Planck constant (h-bar) [J*s]                              1.05457162825177E-34
 Elementary charge [C]                                      1.60217648700000E-19
 Electron mass [kg]                                         9.10938215000000E-31
 Electron g factor [ ]                                     -2.00231930436220E+00
 Proton mass [kg]                                           1.67262163700000E-27
 Fine-structure constant                                    7.29735253760000E-03
 Rydberg constant [1/m]                                     1.09737315685270E+07
 Avogadro constant [1/mol]                                  6.02214179000000E+23
 Boltzmann constant [J/K]                                   1.38065040000000E-23
 Atomic mass unit [kg]                                      1.66053878200000E-27
 Bohr radius [m]                                            5.29177208590000E-11

 *** Conversion factors ***

 [u] -> [a.u.]                                              1.82288848426455E+03
 [Angstrom] -> [Bohr] = [a.u.]                              1.88972613288564E+00
 [a.u.] = [Bohr] -> [Angstrom]                              5.29177208590000E-01
 [a.u.] -> [s]                                              2.41888432650478E-17
 [a.u.] -> [fs]                                             2.41888432650478E-02
 [a.u.] -> [J]                                              4.35974393937059E-18
 [a.u.] -> [N]                                              8.23872205491840E-08
 [a.u.] -> [K]                                              3.15774647902944E+05
 [a.u.] -> [kJ/mol]                                         2.62549961709828E+03
 [a.u.] -> [kcal/mol]                                       6.27509468713739E+02
 [a.u.] -> [Pa]                                             2.94210107994716E+13
 [a.u.] -> [bar]                                            2.94210107994716E+08
 [a.u.] -> [atm]                                            2.90362800883016E+08
 [a.u.] -> [eV]                                             2.72113838565563E+01
 [a.u.] -> [Hz]                                             6.57968392072181E+15
 [a.u.] -> [1/cm] (wave numbers)                            2.19474631370540E+05
 [a.u./Bohr**2] -> [1/cm]                                   5.14048714338585E+03
 

 CELL| Volume [angstrom^3]:                                            42.360594
 CELL| Vector a [angstrom]:       3.486     0.000     0.000   |a| =     3.485946
 CELL| Vector b [angstrom]:       0.000     3.486     0.000   |b| =     3.485946
 CELL| Vector c [angstrom]:       0.000     0.000     3.486   |c| =     3.485946
 CELL| Angle (b,c), alpha [degree]:                                    90.000000
 CELL| Angle (a,c), beta  [degree]:                                    90.000000
 CELL| Angle (a,b), gamma [degree]:                                    90.000000
 CELL| Numerically orthorhombic:                                             YES
 CELL| Periodicity                                                           XYZ

 CELL_REF| Volume [angstrom^3]:                                        42.360594
 CELL_REF| Vector a [angstrom     3.486     0.000     0.000   |a| =     3.485946
 CELL_REF| Vector b [angstrom     0.000     3.486     0.000   |b| =     3.485946
 CELL_REF| Vector c [angstrom     0.000     0.000     3.486   |c| =     3.485946
 CELL_REF| Angle (b,c), alpha [degree]:                                90.000000
 CELL_REF| Angle (a,c), beta  [degree]:                                90.000000
 CELL_REF| Angle (a,b), gamma [degree]:                                90.000000
 CELL_REF| Numerically orthorhombic:                                         YES
 CELL_REF| Periodicity                                                       XYZ

 GENERATE|  Preliminary Number of Bonds generated:                             0
 GENERATE|  Achieved consistency in connectivity generation.

 *******************************************************************************
 *******************************************************************************
 **                                                                           **
 **     #####                         ##              ##                      **
 **    ##   ##            ##          ##              ##                      **
 **   ##     ##                       ##            ######                    **
 **   ##     ##  ##   ##  ##   #####  ##  ##   ####   ##    #####    #####    **
 **   ##     ##  ##   ##  ##  ##      ## ##   ##      ##   ##   ##  ##   ##   **
 **   ##  ## ##  ##   ##  ##  ##      ####     ###    ##   ######   ######    **
 **    ##  ###   ##   ##  ##  ##      ## ##      ##   ##   ##       ##        **
 **     #######   #####   ##   #####  ##  ##  ####    ##    #####   ##        **
 **           ##                                                    ##        **
 **                                                                           **
 **                                                ... make the atoms dance   **
 **                                                                           **
 **            Copyright (C) by CP2K developers group (2000-2026)             **
 **                      J. Chem. Phys. 152, 194103 (2020)                    **
 **                                                                           **
 *******************************************************************************

 DFT| Spin restricted Kohn-Sham (RKS) calculation                            RKS
 DFT| Multiplicity                                                             1
 DFT| Number of spin states                                                    1
 DFT| Charge                                                                   0
 DFT| Self-interaction correction (SIC)                                       NO
 DFT| Cutoffs: density                                              1.000000E-10
 DFT|          gradient                                             1.000000E-10
 DFT|          tau                                                  1.000000E-10
 DFT|          cutoff_smoothing_range                               0.000000E+00
 DFT| XC density smoothing                                                  NONE
 DFT| XC derivatives                                                          PW

 FUNCTIONAL| GAUXC:
 FUNCTIONAL| Functional computed by GauXC Skala model SKALA                     

 vdW POTENTIAL|                                                   Pair Potential
 vdW POTENTIAL|          DFT-D3 (Version 3.1)
 vdW POTENTIAL|          Potential Form: S. Grimme et al, JCP 132: 154104 (2010)
 vdW POTENTIAL|          BJ Damping: S. Grimme et al, JCC 32: 1456 (2011)
 vdW POTENTIAL|          Cutoff Radius [Bohr]:                             37.79
 vdW POTENTIAL|          s6 Scaling Factor:                               1.0000
 vdW POTENTIAL|          a1 Damping Factor:                               0.3981
 vdW POTENTIAL|          s8 Scaling Factor:                               1.9889
 vdW POTENTIAL|          a2 Damping Factor:                               4.4211
 vdW POTENTIAL|          Cutoff for CN calculation:                   0.1000E-05

 QS| Method:                                                             GAPW_XC
 QS| Density plane wave grid type                        NON-SPHERICAL FULLSPACE
 QS| Number of grid levels:                                                    5
 QS| Density cutoff [a.u.]:                                                400.0
 QS| Multi grid cutoff [a.u.]: 1) grid level                               400.0
 QS|                           2) grid level                               133.3
 QS|                           3) grid level                                44.4
 QS|                           4) grid level                                14.8
 QS|                           5) grid level                                 4.9
 QS| Grid level progression factor:                                          3.0
 QS| Relative density cutoff [a.u.]:                                        30.0
 QS| Interaction thresholds: eps_pgf_orb:                                1.0E-06
 QS|                         eps_filter_matrix:                          0.0E+00
 QS|                         eps_core_charge:                            1.0E-14
 QS|                         eps_rho_gspace:                             1.0E-12
 QS|                         eps_rho_rspace:                             1.0E-12
 QS|                         eps_gvg_rspace:                             1.0E-06
 QS|                         eps_ppl:                                    1.0E-02
 QS|                         eps_ppnl:                                   1.0E-08
 QS| GAPW_XC|      One center basis extended with primitives (small:s)
 QS| GAPW_XC|                eps_fit:                                    1.0E-04
 QS| GAPW_XC|                eps_iso:                                    1.0E-12
 QS| GAPW_XC|                eps_svd:                                    1.0E-08
 QS| GAPW_XC|atom-r-grid: quadrature:                 GC_LOG                        
 QS| GAPW_XC|   atom-s-grid:  max l :                                          6


 ATOMIC KIND INFORMATION

  1. Atomic kind: C                                     Number of atoms:       8

     Orbital Basis Set                                   TZV2P-MOLOPT-PBE-GTH-q4

       Number of orbital shell sets:                                           1
       Number of orbital shells:                                               9
       Number of primitive Cartesian functions:                                5
       Number of Cartesian basis functions:                                   34
       Number of spherical basis functions:                                   29
       Norm type:                                                              2

       Normalised Cartesian orbitals:

                        Set   Shell   Orbital            Exponent    Coefficient

                          1       1    2s                5.599010      -0.388516
                                                         2.008517      -0.222960
                                                         0.755557       0.256069
                                                         0.292158       0.177682
                                                         0.105328       0.019401

                          1       2    3s                5.599010       0.700337
                                                         2.008517       0.202467
                                                         0.755557      -0.073086
                                                         0.292158      -0.004274
                                                         0.105328       0.122810

                          1       3    4s                5.599010      -2.176345
                                                         2.008517      -0.220775
                                                         0.755557       0.109238
                                                         0.292158      -0.129517
                                                         0.105328       0.038801

                          1       4    3px               5.599010      -0.769001
                                                         2.008517      -0.634471
                                                         0.755557      -0.400220
                                                         0.292158      -0.124705
                                                         0.105328      -0.014325
                          1       4    3py               5.599010      -0.769001
                                                         2.008517      -0.634471
                                                         0.755557      -0.400220
                                                         0.292158      -0.124705
                                                         0.105328      -0.014325
                          1       4    3pz               5.599010      -0.769001
                                                         2.008517      -0.634471
                                                         0.755557      -0.400220
                                                         0.292158      -0.124705
                                                         0.105328      -0.014325

                          1       5    4px               5.599010       0.895802
                                                         2.008517       0.817480
                                                         0.755557       0.269326
                                                         0.292158       0.009009
                                                         0.105328      -0.085852
                          1       5    4py               5.599010       0.895802
                                                         2.008517       0.817480
                                                         0.755557       0.269326
                                                         0.292158       0.009009
                                                         0.105328      -0.085852
                          1       5    4pz               5.599010       0.895802
                                                         2.008517       0.817480
                                                         0.755557       0.269326
                                                         0.292158       0.009009
                                                         0.105328      -0.085852

                          1       6    5px               5.599010       1.029767
                                                         2.008517       2.903527
                                                         0.755557       0.336187
                                                         0.292158      -0.258025
                                                         0.105328       0.023472
                          1       6    5py               5.599010       1.029767
                                                         2.008517       2.903527
                                                         0.755557       0.336187
                                                         0.292158      -0.258025
                                                         0.105328       0.023472
                          1       6    5pz               5.599010       1.029767
                                                         2.008517       2.903527
                                                         0.755557       0.336187
                                                         0.292158      -0.258025
                                                         0.105328       0.023472

                          1       7    4dx2              5.599010      -4.629244
                                                         2.008517       1.670071
                                                         0.755557       0.309368
                                                         0.292158       0.124707
                                                         0.105328      -0.001260
                          1       7    4dxy              5.599010      -8.018085
                                                         2.008517       2.892648
                                                         0.755557       0.535841
                                                         0.292158       0.215998
                                                         0.105328      -0.002182
                          1       7    4dxz              5.599010      -8.018085
                                                         2.008517       2.892648
                                                         0.755557       0.535841
                                                         0.292158       0.215998
                                                         0.105328      -0.002182
                          1       7    4dy2              5.599010      -4.629244
                                                         2.008517       1.670071
                                                         0.755557       0.309368
                                                         0.292158       0.124707
                                                         0.105328      -0.001260
                          1       7    4dyz              5.599010      -8.018085
                                                         2.008517       2.892648
                                                         0.755557       0.535841
                                                         0.292158       0.215998
                                                         0.105328      -0.002182
                          1       7    4dz2              5.599010      -4.629244
                                                         2.008517       1.670071
                                                         0.755557       0.309368
                                                         0.292158       0.124707
                                                         0.105328      -0.001260

                          1       8    5dx2              5.599010      -0.765539
                                                         2.008517       0.044731
                                                         0.755557       0.033894
                                                         0.292158       0.006499
                                                         0.105328       0.031042
                          1       8    5dxy              5.599010      -1.325952
                                                         2.008517       0.077477
                                                         0.755557       0.058707
                                                         0.292158       0.011257
                                                         0.105328       0.053766
                          1       8    5dxz              5.599010      -1.325952
                                                         2.008517       0.077477
                                                         0.755557       0.058707
                                                         0.292158       0.011257
                                                         0.105328       0.053766
                          1       8    5dy2              5.599010      -0.765539
                                                         2.008517       0.044731
                                                         0.755557       0.033894
                                                         0.292158       0.006499
                                                         0.105328       0.031042
                          1       8    5dyz              5.599010      -1.325952
                                                         2.008517       0.077477
                                                         0.755557       0.058707
                                                         0.292158       0.011257
                                                         0.105328       0.053766
                          1       8    5dz2              5.599010      -0.765539
                                                         2.008517       0.044731
                                                         0.755557       0.033894
                                                         0.292158       0.006499
                                                         0.105328       0.031042

                          1       9    5fx3              5.599010      -0.150044
                                                         2.008517      -0.042629
                                                         0.755557       0.009866
                                                         0.292158       0.091648
                                                         0.105328       0.000020
                          1       9    5fx2y             5.599010      -0.335509
                                                         2.008517      -0.095321
                                                         0.755557       0.022061
                                                         0.292158       0.204931
                                                         0.105328       0.000045
                          1       9    5fx2z             5.599010      -0.335509
                                                         2.008517      -0.095321
                                                         0.755557       0.022061
                                                         0.292158       0.204931
                                                         0.105328       0.000045
                          1       9    5fxy2             5.599010      -0.335509
                                                         2.008517      -0.095321
                                                         0.755557       0.022061
                                                         0.292158       0.204931
                                                         0.105328       0.000045
                          1       9    5fxyz             5.599010      -0.581119
                                                         2.008517      -0.165100
                                                         0.755557       0.038210
                                                         0.292158       0.354951
                                                         0.105328       0.000078
                          1       9    5fxz2             5.599010      -0.335509
                                                         2.008517      -0.095321
                                                         0.755557       0.022061
                                                         0.292158       0.204931
                                                         0.105328       0.000045
                          1       9    5fy3              5.599010      -0.150044
                                                         2.008517      -0.042629
                                                         0.755557       0.009866
                                                         0.292158       0.091648
                                                         0.105328       0.000020
                          1       9    5fy2z             5.599010      -0.335509
                                                         2.008517      -0.095321
                                                         0.755557       0.022061
                                                         0.292158       0.204931
                                                         0.105328       0.000045
                          1       9    5fyz2             5.599010      -0.335509
                                                         2.008517      -0.095321
                                                         0.755557       0.022061
                                                         0.292158       0.204931
                                                         0.105328       0.000045
                          1       9    5fz3              5.599010      -0.150044
                                                         2.008517      -0.042629
                                                         0.755557       0.009866
                                                         0.292158       0.091648
                                                         0.105328       0.000020

       Atomic covalent radius [Angstrom]:                                  0.770

       Atomic van der Waals radius [Angstrom]:                             1.700

     The atoms of this atomic kind are PAW atoms (GAPW):
       Hard Gaussian function radius:                                      1.520
       Rho0 radius:                                                        1.520
       Maximum GTO radius used for PAW projector construction:            24.566

     GAPW Soft Basis Set                            TZV2P-MOLOPT-PBE-GTH-q4_soft

       Number of orbital shell sets:                                           1
       Number of orbital shells:                                               9
       Number of primitive Cartesian functions:                                4
       Number of Cartesian basis functions:                                   34
       Number of spherical basis functions:                                   29
       Norm type:                                                              2

       Normalised Cartesian orbitals:

                        Set   Shell   Orbital            Exponent    Coefficient

                          1       1    2s                2.008517      -0.222960
                                                         0.755557       0.256069
                                                         0.292158       0.177682
                                                         0.105328       0.019401

                          1       2    3s                2.008517       0.202467
                                                         0.755557      -0.073086
                                                         0.292158      -0.004274
                                                         0.105328       0.122810

                          1       3    4s                2.008517      -0.220775
                                                         0.755557       0.109238
                                                         0.292158      -0.129517
                                                         0.105328       0.038801

                          1       4    3px               2.008517      -0.634471
                                                         0.755557      -0.400220
                                                         0.292158      -0.124705
                                                         0.105328      -0.014325
                          1       4    3py               2.008517      -0.634471
                                                         0.755557      -0.400220
                                                         0.292158      -0.124705
                                                         0.105328      -0.014325
                          1       4    3pz               2.008517      -0.634471
                                                         0.755557      -0.400220
                                                         0.292158      -0.124705
                                                         0.105328      -0.014325

                          1       5    4px               2.008517       0.817480
                                                         0.755557       0.269326
                                                         0.292158       0.009009
                                                         0.105328      -0.085852
                          1       5    4py               2.008517       0.817480
                                                         0.755557       0.269326
                                                         0.292158       0.009009
                                                         0.105328      -0.085852
                          1       5    4pz               2.008517       0.817480
                                                         0.755557       0.269326
                                                         0.292158       0.009009
                                                         0.105328      -0.085852

                          1       6    5px               2.008517       2.903527
                                                         0.755557       0.336187
                                                         0.292158      -0.258025
                                                         0.105328       0.023472
                          1       6    5py               2.008517       2.903527
                                                         0.755557       0.336187
                                                         0.292158      -0.258025
                                                         0.105328       0.023472
                          1       6    5pz               2.008517       2.903527
                                                         0.755557       0.336187
                                                         0.292158      -0.258025
                                                         0.105328       0.023472

                          1       7    4dx2              2.008517       1.670071
                                                         0.755557       0.309368
                                                         0.292158       0.124707
                                                         0.105328      -0.001260
                          1       7    4dxy              2.008517       2.892648
                                                         0.755557       0.535841
                                                         0.292158       0.215998
                                                         0.105328      -0.002182
                          1       7    4dxz              2.008517       2.892648
                                                         0.755557       0.535841
                                                         0.292158       0.215998
                                                         0.105328      -0.002182
                          1       7    4dy2              2.008517       1.670071
                                                         0.755557       0.309368
                                                         0.292158       0.124707
                                                         0.105328      -0.001260
                          1       7    4dyz              2.008517       2.892648
                                                         0.755557       0.535841
                                                         0.292158       0.215998
                                                         0.105328      -0.002182
                          1       7    4dz2              2.008517       1.670071
                                                         0.755557       0.309368
                                                         0.292158       0.124707
                                                         0.105328      -0.001260

                          1       8    5dx2              2.008517       0.044731
                                                         0.755557       0.033894
                                                         0.292158       0.006499
                                                         0.105328       0.031042
                          1       8    5dxy              2.008517       0.077477
                                                         0.755557       0.058707
                                                         0.292158       0.011257
                                                         0.105328       0.053766
                          1       8    5dxz              2.008517       0.077477
                                                         0.755557       0.058707
                                                         0.292158       0.011257
                                                         0.105328       0.053766
                          1       8    5dy2              2.008517       0.044731
                                                         0.755557       0.033894
                                                         0.292158       0.006499
                                                         0.105328       0.031042
                          1       8    5dyz              2.008517       0.077477
                                                         0.755557       0.058707
                                                         0.292158       0.011257
                                                         0.105328       0.053766
                          1       8    5dz2              2.008517       0.044731
                                                         0.755557       0.033894
                                                         0.292158       0.006499
                                                         0.105328       0.031042

                          1       9    5fx3              2.008517      -0.042629
                                                         0.755557       0.009866
                                                         0.292158       0.091648
                                                         0.105328       0.000020
                          1       9    5fx2y             2.008517      -0.095321
                                                         0.755557       0.022061
                                                         0.292158       0.204931
                                                         0.105328       0.000045
                          1       9    5fx2z             2.008517      -0.095321
                                                         0.755557       0.022061
                                                         0.292158       0.204931
                                                         0.105328       0.000045
                          1       9    5fxy2             2.008517      -0.095321
                                                         0.755557       0.022061
                                                         0.292158       0.204931
                                                         0.105328       0.000045
                          1       9    5fxyz             2.008517      -0.165100
                                                         0.755557       0.038210
                                                         0.292158       0.354951
                                                         0.105328       0.000078
                          1       9    5fxz2             2.008517      -0.095321
                                                         0.755557       0.022061
                                                         0.292158       0.204931
                                                         0.105328       0.000045
                          1       9    5fy3              2.008517      -0.042629
                                                         0.755557       0.009866
                                                         0.292158       0.091648
                                                         0.105328       0.000020
                          1       9    5fy2z             2.008517      -0.095321
                                                         0.755557       0.022061
                                                         0.292158       0.204931
                                                         0.105328       0.000045
                          1       9    5fyz2             2.008517      -0.095321
                                                         0.755557       0.022061
                                                         0.292158       0.204931
                                                         0.105328       0.000045
                          1       9    5fz3              2.008517      -0.042629
                                                         0.755557       0.009866
                                                         0.292158       0.091648
                                                         0.105328       0.000020

     GTH Potential information for                                    GTH-PBE-q4

       Description:                       Goedecker-Teter-Hutter pseudopotential
                                           Goedecker et al., PRB 54, 1703 (1996)
                                          Hartwigsen et al., PRB 58, 3641 (1998)
                                                      Krack, TCA 114, 145 (2005)

       Gaussian exponent of the core charge distribution:               4.362265
       Electronic configuration (s p d ...):                       2   2   0   0

       Parameters of the local part of the GTH pseudopotential:

                          rloc        C1          C2          C3          C4
                        0.338555   -8.804552    1.338377

       Parameters of the non-local part of the GTH pseudopotential:

                   l      r(l)      h(i,j,l)

                   0    0.302610    9.622862


 MOLECULE KIND INFORMATION


 All atoms are their own molecule, skipping detailed information


 TOTAL NUMBERS AND MAXIMUM NUMBERS

  Total number of            - Atomic kinds:                                   1
                             - Atoms:                                          8
                             - Shell sets:                                     8
                             - Shells:                                        72
                             - Primitive Cartesian functions:                 40
                             - Cartesian basis functions:                    272
                             - Spherical basis functions:                    232

  Maximum angular momentum of- Orbital basis functions:                        3
                             - Local part of the GTH pseudopotential:          2
                             - Non-local part of the GTH pseudopotential:      0


 MODULE QUICKSTEP: ATOMIC COORDINATES IN ANGSTROM

   Atom Kind Element         X             Y             Z       Z(eff)     Mass
      1    1 C     6      0.000000      0.000000      0.000000   4.0000  12.0107
      2    1 C     6      0.000000      1.742973      1.742973   4.0000  12.0107
      3    1 C     6      1.742973      0.000000      1.742973   4.0000  12.0107
      4    1 C     6      1.742973      1.742973      0.000000   4.0000  12.0107
      5    1 C     6      0.871487      0.871487      0.871487   4.0000  12.0107
      6    1 C     6      0.871487      2.614460      2.614460   4.0000  12.0107
      7    1 C     6      2.614460      0.871487      2.614460   4.0000  12.0107
      8    1 C     6      2.614460      2.614460      0.871487   4.0000  12.0107



 SCF PARAMETERS         Density guess:                                    ATOMIC
                        --------------------------------------------------------
                        max_scf:                                             200
                        max_scf_history:                                       0
                        max_diis:                                              4
                        --------------------------------------------------------
                        eps_scf:                                        5.00E-06
                        eps_scf_history:                                0.00E+00
                        eps_diis:                                       1.00E-01
                        eps_eigval:                                     1.00E-05
                        --------------------------------------------------------
                        level_shift [a.u.]:                             0.000000
                        --------------------------------------------------------
                        Mixing method:                           DIRECT_P_MIXING
                        --------------------------------------------------------
                        Outer loop SCF in use 
                        No variables optimised in outer loop
                        eps_scf                                         5.00E-06
                        max_scf                                                5
                        No outer loop optimization
                        step_size                                       5.00E-01

 PW_GRID| Information for grid number                                          1
 PW_GRID| Cutoff [a.u.]                                                    400.0
 PW_GRID| spherical cutoff:                                                   NO
 PW_GRID|   Bounds   1            -30      29                Points:          60
 PW_GRID|   Bounds   2            -30      29                Points:          60
 PW_GRID|   Bounds   3            -30      29                Points:          60
 PW_GRID| Volume element (a.u.^3)  0.1323E-02     Volume (a.u.^3)       285.8635
 PW_GRID| Grid span                                                    FULLSPACE

 PW_GRID| Information for grid number                                          2
 PW_GRID| Number of the reference grid                                         1
 PW_GRID| Cutoff [a.u.]                                                    133.3
 PW_GRID| spherical cutoff:                                                   NO
 PW_GRID|   Bounds   1            -18      17                Points:          36
 PW_GRID|   Bounds   2            -18      17                Points:          36
 PW_GRID|   Bounds   3            -18      17                Points:          36
 PW_GRID| Volume element (a.u.^3)  0.6127E-02     Volume (a.u.^3)       285.8635
 PW_GRID| Grid span                                                    FULLSPACE

 PW_GRID| Information for grid number                                          3
 PW_GRID| Number of the reference grid                                         1
 PW_GRID| Cutoff [a.u.]                                                     44.4
 PW_GRID| spherical cutoff:                                                   NO
 PW_GRID|   Bounds   1            -10       9                Points:          20
 PW_GRID|   Bounds   2            -10       9                Points:          20
 PW_GRID|   Bounds   3            -10       9                Points:          20
 PW_GRID| Volume element (a.u.^3)  0.3573E-01     Volume (a.u.^3)       285.8635
 PW_GRID| Grid span                                                    FULLSPACE

 PW_GRID| Information for grid number                                          4
 PW_GRID| Number of the reference grid                                         1
 PW_GRID| Cutoff [a.u.]                                                     14.8
 PW_GRID| spherical cutoff:                                                   NO
 PW_GRID|   Bounds   1             -6       5                Points:          12
 PW_GRID|   Bounds   2             -6       5                Points:          12
 PW_GRID|   Bounds   3             -6       5                Points:          12
 PW_GRID| Volume element (a.u.^3)  0.1654         Volume (a.u.^3)       285.8635
 PW_GRID| Grid span                                                    FULLSPACE

 PW_GRID| Information for grid number                                          5
 PW_GRID| Number of the reference grid                                         1
 PW_GRID| Cutoff [a.u.]                                                      4.9
 PW_GRID| spherical cutoff:                                                   NO
 PW_GRID|   Bounds   1             -4       3                Points:           8
 PW_GRID|   Bounds   2             -4       3                Points:           8
 PW_GRID|   Bounds   3             -4       3                Points:           8
 PW_GRID| Volume element (a.u.^3)  0.5583         Volume (a.u.^3)       285.8635
 PW_GRID| Grid span                                                    FULLSPACE

 POISSON| Solver                                                        PERIODIC
 POISSON| Periodicity                                                        XYZ

 RS_GRID| Information for grid number                                          1
 RS_GRID|   Bounds   1            -30      29                Points:          60
 RS_GRID|   Bounds   2            -30      29                Points:          60
 RS_GRID|   Bounds   3            -30      29                Points:          60

 RS_GRID| Information for grid number                                          2
 RS_GRID|   Bounds   1            -18      17                Points:          36
 RS_GRID|   Bounds   2            -18      17                Points:          36
 RS_GRID|   Bounds   3            -18      17                Points:          36

 RS_GRID| Information for grid number                                          3
 RS_GRID|   Bounds   1            -10       9                Points:          20
 RS_GRID|   Bounds   2            -10       9                Points:          20
 RS_GRID|   Bounds   3            -10       9                Points:          20

 RS_GRID| Information for grid number                                          4
 RS_GRID|   Bounds   1             -6       5                Points:          12
 RS_GRID|   Bounds   2             -6       5                Points:          12
 RS_GRID|   Bounds   3             -6       5                Points:          12

 RS_GRID| Information for grid number                                          5
 RS_GRID|   Bounds   1             -4       3                Points:           8
 RS_GRID|   Bounds   2             -4       3                Points:           8
 RS_GRID|   Bounds   3             -4       3                Points:           8

 *******************************************************************************
                                    Kpoints
 *******************************************************************************
 BRILLOUIN| K-point scheme                                        Monkhorst-Pack
 BRILLOUIN| K-Point grid                                             7    7    7
 BRILLOUIN| Gamma-centered k-point mesh                                     ON
 BRILLOUIN| K-point symmetry accuracy                               0.100000E-07
 BRILLOUIN| K-Point point group symmetrization                                ON
 BRILLOUIN| Symmetry backend                                               K290
 BRILLOUIN| Symmetry reduction method                                      K290
 BRILLOUIN| Wavefunction type                                            COMPLEX
 BRILLOUIN| List of Kpoints [2 Pi/Bohr]                                       20
 BRILLOUIN| Number           Weight            X              Y              Z
 BRILLOUIN|     1           0.02332       -0.42857       -0.42857       -0.42857
 BRILLOUIN|     2           0.06997       -0.42857       -0.42857       -0.28571
 BRILLOUIN|     3           0.06997       -0.42857       -0.42857       -0.14286
 BRILLOUIN|     4           0.03499       -0.42857       -0.42857        0.00000
 BRILLOUIN|     5           0.06997       -0.42857       -0.28571       -0.28571
 BRILLOUIN|     6           0.13994       -0.42857       -0.28571       -0.14286
 BRILLOUIN|     7           0.06997       -0.42857       -0.28571        0.00000
 BRILLOUIN|     8           0.06997       -0.42857       -0.14286       -0.14286
 BRILLOUIN|     9           0.06997       -0.42857       -0.14286        0.00000
 BRILLOUIN|    10           0.01749       -0.42857        0.00000        0.00000
 BRILLOUIN|    11           0.02332       -0.28571       -0.28571       -0.28571
 BRILLOUIN|    12           0.06997       -0.28571       -0.28571       -0.14286
 BRILLOUIN|    13           0.03499       -0.28571       -0.28571        0.00000
 BRILLOUIN|    14           0.06997       -0.28571       -0.14286       -0.14286
 BRILLOUIN|    15           0.06997       -0.28571       -0.14286        0.00000
 BRILLOUIN|    16           0.01749       -0.28571        0.00000        0.00000
 BRILLOUIN|    17           0.02332       -0.14286       -0.14286       -0.14286
 BRILLOUIN|    18           0.03499       -0.14286       -0.14286        0.00000
 BRILLOUIN|    19           0.01749       -0.14286        0.00000        0.00000
 BRILLOUIN|    20           0.00292        0.00000        0.00000        0.00000
 *******************************************************************************

 Extrapolation method: initial_guess

 Atomic guess: The first density matrix is obtained in terms of atomic orbitals
               and electronic configurations assigned to each atomic kind

 Guess for atomic kind: C

 Electronic structure
    Total number of core electrons                                          2.00
    Total number of valence electrons                                       4.00
    Total number of electrons                                               6.00
    Multiplicity                                                   not specified
    S   [  2.00] 2.00
    P      2.00


 *******************************************************************************
                  Iteration          Convergence                     Energy [au]
 *******************************************************************************
                          1        0.117779                      -5.273315477849
                          2        0.811746E-01                  -5.277882950325
                          3        0.375808E-03                  -5.282044538817
                          4        0.116303E-03                  -5.282044581600
                          5        0.136159E-06                  -5.282044589276

 Energy components [Hartree]           Total Energy ::           -5.282044589276
                                        Band Energy ::           -1.313808155897
                                     Kinetic Energy ::            3.394620915655
                                   Potential Energy ::           -8.676665504931
                                      Virial (-V/T) ::            2.556004255119
                                        Core Energy ::           -8.294411848339
                                          XC Energy ::           -1.378447971455
                                     Coulomb Energy ::            4.390815230518
                       Total Pseudopotential Energy ::          -11.723548360395
                       Local Pseudopotential Energy ::          -12.387857835263
                    Nonlocal Pseudopotential Energy ::            0.664309474867
                                        Confinement ::            0.345155964011

 Orbital energies  State     L     Occupation   Energy[a.u.]          Energy[eV]

                       1     0          2.000      -0.483294          -13.151096

                       1     1          2.000      -0.173610           -4.724173


 Total Electron Density at R=0:                                         0.000017
 Re-scaling the density matrix to get the right number of electrons
                  # Electrons              Trace(P)               Scaling factor
                           32                32.000                        1.000

 Number of electrons:                                                         32
 Number of occupied orbitals:                                                 16
 Number of molecular orbitals:                                                16

 Number of orbital functions:                                                232
 Number of independent orbital functions:                                    232


 SCF WAVEFUNCTION OPTIMIZATION

  Step     Update method      Time    Convergence         Total energy    Change
  ------------------------------------------------------------------------------

 *** WARNING in qs_ks_methods.F:773 :: Native SKALA grid evaluation with   ***
 *** k-points is using the CPU TorchScript path. Use a mutually compatible ***
 *** BLAS, ScaLAPACK, OpenMP, and LibTorch runtime stack, or select        ***
 *** NATIVE_GRID_USE_CUDA T.                                               ***

 SKALA_GPW| Atom-composite cross support/maxima   2.392386413358E+00   5.716180175681E-02   1.384382246900E-01   7.740169095123E-01
 SKALA_GPW| Active atom-composite XC energy  -1.3995409674953933E+01
 SKALA_GPW| Active atom-composite electrons   3.2058011238645491E+01
 SKALA_GPW| Active atom-composite density range   1.1147702025077207E-02   1.2867400034329932E-01
 SKALA_GPW| Active atom-composite tau range   8.7634747185711855E-03   1.2799738019086755E+00
 SKALA_GPW| Active atom-composite tau integral   2.7191132848551899E+01
 SKALA_GPW| Active atom-composite max gradient   2.8396464080866735E-01
     1 P_Mix/Diag. 0.10E+00  784.0     0.56965583       -47.1812190913 -4.72E+01
 SKALA_GPW| Atom-composite cross support/maxima   2.392386413358E+00   5.524082784133E-02   1.419238592550E-01   8.290234343223E-01
 SKALA_GPW| Active atom-composite XC energy  -1.4006009028603849E+01
 SKALA_GPW| Active atom-composite electrons   3.2056264646752965E+01
 SKALA_GPW| Active atom-composite density range   1.0034932305138154E-02   1.3167998731092367E-01
 SKALA_GPW| Active atom-composite tau range   8.7654732211784273E-03   1.3662406619873777E+00
 SKALA_GPW| Active atom-composite tau integral   2.8133539933498234E+01
 SKALA_GPW| Active atom-composite max gradient   2.9418547020677982E-01
     2 P_Mix/Diag. 0.10E+00  738.5     0.51873067       -46.9983118540  1.83E-01
 SKALA_GPW| Atom-composite cross support/maxima   2.392386413358E+00   5.337402297167E-02   1.443811404236E-01   8.737276050239E-01
 SKALA_GPW| Active atom-composite XC energy  -1.4024425409153631E+01
 SKALA_GPW| Active atom-composite electrons   3.2054674433977652E+01
 SKALA_GPW| Active atom-composite density range   9.0330848598984756E-03   1.3431710216443243E-01
 SKALA_GPW| Active atom-composite tau range   8.7679839196902181E-03   1.4382397164510330E+00
 SKALA_GPW| Active atom-composite tau integral   2.8965086186803610E+01
 SKALA_GPW| Active atom-composite max gradient   3.0269255071292295E-01
     3 P_Mix/Diag. 0.10E+00  742.4     0.49932528       -46.8393643618  1.59E-01
 SKALA_GPW| Atom-composite cross support/maxima   2.392386413358E+00   5.164646451293E-02   1.465194697990E-01   9.137570171335E-01
 SKALA_GPW| Active atom-composite XC energy  -1.4048112069616749E+01
 SKALA_GPW| Active atom-composite electrons   3.2053221745895833E+01
 SKALA_GPW| Active atom-composite density range   8.1314392981909900E-03   1.3668592805325314E-01
 SKALA_GPW| Active atom-composite tau range   8.7686560363929526E-03   1.5025538798624760E+00
 SKALA_GPW| Active atom-composite tau integral   2.9712450964188438E+01
 SKALA_GPW| Active atom-composite max gradient   3.1022750868579529E-01
     4 P_Mix/Diag. 0.10E+00  739.4     0.47433158       -46.7003993872  1.39E-01
 SKALA_GPW| Atom-composite cross support/maxima   2.392386413358E+00   5.005449576449E-02   1.483317100969E-01   9.491366996231E-01
 SKALA_GPW| Active atom-composite XC energy  -1.4073928678639758E+01
 SKALA_GPW| Active atom-composite electrons   3.2051906672646552E+01
 SKALA_GPW| Active atom-composite density range   7.3199029650382261E-03   1.3877630782817757E-01
 SKALA_GPW| Active atom-composite tau range   8.7711590933815878E-03   1.5594124692279832E+00
 SKALA_GPW| Active atom-composite tau integral   3.0380502610413849E+01
 SKALA_GPW| Active atom-composite max gradient   3.1695229673428371E-01
     5 P_Mix/Diag. 0.10E+00  740.9     0.44874558       -46.5776426968  1.23E-01
 SKALA_GPW| Atom-composite cross support/maxima   2.392386413358E+00   4.860173476854E-02   1.499228789946E-01   9.807985451107E-01
 SKALA_GPW| Active atom-composite XC energy  -1.4099955633028687E+01
 SKALA_GPW| Active atom-composite electrons   3.2050723371158924E+01
 SKALA_GPW| Active atom-composite density range   6.5895027139321743E-03   1.4061965901237644E-01
 SKALA_GPW| Active atom-composite tau range   8.7760696782540858E-03   1.6101154192760916E+00
 SKALA_GPW| Active atom-composite tau integral   3.0978086883995385E+01
 SKALA_GPW| Active atom-composite max gradient   3.2338217711464867E-01
     6 P_Mix/Diag. 0.10E+00  735.6     0.42074414       -46.4683380832  1.09E-01
 SKALA_GPW| Atom-composite cross support/maxima   2.392386413358E+00   4.728009459071E-02   1.513164728511E-01   1.009066499018E+00
 SKALA_GPW| Active atom-composite XC energy  -1.4125018796386769E+01
 SKALA_GPW| Active atom-composite electrons   3.2049664166270020E+01
 SKALA_GPW| Active atom-composite density range   5.9321273750741199E-03   1.4224131376265545E-01
 SKALA_GPW| Active atom-composite tau range   8.7835216110154248E-03   1.6552590409078276E+00
 SKALA_GPW| Active atom-composite tau integral   3.1511819468453698E+01
 SKALA_GPW| Active atom-composite max gradient   3.2906765852625075E-01
     7 P_Mix/Diag. 0.10E+00  742.8     0.39212780       -46.3704712512  9.79E-02
 SKALA_GPW| Atom-composite cross support/maxima   2.392386413358E+00   4.608044728663E-02   1.525361168724E-01   1.034267830273E+00
 SKALA_GPW| Active atom-composite XC energy  -1.4148517358083113E+01
 SKALA_GPW| Active atom-composite electrons   3.2048719291886805E+01
 SKALA_GPW| Active atom-composite density range   5.3404814198402262E-03   1.4366446851188808E-01
 SKALA_GPW| Active atom-composite tau range   8.7933042060368873E-03   1.6954123298856285E+00
 SKALA_GPW| Active atom-composite tau integral   3.1988009715572666E+01
 SKALA_GPW| Active atom-composite max gradient   3.3409169128826033E-01
     8 P_Mix/Diag. 0.10E+00  744.1     0.36319420       -46.2825624987  8.79E-02
 SKALA_GPW| Atom-composite cross support/maxima   2.392386413358E+00   4.499200337973E-02   1.535820668703E-01   1.056531455659E+00
 SKALA_GPW| Active atom-composite XC energy  -1.4170164901992608E+01
 SKALA_GPW| Active atom-composite electrons   3.2047878702882620E+01
 SKALA_GPW| Active atom-composite density range   4.8079853330887448E-03   1.4490835770079682E-01
 SKALA_GPW| Active atom-composite tau range   8.8052758720907759E-03   1.7309044239277740E+00
 SKALA_GPW| Active atom-composite tau integral   3.2411960552056193E+01
 SKALA_GPW| Active atom-composite max gradient   3.3850480741060968E-01
     9 P_Mix/Diag. 0.10E+00  750.1     0.33642840       -46.2034613427  7.91E-02
 SKALA_GPW| Atom-composite cross support/maxima   2.392386413358E+00   4.400679265082E-02   1.554010970937E-01   1.076383201085E+00
 SKALA_GPW| Active atom-composite XC energy  -1.4189899897542158E+01
 SKALA_GPW| Active atom-composite electrons   3.2047131788037042E+01
 SKALA_GPW| Active atom-composite density range   4.3287452105896726E-03   1.4599450557145507E-01
 SKALA_GPW| Active atom-composite tau range   8.8189622109577284E-03   1.7624734594356459E+00
 SKALA_GPW| Active atom-composite tau integral   3.2789794493434250E+01
 SKALA_GPW| Active atom-composite max gradient   3.4240512934001921E-01
    10 P_Mix/Diag. 0.10E+00  740.5     0.31088045       -46.1322140562  7.12E-02
 SKALA_GPW| Atom-composite cross support/maxima   2.392386413358E+00   4.311592096824E-02   1.570642199698E-01   1.094054400767E+00
 SKALA_GPW| Active atom-composite XC energy  -1.4207763152909793E+01
 SKALA_GPW| Active atom-composite electrons   3.2046468914783048E+01
 SKALA_GPW| Active atom-composite density range   3.8974359327305155E-03   1.4694086292919736E-01
 SKALA_GPW| Active atom-composite tau range   8.8341226010541056E-03   1.7905195479190661E+00
 SKALA_GPW| Active atom-composite tau integral   3.3126320291884277E+01
 SKALA_GPW| Active atom-composite max gradient   3.4584870713261701E-01
    11 P_Mix/Diag. 0.10E+00  764.7     0.28713265       -46.0680310836  6.42E-02
 SKALA_GPW| Atom-composite cross support/maxima   2.392386413358E+00   4.231070723586E-02   1.585390345565E-01   1.109790755875E+00
 SKALA_GPW| Active atom-composite XC energy  -1.4223848349702113E+01
 SKALA_GPW| Active atom-composite electrons   3.2045881003240346E+01
 SKALA_GPW| Active atom-composite density range   3.5092666680976853E-03   1.4776325069858631E-01
 SKALA_GPW| Active atom-composite tau range   8.8504350621530989E-03   1.8154403518185518E+00
 SKALA_GPW| Active atom-composite tau integral   3.3425997086519551E+01
 SKALA_GPW| Active atom-composite max gradient   3.4888938014325099E-01
    12 P_Mix/Diag. 0.10E+00  743.1     0.26515577       -46.0102096586  5.78E-02
 SKALA_GPW| Atom-composite cross support/maxima   2.392386413358E+00   4.158513556334E-02   1.598622818670E-01   1.123900067734E+00
 SKALA_GPW| Active atom-composite XC energy  -1.4238284468743759E+01
 SKALA_GPW| Active atom-composite electrons   3.2045359667219927E+01
 SKALA_GPW| Active atom-composite density range   3.1599297338799903E-03   1.4847823034937729E-01
 SKALA_GPW| Active atom-composite tau range   8.8676009804128601E-03   1.8376905049744270E+00
 SKALA_GPW| Active atom-composite tau integral   3.3693154853072741E+01
 SKALA_GPW| Active atom-composite max gradient   3.5158792993760069E-01
    13 P_Mix/Diag. 0.10E+00  740.5     0.24485458       -45.9581270305  5.21E-02
 SKALA_GPW| Atom-composite cross support/maxima   2.392386413358E+00   4.093098312873E-02   1.610462393150E-01   1.136529411577E+00
 SKALA_GPW| Active atom-composite XC energy  -1.4251210184848080E+01
 SKALA_GPW| Active atom-composite electrons   3.2044897409408591E+01
 SKALA_GPW| Active atom-composite density range   2.8455395639904457E-03   1.4909797653110335E-01
 SKALA_GPW| Active atom-composite tau range   8.8853011222454203E-03   1.8575318757450865E+00
 SKALA_GPW| Active atom-composite tau integral   3.3931228222819009E+01
 SKALA_GPW| Active atom-composite max gradient   3.5397954833788314E-01
    14 P_Mix/Diag. 0.10E+00  747.0     0.22609150       -45.9112258524  4.69E-02
 SKALA_GPW| Atom-composite cross support/maxima   2.392386413358E+00   4.034119796491E-02   1.621045412875E-01   1.147827546337E+00
 SKALA_GPW| Active atom-composite XC energy  -1.4262761882419687E+01
 SKALA_GPW| Active atom-composite electrons   3.2044487505558799E+01
 SKALA_GPW| Active atom-composite density range   2.5625997092845743E-03   1.4963391965005873E-01
 SKALA_GPW| Active atom-composite tau range   8.9032480021127691E-03   1.8752181978376683E+00
 SKALA_GPW| Active atom-composite tau integral   3.4143366313451693E+01
 SKALA_GPW| Active atom-composite max gradient   3.5609809312495488E-01
    15 P_Mix/Diag. 0.10E+00  758.1     0.20872207       -45.8689992380  4.22E-02
 SKALA_GPW| Atom-composite cross support/maxima   2.392386413358E+00   3.980994011497E-02   1.630531666352E-01   1.157951536261E+00
 SKALA_GPW| Active atom-composite XC energy  -1.4273070145497742E+01
 SKALA_GPW| Active atom-composite electrons   3.2044123968190931E+01
 SKALA_GPW| Active atom-composite density range   2.3079645593771583E-03   1.5009695061640513E-01
 SKALA_GPW| Active atom-composite tau range   8.9211980507686219E-03   1.8910033894128246E+00
 SKALA_GPW| Active atom-composite tau integral   3.4332470552440384E+01
 SKALA_GPW| Active atom-composite max gradient   3.5797723583680352E-01
    16 P_Mix/Diag. 0.10E+00  738.6     0.19261367       -45.8309872584  3.80E-02
 SKALA_GPW| Atom-composite cross support/maxima   2.392386413358E+00   3.933182100198E-02   1.639054761452E-01   1.167036124755E+00
 SKALA_GPW| Active atom-composite XC energy  -1.4282257419340077E+01
 SKALA_GPW| Active atom-composite electrons   3.2043801503387343E+01
 SKALA_GPW| Active atom-composite density range   2.0788025269114566E-03   1.5049675026388473E-01
 SKALA_GPW| Active atom-composite tau range   8.9389480068356262E-03   1.9051079038289345E+00
 SKALA_GPW| Active atom-composite tau integral   3.4501112016021644E+01
 SKALA_GPW| Active atom-composite max gradient   3.5964610387915630E-01
    17 P_Mix/Diag. 0.10E+00  746.6     0.17765387       -45.7967736698  3.42E-02
 SKALA_GPW| Atom-composite cross support/maxima   2.392386413358E+00   3.890181394936E-02   1.646722082642E-01   1.175194254904E+00
 SKALA_GPW| Active atom-composite XC energy  -1.4290437188967761E+01
 SKALA_GPW| Active atom-composite electrons   3.2043515436290022E+01
 SKALA_GPW| Active atom-composite density range   1.8725647007677426E-03   1.5084182184457229E-01
 SKALA_GPW| Active atom-composite tau range   8.9563334556770485E-03   1.9177200466520328E+00
 SKALA_GPW| Active atom-composite tau integral   3.4651558058085641E+01
 SKALA_GPW| Active atom-composite max gradient   3.6112947885080748E-01
    18 P_Mix/Diag. 0.10E+00  757.0     0.16374955       -45.7659822297  3.08E-02
 SKALA_GPW| Atom-composite cross support/maxima   2.392386413358E+00   3.851528112328E-02   1.653622587133E-01   1.182522479622E+00
 SKALA_GPW| Active atom-composite XC energy  -1.4297713704352271E+01
 SKALA_GPW| Active atom-composite electrons   3.2043261636496020E+01
 SKALA_GPW| Active atom-composite density range   1.6869568660891204E-03   1.5113963284585713E-01
 SKALA_GPW| Active atom-composite tau range   8.9732260989643792E-03   1.9290027128522937E+00
 SKALA_GPW| Active atom-composite tau integral   3.4785813626899809E+01
 SKALA_GPW| Active atom-composite max gradient   3.6244869615408237E-01
    19 P_Mix/Diag. 0.10E+00  735.7     0.15082286       -45.7382730758  2.77E-02
 SKALA_GPW| Atom-composite cross support/maxima   2.392386413358E+00   3.816797966150E-02   1.659832121541E-01   1.189104759828E+00
 SKALA_GPW| Active atom-composite XC energy  -1.4304182064481656E+01
 SKALA_GPW| Active atom-composite electrons   3.2043036451826246E+01
 SKALA_GPW| Active atom-composite density range   1.5199141825898779E-03   1.5139672320629283E-01
 SKALA_GPW| Active atom-composite tau range   8.9895297026276258E-03   1.9390982847952065E+00
 SKALA_GPW| Active atom-composite tau integral   3.4905654943513554E+01
 SKALA_GPW| Active atom-composite max gradient   3.6369025438505148E-01
    20 P_Mix/Diag. 0.10E+00  758.2     0.13880711       -45.7133394180  2.49E-02
 SKALA_GPW| Atom-composite cross support/maxima   2.392386413358E+00   3.785604565243E-02   1.665416407528E-01   1.195014767327E+00
 SKALA_GPW| Active atom-composite XC energy  -1.4309928468649737E+01
 SKALA_GPW| Active atom-composite electrons   3.2042836650546036E+01
 SKALA_GPW| Active atom-composite density range   1.3695783812570778E-03   1.5161879162878694E-01
 SKALA_GPW| Active atom-composite tau range   9.0051755647057950E-03   1.9481318405237142E+00
 SKALA_GPW| Active atom-composite tau integral   3.5012656586625042E+01
 SKALA_GPW| Active atom-composite max gradient   3.6482943735347784E-01
    21 P_Mix/Diag. 0.10E+00  741.7     0.12764347       -45.6909044401  2.24E-02
 SKALA_GPW| Atom-composite cross support/maxima   2.392386413358E+00   3.757597031561E-02   1.670432922373E-01   1.200317461544E+00
 SKALA_GPW| Active atom-composite XC energy  -1.4315030695204911E+01
 SKALA_GPW| Active atom-composite electrons   3.2042659371069405E+01
 SKALA_GPW| Active atom-composite density range   1.2342771647294928E-03   1.5181077582427210E-01
 SKALA_GPW| Active atom-composite tau range   9.0201179325845454E-03   1.9562135346269440E+00
 SKALA_GPW| Active atom-composite tau integral   3.5108214602965298E+01
 SKALA_GPW| Active atom-composite max gradient   3.6584410719109206E-01
    22 P_Mix/Diag. 0.10E+00  741.0     0.11727919       -45.6707185148  2.02E-02
 SKALA_GPW| Atom-composite cross support/maxima   2.392386413358E+00   3.732457356981E-02   1.674932469188E-01   1.205070473625E+00
 SKALA_GPW| Active atom-composite XC energy  -1.4319558697833429E+01
 SKALA_GPW| Active atom-composite electrons   3.2042502077815435E+01
 SKALA_GPW| Active atom-composite density range   1.1125056564357944E-03   1.5197693358407083E-01
 SKALA_GPW| Active atom-composite tau range   9.0343296908627704E-03   1.9634407116218762E+00
 SKALA_GPW| Active atom-composite tau integral   3.5193567322485741E+01
 SKALA_GPW| Active atom-composite max gradient   3.6674752361650059E-01
    23 P_Mix/Diag. 0.10E+00  724.4     0.10766739       -45.6525566514  1.82E-02
 SKALA_GPW| Atom-composite cross support/maxima   2.489187485724E+00   3.709897591909E-02   1.678961042781E-01   1.209325733918E+00
 SKALA_GPW| Active atom-composite XC energy  -1.4323575306603056E+01
 SKALA_GPW| Active atom-composite electrons   3.2042362522067513E+01
 SKALA_GPW| Active atom-composite density range   1.0029097226370715E-03   1.5212092737369656E-01
 SKALA_GPW| Active atom-composite tau range   9.0477982066822886E-03   1.9699002024840944E+00
 SKALA_GPW| Active atom-composite tau integral   3.5269815093417073E+01
 SKALA_GPW| Active atom-composite max gradient   3.6755144982644550E-01
    24 P_Mix/Diag. 0.10E+00  758.4     0.09876755       -45.6362161575  1.63E-02
 SKALA_GPW| Atom-composite cross support/maxima   2.489187485724E+00   3.689657099220E-02   1.682562145269E-01   1.213131428156E+00
 SKALA_GPW| Active atom-composite XC energy  -1.4327137085901064E+01
 SKALA_GPW| Active atom-composite electrons   3.2042238706735858E+01
 SKALA_GPW| Active atom-composite density range   9.0427100001114896E-04   1.5225257555038360E-01
 SKALA_GPW| Active atom-composite tau range   9.0605212970887705E-03   1.9756708942463830E+00
 SKALA_GPW| Active atom-composite tau integral   3.5337939282855892E+01
 SKALA_GPW| Active atom-composite max gradient   3.6826650403038419E-01
    25 DIIS/Diag.  0.15E-03  744.5     0.10084799       -45.6215145795  1.47E-02
 SKALA_GPW| Atom-composite cross support/maxima   2.489187485724E+00   3.512001713686E-02   1.712744845196E-01   1.245382950234E+00
 SKALA_GPW| Active atom-composite XC energy  -1.4355355540662355E+01
 SKALA_GPW| Active atom-composite electrons   3.2041240622006882E+01
 SKALA_GPW| Active atom-composite density range   1.6289740731291469E-05   1.5318924591805536E-01
 SKALA_GPW| Active atom-composite tau range   9.2141192188207651E-03   2.0244887749121352E+00
 SKALA_GPW| Active atom-composite tau integral   3.5919173150272783E+01
 SKALA_GPW| Active atom-composite max gradient   3.7410974512549022E-01
    26 P_Mix/Diag. 0.10E+00  760.0     0.00355134       -45.4895731985  1.32E-01
 SKALA_GPW| Atom-composite cross support/maxima   2.489187485724E+00   3.512074825354E-02   1.712767637973E-01   1.245425095681E+00
 SKALA_GPW| Active atom-composite XC energy  -1.4355332532380805E+01
 SKALA_GPW| Active atom-composite electrons   3.2041242865842655E+01
 SKALA_GPW| Active atom-composite density range   1.6271306847462363E-05   1.5319737162170050E-01
 SKALA_GPW| Active atom-composite tau range   9.2147524655303396E-03   2.0245482545136713E+00
 SKALA_GPW| Active atom-composite tau integral   3.5919262110784032E+01
 SKALA_GPW| Active atom-composite max gradient   3.7411141288015515E-01
    27 DIIS/Diag.  0.40E-06  779.8     0.00279073       -45.4895745342 -1.34E-06
 SKALA_GPW| Atom-composite cross support/maxima   2.489187485724E+00   3.512685671335E-02   1.713027417345E-01   1.245855389500E+00
 SKALA_GPW| Active atom-composite XC energy  -1.4355321864070730E+01
 SKALA_GPW| Active atom-composite electrons   3.2041258792977189E+01
 SKALA_GPW| Active atom-composite density range   1.6106409673179167E-05   1.5328268752549126E-01
 SKALA_GPW| Active atom-composite tau range   9.2189909951794890E-03   2.0251864826081354E+00
 SKALA_GPW| Active atom-composite tau integral   3.5921335101389261E+01
 SKALA_GPW| Active atom-composite max gradient   3.7414700035203863E-01
    28 DIIS/Diag.  0.36E-04  753.3     0.00010824       -45.4895880821 -1.35E-05
 SKALA_GPW| Atom-composite cross support/maxima   2.489187485724E+00   3.512574774539E-02   1.713040550302E-01   1.245856191845E+00
 SKALA_GPW| Active atom-composite XC energy  -1.4355300229742610E+01
 SKALA_GPW| Active atom-composite electrons   3.2041258375590289E+01
 SKALA_GPW| Active atom-composite density range   1.6117602725150559E-05   1.5327622159679299E-01
 SKALA_GPW| Active atom-composite tau range   9.2189151056579523E-03   2.0251668760250747E+00
 SKALA_GPW| Active atom-composite tau integral   3.5921100759355930E+01
 SKALA_GPW| Active atom-composite max gradient   3.7414564959815483E-01
    29 DIIS/Diag.  0.54E-04  750.1     0.00051416       -45.4895878629  2.19E-07
 SKALA_GPW| Atom-composite cross support/maxima   2.489187485724E+00   3.512758732724E-02   1.712973772054E-01   1.245804643289E+00
 SKALA_GPW| Active atom-composite XC energy  -1.4355134362816646E+01
 SKALA_GPW| Active atom-composite electrons   3.2041262965067553E+01
 SKALA_GPW| Active atom-composite density range   1.6104626832942615E-05   1.5327119849105234E-01
 SKALA_GPW| Active atom-composite tau range   9.2204114905847512E-03   2.0250874166308384E+00
 SKALA_GPW| Active atom-composite tau integral   3.5920117671324647E+01
 SKALA_GPW| Active atom-composite max gradient   3.7412715339878189E-01
    30 DIIS/Diag.  0.40E-04  766.4     0.00001236       -45.4895880638 -2.01E-07
 SKALA_GPW| Atom-composite cross support/maxima   2.489187485724E+00   3.512727936225E-02   1.712976001846E-01   1.245806597907E+00
 SKALA_GPW| Active atom-composite XC energy  -1.4355126262339837E+01
 SKALA_GPW| Active atom-composite electrons   3.2041263057671429E+01
 SKALA_GPW| Active atom-composite density range   1.6105921659285982E-05   1.5327025691986443E-01
 SKALA_GPW| Active atom-composite tau range   9.2204511293015098E-03   2.0250850470692390E+00
 SKALA_GPW| Active atom-composite tau integral   3.5920057642543050E+01
 SKALA_GPW| Active atom-composite max gradient   3.7412660931012687E-01
    31 DIIS/Diag.  0.42E-04  790.3     0.00057074       -45.4895880480  1.58E-08
 SKALA_GPW| Atom-composite cross support/maxima   2.489187485724E+00   3.513936846326E-02   1.712719770722E-01   1.245604175507E+00
 SKALA_GPW| Active atom-composite XC energy  -1.4355332642886573E+01
 SKALA_GPW| Active atom-composite electrons   3.2041262202822537E+01
 SKALA_GPW| Active atom-composite density range   1.6045040895376617E-05   1.5330501561200702E-01
 SKALA_GPW| Active atom-composite tau range   9.2199007051370525E-03   2.0250223615397371E+00
 SKALA_GPW| Active atom-composite tau integral   3.5921574069192118E+01
 SKALA_GPW| Active atom-composite max gradient   3.7412398494766996E-01
    32 DIIS/Diag.  0.26E-06  753.8     0.00004316       -45.4895884783 -4.30E-07
 SKALA_GPW| Atom-composite cross support/maxima   2.489187485724E+00   3.514059768999E-02   1.712721923084E-01   1.245602464734E+00
 SKALA_GPW| Active atom-composite XC energy  -1.4355337744924034E+01
 SKALA_GPW| Active atom-composite electrons   3.2041262289372348E+01
 SKALA_GPW| Active atom-composite density range   1.6041884630182968E-05   1.5330635506212223E-01
 SKALA_GPW| Active atom-composite tau range   9.2199456855047331E-03   2.0250396481524962E+00
 SKALA_GPW| Active atom-composite tau integral   3.5921608750458326E+01
 SKALA_GPW| Active atom-composite max gradient   3.7412802750343011E-01
    33 DIIS/Diag.  0.35E-06  756.9     0.00000759       -45.4895884751  3.15E-09
 SKALA_GPW| Atom-composite cross support/maxima   2.489187485724E+00   3.514042528221E-02   1.712703813546E-01   1.245588972429E+00
 SKALA_GPW| Active atom-composite XC energy  -1.4355337136346789E+01
 SKALA_GPW| Active atom-composite electrons   3.2041262319686396E+01
 SKALA_GPW| Active atom-composite density range   1.6041378403136575E-05   1.5330682099317372E-01
 SKALA_GPW| Active atom-composite tau range   9.2199458869721695E-03   2.0250193324391224E+00
 SKALA_GPW| Active atom-composite tau integral   3.5921604409923717E+01
 SKALA_GPW| Active atom-composite max gradient   3.7412458084938377E-01
    34 DIIS/Diag.  0.24E-08  763.4     0.00000188       -45.4895884798 -4.72E-09

  *** SCF run converged in    34 steps ***


  Electronic density on regular grids:        -32.0000000000       -0.0000000000
  Core density on regular grids:               32.0000000000       -0.0000000000
  Total charge density on r-space grids:       -0.0000000000
  Total charge density g-space grids:          -0.0000000000

  Overlap energy of the core charge distribution:               0.00000022963053
  Self energy of the core charge distribution:               -106.65373446668259
  Core Hamiltonian energy:                                     34.58467936360817
  Hartree energy:                                              41.03177627935764
  Exchange-correlation energy:                                  0.00000000000000
  Dispersion energy:                                           -0.09697274941181

  GAPW_XC| Exc from hard and soft atomic rho1:                -14.35533713634679

  Total energy:                                               -45.48958847984485

  outer SCF iter =    1 RMS gradient =   0.00E+00 energy =        -45.4895884798
  outer SCF loop converged in   1 iterations or   34 steps


 !-----------------------------------------------------------------------------!
                     Mulliken Population Analysis

 #  Atom  Element  Kind  Atomic population                           Net charge
       1     C        1          4.001023                             -0.001023
       2     C        1          3.999659                              0.000341
       3     C        1          3.999659                              0.000341
       4     C        1          3.999659                              0.000341
       5     C        1          3.999927                              0.000073
       6     C        1          4.000025                             -0.000025
       7     C        1          4.000009                             -0.000009
       8     C        1          4.000039                             -0.000039
 # Total charge                             32.000000                  0.000000

 !-----------------------------------------------------------------------------!

 !-----------------------------------------------------------------------------!
                           Hirshfeld Charges

  #Atom  Element  Kind  Ref Charge     Population                    Net charge
      1       C      1       4.000          4.000                         0.000
      2       C      1       4.000          4.000                        -0.000
      3       C      1       4.000          4.000                        -0.000
      4       C      1       4.000          4.000                        -0.000
      5       C      1       4.000          4.000                        -0.000
      6       C      1       4.000          4.000                         0.000
      7       C      1       4.000          4.000                         0.000
      8       C      1       4.000          4.000                         0.000

  Total Charge                                                           -0.000
 !-----------------------------------------------------------------------------!

 ENERGY| Total FORCE_EVAL ( QS ) energy [hartree]            -45.489588479844848

 -------------------------------------------------------------------------------
 -                                                                             -
 -                                DBCSR STATISTICS                             -
 -                                                                             -
 -------------------------------------------------------------------------------
 COUNTER                                    TOTAL       BLAS       SMM       ACC
 flops inhomo. stacks                           0       0.0%      0.0%      0.0%
 flops total                         0.000000E+00       0.0%      0.0%      0.0%
 flops max/rank                      0.000000E+00       0.0%      0.0%      0.0%
 matmuls inhomo. stacks                         0       0.0%      0.0%      0.0%
 matmuls total                                  0       0.0%      0.0%      0.0%
 number of processed stacks                     0       0.0%      0.0%      0.0%
 average stack size                                     0.0       0.0       0.0
 marketing flops                     0.000000E+00
 -------------------------------------------------------------------------------

 -------------------------------------------------------------------------------
 -                                                                             -
 -                                GRID STATISTICS                              -
 -                                                                             -
 -------------------------------------------------------------------------------
 LP    KERNEL             BACKEND                              COUNT     PERCENT
 6     collocate ortho    CPU                                2482760      34.52%
 6     integrate ortho    CPU                                2411824      33.53%
 8     collocate ortho    CPU                                1165360      16.20%
 8     integrate ortho    CPU                                1132064      15.74%
 0     collocate general  CPU                                     24       0.00%
 0     integrate general  CPU                                      8       0.00%
 -------------------------------------------------------------------------------

 -------------------------------------------------------------------------------
 -                                                                             -
 -                          OFFLOAD MEMPOOL STATISTICS                         -
 -                                                                             -
 -------------------------------------------------------------------------------
 Memory consumption                Number of allocations  Used [MiB]  Size [MiB]
 Host                                                  9         203          58
 -------------------------------------------------------------------------------

 MEMORY| Estimated peak process memory [MiB]                                5528

 -------------------------------------------------------------------------------
 ----                             MULTIGRID INFO                            ----
 -------------------------------------------------------------------------------
 count for grid        1:           8130          cutoff [a.u.]          400.00
 count for grid        2:          15765          cutoff [a.u.]          133.33
 count for grid        3:          22310          cutoff [a.u.]           44.44
 count for grid        4:          35132          cutoff [a.u.]           14.81
 count for grid        5:             45          cutoff [a.u.]            4.94
 total gridlevel count  :          81382

 -------------------------------------------------------------------------------
 -                                                                             -
 -                           R E F E R E N C E S                               -
 -                                                                             -
 -------------------------------------------------------------------------------
 
 CP2K version 2026.2 (Development Version), the CP2K developers group (2026).
 CP2K is freely available from https://www.cp2k.org/ .
 
 M. Iannuzzi, J. Wilhelm, F. Stein, A. Bussy, H. Elgabarty, D. Golze, A. Hehn, 
 M. Graml, S. Marek, B. Sertcan Gökmen, C. Schran, H. Forbert, R. Z. 
 Khaliullin, A. Kozhevnikov, M. Taillefumier, R. Meli, V. V. Rybkin, M. Brehm, 
 R. Schade, O. Schütt, J. V. Pototschnig, H. Mirhosseini, A. Knüpfer, D. Marx, 
 M. Krack, J. Hutter, T. D. Kühne.
 J. Phys. Chem. B 130, 1237-1310 (2026).
 The CP2K Program Package Made Simple.
 https://doi.org/10.1021/acs.jpcb.5c05851

 L. Wittmann, I. Gordiy, M. Friede, B. Helmich-Paris, S. Grimme, A. Hansen, M. 
 Bursch.
 Phys. Chem. Chem. Phys. 26, 21379-21394 (2024).
 Extension of the D3 and D4 London dispersion corrections to the full actinides 
 series.
 https://doi.org/10.1039/d4cp01514b

 T. D. Kühne, M. Iannuzzi, M. Del Ben, V. V. Rybkin, P. Seewald, F. Stein, T. 
 Laino, R. Z. Khaliullin, O. Schütt, F. Schiffmann, D. Golze, J. Wilhelm, S. 
 Chulkov, M. H. Bani-Hashemian, V. Weber, U. Borstnik, M. Taillefumier, A. S. 
 Jakobovits, A. Lazzaro, H. Pabst, T. Müller, R. Schade, M. Guidon, S. 
 Andermatt, N. Holmberg, G. K. Schenter, A. Hehn, A. Bussy, F. Belleflamme, G. 
 Tabacchi, A. Glöß, M. Lass, I. Bethune, C. J. Mundy, C. Plessl, M. Watkins, 
 J. VandeVondele, M. Krack, J. Hutter.
 J. Chem. Phys. 152, 194103 (2020).
 CP2K: An electronic structure and molecular dynamics software package - 
 Quickstep: Efficient and accurate electronic structure calculations.
 https://doi.org/10.1063/5.0007045

 A. Togo, I. Tanaka.
 arXiv, 1808.01590 (2018).
 Spglib : a software library for crystal symmetry search.

 L. Goerigk, A. Hansen, C. Bauer, S. Ehrlich, A. Najibi, S. Grimme.
 Phys. Chem. Chem. Phys. 19, 32184-32215 (2017).
 A look at the density functional theory zoo with the advanced GMTKN55 database 
 for general main group thermochemistry, kinetics and noncovalent interactions.
 https://doi.org/10.1039/C7CP04913G

 O. Schuett, P. Messmer, J. Hutter, J. VandeVondele.
 Electronic Structure Calculations on Graphics Processing Units, 173-190 (2016).
 GPU-Accelerated Sparse Matrix-Matrix Multiplication for Linear Scaling Density 
 Functional Theory.
 https://doi.org/10.1002/9781118670712.ch8

 U. Borstnik, J. VandeVondele, V. Weber, J. Hutter.
 Parallel Comput. 40, 47-58 (2014).
 Sparse matrix multiplication: The distributed block-compressed sparse row 
 library.
 https://doi.org/10.1016/j.parco.2014.03.012

 S. Grimme, S. Ehrlich, L. Goerigk.
 J. Comput. Chem. 32, 1456 (2011).
 Effect of the damping function in dispersion corrected density functional 
 theory.
 https://doi.org/10.1002/jcc.21759

 S. Grimme, J. Antony, S. Ehrlich, H. Krieg.
 J. Chem. Phys. 132, 154104 (2010).
 A consistent and accurate ab initio parametrization of density functional 
 dispersion correction (DFT-D) for the 94 elements H-Pu.
 https://doi.org/10.1063/1.3382344

 J. VandeVondele, J. Hutter.
 J. Chem. Phys. 127, 114105 (2007).
 Gaussian basis sets for accurate calculations on molecular systems in gas and 
 condensed phases.
 https://doi.org/10.1063/1.2770708

 M. Krack.
 Theor. Chem. Acc. 114, 145-152 (2005).
 Pseudopotentials for H to Kr optimized for gradient-corrected 
 exchange-correlation functionals.
 https://doi.org/10.1007/s00214-005-0655-y

 M. Frigo, S. G. Johnson.
 Proc. IEEE 93, 216-231 (2005).
 The design and implementation of FFTW3.
 https://doi.org/10.1109/JPROC.2004.840301

 C. Hartwigsen, S. Goedecker, J. Hutter.
 Phys. Rev. B 58, 3641-3662 (1998).
 Relativistic separable dual-space Gaussian pseudopotentials from H to Rn.
 https://doi.org/10.1103/PhysRevB.58.3641

 S. Goedecker, M. Teter, J. Hutter.
 Phys. Rev. B 54, 1703-1710 (1996).
 Separable dual-space Gaussian pseudopotentials.
 https://doi.org/10.1103/PhysRevB.54.1703

 C.-L. Fu, K.-M. Ho.
 Phys. Rev. B 28, 5480-5486 (1983).
 First-principles calculation of the equilibrium ground-state properties of 
 transition metals: Applications to Nb and Mo.
 https://doi.org/10.1103/PhysRevB.28.5480

 T. G. Worlton, J. L. Warren.
 Comput. Phys. Commun. 3, 88-117 (1972).
 Group-theoretical analysis of lattice vibrations.
 https://doi.org/10.1016/0010-4655(72)90058-6


 -------------------------------------------------------------------------------
 -                                                                             -
 -                                T I M I N G                                  -
 -                                                                             -
 -------------------------------------------------------------------------------
 SUBROUTINE                       CALLS  ASD         SELF TIME        TOTAL TIME
                                MAXIMUM       AVERAGE  MAXIMUM  AVERAGE  MAXIMUM
 CP2K                                 1  1.0     0.04     0.04 25542.26 25542.26
 qs_energies                          1  2.0     0.00     0.00 25542.06 25542.06
 scf_env_do_scf                       1  3.0     0.00     0.00 25538.74 25538.74
 scf_env_do_scf_inner_loop           34  4.0     0.17     0.17 25538.74 25538.74
 qs_ks_update_qs_env                 34  5.0     0.00     0.00 25073.65 25073.65
 rebuild_ks_matrix                   34  6.0     0.00     0.00 25071.80 25071.80
 qs_ks_build_kohn_sham_matrix        34  7.0     0.02     0.02 25071.80 25071.80
 calculate_vxc_atom                  34  8.0 21796.52 21796.52 24845.42 24845.42
 skala_atom_torch_backward          102  9.0   873.41   873.41   873.41   873.41
 calc_tau_atom                      816  9.0   670.56   670.56   670.56   670.56
 gaVxcgb_GC                         544  9.0   532.86   532.86   532.86   532.86
 -------------------------------------------------------------------------------

 The number of warnings for this run is : 1
 
 -------------------------------------------------------------------------------
  **** **** ******  **  PROGRAM ENDED AT                 2026-09-01 18:19:59.158
 ***** ** ***  *** **   PROGRAM RAN ON                                    cge069
 **    ****   ******    PROGRAM RAN BY                                  kuehne88
 ***** **    ** ** **   PROGRAM PROCESS ID                               3942992
  **** **  *******  **  PROGRAM STOPPED IN /data/home2/kuehne88/cp2k-native-skal
                                           a/goldzak12/runs/production/gapwxc-gt
                                           h/C/v03
