 DBCSR| CPU Multiplication driver                                           BLAS (U)
 DBCSR| Multrec recursion limit                                              512 (U)
 DBCSR| Multiplication stack size                                           1000 (D)
 DBCSR| Maximum elements for images                                    UNLIMITED (U)
 DBCSR| Multiplicative factor virtual images                                   1 (U)
 DBCSR| Use multiplication densification                                       T (D)
 DBCSR| Multiplication size stacks                                             3 (U)
 DBCSR| Use memory pool for CPU allocation                                     F (U)
 DBCSR| OMP: Current number of threads                                        24
 DBCSR| OMP: Max number of threads                                            24
 DBCSR| Split modifier for TAS multiplication algorithm                  1.0E+00 (U)


  **** **** ******  **  PROGRAM STARTED AT               2026-08-26 00:39:29.312
 ***** ** ***  *** **   PROGRAM STARTED ON                                cge042
 **    ****   ******    PROGRAM STARTED BY                              kuehne88
 ***** **    ** ** **   PROGRAM PROCESS ID                               2143282
  **** **  *******  **  PROGRAM STARTED IN /data/home2/kuehne88/cp2k-native-skal
                                           a/validation-uzh/diet-production-p25/
                                           shared-gapw-ae/e7277ed95ca4511a3ef3b3
                                           348714d11f4dcfb03a

 CP2K| version string:                 CP2K version 2026.2 (Development Version)
 CP2K| source code revision number:                                   c1bff3eeb8
 CP2K| cp2kflags: omp fftw3 spglib openblas libtorch libtorch_cuda              
 CP2K| is freely available from                            https://www.cp2k.org/
 CP2K| Program compiled at                                   2026-08-23 23:01:13
 CP2K| Program compiled on                                                cge022
 CP2K| Program compiled for                                               x86_64
 CP2K| Data directory path            /home/kuehne88/cp2k-native-skala/cp2k/data
 CP2K| Input file name                                             input.cpu.inp

 GLOBAL| Force Environment number                                              1
 GLOBAL| Basis set file name                             BASIS_MOLOPT_UZH_2026.2
 GLOBAL| Potential file name                                POTENTIAL_UZH_2026.2
 GLOBAL| MM Potential file name                                     MM_POTENTIAL
 GLOBAL| Coordinate file name                                      __STD_INPUT__
 GLOBAL| Method name                                                        CP2K
 GLOBAL| Project name                                       e7277ed95ca4_gapw_ae
 GLOBAL| Run type                                                         ENERGY
 GLOBAL| FFT library                                                       FFTW3
 GLOBAL| Diagonalization library                                       ScaLAPACK
 GLOBAL| Cholesky decomposition library                                ScaLAPACK
 GLOBAL| DGEMM library                                                      BLAS
 GLOBAL| Direct generalized diagonalization requested                          F
 GLOBAL| Orthonormality check for eigenvectors                          DISABLED
 GLOBAL| Matrix multiplication library                                 ScaLAPACK
 GLOBAL| All-to-all communication in single precision                          F
 GLOBAL| FFTs using library dependent lengths                                  F
 GLOBAL| Grid backend                                                       AUTO
 GLOBAL| Global print level                                               MEDIUM
 GLOBAL| MPI I/O enabled                                                       T
 GLOBAL| Total number of message passing processes                             1
 GLOBAL| Number of distributed systems (nodes)                                 1
 GLOBAL| Number of threads for this process                                   24
 GLOBAL| This output is from process                                           0
 GLOBAL| OpenMP stack size per thread (OMP_STACKSIZE)                       512M
 GLOBAL| CPU model name                          AMD EPYC 9654 96-Core Processor

 MEMORY| system memory details [Kb]
 MEMORY|                        rank 0           min           max       average
 MEMORY| MemTotal           1584970640    1584970640    1584970640    1584970640
 MEMORY| MemFree            1409618740    1409618740    1409618740    1409618740
 MEMORY| Buffers                  3396          3396          3396          3396
 MEMORY| Cached               24888908      24888908      24888908      24888908
 MEMORY| Slab                  2887428       2887428       2887428       2887428
 MEMORY| SReclaimable           717624        717624        717624        717624
 MEMORY| MemLikelyFree      1435228668    1435228668    1435228668    1435228668


 *** Fundamental physical constants (SI units) ***

 *** Literature: B. J. Mohr and B. N. Taylor,
 ***             CODATA recommended values of the fundamental physical
 ***             constants: 2006, Web Version 5.1
 ***             http://physics.nist.gov/constants

 Speed of light in vacuum [m/s]                             2.99792458000000E+08
 Magnetic constant or permeability of vacuum [N/A**2]       1.25663706143592E-06
 Electric constant or permittivity of vacuum [F/m]          8.85418781762039E-12
 Planck constant (h) [J*s]                                  6.62606896000000E-34
 Planck constant (h-bar) [J*s]                              1.05457162825177E-34
 Elementary charge [C]                                      1.60217648700000E-19
 Electron mass [kg]                                         9.10938215000000E-31
 Electron g factor [ ]                                     -2.00231930436220E+00
 Proton mass [kg]                                           1.67262163700000E-27
 Fine-structure constant                                    7.29735253760000E-03
 Rydberg constant [1/m]                                     1.09737315685270E+07
 Avogadro constant [1/mol]                                  6.02214179000000E+23
 Boltzmann constant [J/K]                                   1.38065040000000E-23
 Atomic mass unit [kg]                                      1.66053878200000E-27
 Bohr radius [m]                                            5.29177208590000E-11

 *** Conversion factors ***

 [u] -> [a.u.]                                              1.82288848426455E+03
 [Angstrom] -> [Bohr] = [a.u.]                              1.88972613288564E+00
 [a.u.] = [Bohr] -> [Angstrom]                              5.29177208590000E-01
 [a.u.] -> [s]                                              2.41888432650478E-17
 [a.u.] -> [fs]                                             2.41888432650478E-02
 [a.u.] -> [J]                                              4.35974393937059E-18
 [a.u.] -> [N]                                              8.23872205491840E-08
 [a.u.] -> [K]                                              3.15774647902944E+05
 [a.u.] -> [kJ/mol]                                         2.62549961709828E+03
 [a.u.] -> [kcal/mol]                                       6.27509468713739E+02
 [a.u.] -> [Pa]                                             2.94210107994716E+13
 [a.u.] -> [bar]                                            2.94210107994716E+08
 [a.u.] -> [atm]                                            2.90362800883016E+08
 [a.u.] -> [eV]                                             2.72113838565563E+01
 [a.u.] -> [Hz]                                             6.57968392072181E+15
 [a.u.] -> [1/cm] (wave numbers)                            2.19474631370540E+05
 [a.u./Bohr**2] -> [1/cm]                                   5.14048714338585E+03
 

 CELL| Volume [angstrom^3]:                                         24273.000000
 CELL| Vector a [angstrom]:      27.000     0.000     0.000   |a| =    27.000000
 CELL| Vector b [angstrom]:       0.000    29.000     0.000   |b| =    29.000000
 CELL| Vector c [angstrom]:       0.000     0.000    31.000   |c| =    31.000000
 CELL| Angle (b,c), alpha [degree]:                                    90.000000
 CELL| Angle (a,c), beta  [degree]:                                    90.000000
 CELL| Angle (a,b), gamma [degree]:                                    90.000000
 CELL| Numerically orthorhombic:                                             YES
 CELL| Periodicity                                                          NONE

 CELL_REF| Volume [angstrom^3]:                                     24273.000000
 CELL_REF| Vector a [angstrom    27.000     0.000     0.000   |a| =    27.000000
 CELL_REF| Vector b [angstrom     0.000    29.000     0.000   |b| =    29.000000
 CELL_REF| Vector c [angstrom     0.000     0.000    31.000   |c| =    31.000000
 CELL_REF| Angle (b,c), alpha [degree]:                                90.000000
 CELL_REF| Angle (a,c), beta  [degree]:                                90.000000
 CELL_REF| Angle (a,b), gamma [degree]:                                90.000000
 CELL_REF| Numerically orthorhombic:                                         YES
 CELL_REF| Periodicity                                                      NONE

 GENERATE|  Preliminary Number of Bonds generated:                             0
 GENERATE|  Achieved consistency in connectivity generation.

 *******************************************************************************
 *******************************************************************************
 **                                                                           **
 **     #####                         ##              ##                      **
 **    ##   ##            ##          ##              ##                      **
 **   ##     ##                       ##            ######                    **
 **   ##     ##  ##   ##  ##   #####  ##  ##   ####   ##    #####    #####    **
 **   ##     ##  ##   ##  ##  ##      ## ##   ##      ##   ##   ##  ##   ##   **
 **   ##  ## ##  ##   ##  ##  ##      ####     ###    ##   ######   ######    **
 **    ##  ###   ##   ##  ##  ##      ## ##      ##   ##   ##       ##        **
 **     #######   #####   ##   #####  ##  ##  ####    ##    #####   ##        **
 **           ##                                                    ##        **
 **                                                                           **
 **                                                ... make the atoms dance   **
 **                                                                           **
 **            Copyright (C) by CP2K developers group (2000-2026)             **
 **                      J. Chem. Phys. 152, 194103 (2020)                    **
 **                                                                           **
 *******************************************************************************

 DFT| Spin restricted Kohn-Sham (RKS) calculation                            RKS
 DFT| Multiplicity                                                             1
 DFT| Number of spin states                                                    1
 DFT| Charge                                                                   0
 DFT| Self-interaction correction (SIC)                                       NO
 DFT| Cutoffs: density                                              1.000000E-10
 DFT|          gradient                                             1.000000E-10
 DFT|          tau                                                  1.000000E-10
 DFT|          cutoff_smoothing_range                               0.000000E+00
 DFT| XC density smoothing                                                  NONE
 DFT| XC derivatives                                                          PW

 FUNCTIONAL| GAUXC:
 FUNCTIONAL| Functional computed by GauXC Skala model SKALA                     

 vdW POTENTIAL|                                                   Pair Potential
 vdW POTENTIAL|          DFT-D3 (Version 3.1)
 vdW POTENTIAL|          Potential Form: S. Grimme et al, JCP 132: 154104 (2010)
 vdW POTENTIAL|          BJ Damping: S. Grimme et al, JCC 32: 1456 (2011)
 vdW POTENTIAL|          Cutoff Radius [Bohr]:                             37.79
 vdW POTENTIAL|          s6 Scaling Factor:                               1.0000
 vdW POTENTIAL|          a1 Damping Factor:                               0.3981
 vdW POTENTIAL|          s8 Scaling Factor:                               1.9889
 vdW POTENTIAL|          a2 Damping Factor:                               4.4211
 vdW POTENTIAL|          Cutoff for CN calculation:                   0.1000E-05

 QS| Method:                                                                GAPW
 QS| Density plane wave grid type                        NON-SPHERICAL FULLSPACE
 QS| Number of grid levels:                                                    5
 QS| Density cutoff [a.u.]:                                                320.0
 QS| Multi grid cutoff [a.u.]: 1) grid level                               320.0
 QS|                           2) grid level                               106.7
 QS|                           3) grid level                                35.6
 QS|                           4) grid level                                11.9
 QS|                           5) grid level                                 4.0
 QS| Grid level progression factor:                                          3.0
 QS| Relative density cutoff [a.u.]:                                        30.0
 QS| Interaction thresholds: eps_pgf_orb:                                1.0E-07
 QS|                         eps_filter_matrix:                          0.0E+00
 QS|                         eps_core_charge:                            1.0E-16
 QS|                         eps_rho_gspace:                             1.0E-14
 QS|                         eps_rho_rspace:                             1.0E-14
 QS|                         eps_gvg_rspace:                             1.0E-07
 QS|                         eps_ppl:                                    1.0E-02
 QS|                         eps_ppnl:                                   1.0E-09
 QS| GAPW|      XC integration using accurate scheme: Ref. exponent     6.000000
 QS| GAPW|      One center basis extended with primitives (small:s)
 QS| GAPW|                   eps_fit:                                    1.0E-04
 QS| GAPW|                   eps_iso:                                    1.0E-12
 QS| GAPW|                   eps_svd:                                    1.0E-08
 QS| GAPW|                   eps_cpc:                                    1.0E-14
 QS| GAPW|   atom-r-grid: quadrature:                                     GC_LOG
 QS| GAPW|      atom-s-grid:  max l :                                          6
 QS| GAPW|      max_l_rho0 :                                                   4


 ATOMIC KIND INFORMATION

  1. Atomic kind: C                                     Number of atoms:       5

     Orbital Basis Set                                       TZVPP-MOLOPT-PBE-ae

       Number of orbital shell sets:                                           2
       Number of orbital shells:                                              11
       Number of primitive Cartesian functions:                               12
       Number of Cartesian basis functions:                                   36
       Number of spherical basis functions:                                   31
       Norm type:                                                              2

       Normalised Cartesian orbitals:

                        Set   Shell   Orbital            Exponent    Coefficient

                          1       1    1s            13575.369584       0.323227
                                                      2035.237517       2.062509
                                                       463.111112       2.210797
                                                       131.318553       4.954487
                                                        42.899593       1.730189
                                                        15.855102       4.257999

                          2       1    1s               34.417212       0.637474
                                                         6.739673       1.752510
                                                         2.441624       0.446183
                                                         0.806764       0.003692
                                                         0.283960       0.027513
                                                         0.097098       0.019281

                          2       2    2s               34.417212       1.102934
                                                         6.739673      -0.288836
                                                         2.441624      -0.104551
                                                         0.806764       0.362633
                                                         0.283960       0.094997
                                                         0.097098       0.029117

                          2       3    3s               34.417212      -6.120053
                                                         6.739673      -0.168746
                                                         2.441624      -0.199197
                                                         0.806764      -0.252838
                                                         0.283960       0.169545
                                                         0.097098       0.047046

                          2       4    4s               34.417212      -3.786931
                                                         6.739673      -0.401007
                                                         2.441624      -0.053941
                                                         0.806764       0.091223
                                                         0.283960      -0.341415
                                                         0.097098       0.188374

                          2       5    2px              34.417212       2.016536
                                                         6.739673       2.243109
                                                         2.441624       0.695625
                                                         0.806764       0.779023
                                                         0.283960       0.032186
                                                         0.097098       0.005087
                          2       5    2py              34.417212       2.016536
                                                         6.739673       2.243109
                                                         2.441624       0.695625
                                                         0.806764       0.779023
                                                         0.283960       0.032186
                                                         0.097098       0.005087
                          2       5    2pz              34.417212       2.016536
                                                         6.739673       2.243109
                                                         2.441624       0.695625
                                                         0.806764       0.779023
                                                         0.283960       0.032186
                                                         0.097098       0.005087

                          2       6    3px              34.417212       1.690366
                                                         6.739673      -2.720242
                                                         2.441624       0.912249
                                                         0.806764      -0.188640
                                                         0.283960       0.294367
                                                         0.097098       0.008084
                          2       6    3py              34.417212       1.690366
                                                         6.739673      -2.720242
                                                         2.441624       0.912249
                                                         0.806764      -0.188640
                                                         0.283960       0.294367
                                                         0.097098       0.008084
                          2       6    3pz              34.417212       1.690366
                                                         6.739673      -2.720242
                                                         2.441624       0.912249
                                                         0.806764      -0.188640
                                                         0.283960       0.294367
                                                         0.097098       0.008084

                          2       7    4px              34.417212     -12.705833
                                                         6.739673       1.761645
                                                         2.441624      -0.855991
                                                         0.806764      -0.070055
                                                         0.283960      -0.017243
                                                         0.097098       0.081068
                          2       7    4py              34.417212     -12.705833
                                                         6.739673       1.761645
                                                         2.441624      -0.855991
                                                         0.806764      -0.070055
                                                         0.283960      -0.017243
                                                         0.097098       0.081068
                          2       7    4pz              34.417212     -12.705833
                                                         6.739673       1.761645
                                                         2.441624      -0.855991
                                                         0.806764      -0.070055
                                                         0.283960      -0.017243
                                                         0.097098       0.081068

                          2       8    3dx2             34.417212     174.894573
                                                         6.739673       4.248634
                                                         2.441624       3.763414
                                                         0.806764       0.546922
                                                         0.283960       0.015501
                                                         0.097098       0.001415
                          2       8    3dxy             34.417212     302.926287
                                                         6.739673       7.358850
                                                         2.441624       6.518424
                                                         0.806764       0.947296
                                                         0.283960       0.026849
                                                         0.097098       0.002451
                          2       8    3dxz             34.417212     302.926287
                                                         6.739673       7.358850
                                                         2.441624       6.518424
                                                         0.806764       0.947296
                                                         0.283960       0.026849
                                                         0.097098       0.002451
                          2       8    3dy2             34.417212     174.894573
                                                         6.739673       4.248634
                                                         2.441624       3.763414
                                                         0.806764       0.546922
                                                         0.283960       0.015501
                                                         0.097098       0.001415
                          2       8    3dyz             34.417212     302.926287
                                                         6.739673       7.358850
                                                         2.441624       6.518424
                                                         0.806764       0.947296
                                                         0.283960       0.026849
                                                         0.097098       0.002451
                          2       8    3dz2             34.417212     174.894573
                                                         6.739673       4.248634
                                                         2.441624       3.763414
                                                         0.806764       0.546922
                                                         0.283960       0.015501
                                                         0.097098       0.001415

                          2       9    4dx2             34.417212    -164.169372
                                                         6.739673      -4.401044
                                                         2.441624      -2.510108
                                                         0.806764       0.323683
                                                         0.283960       0.139703
                                                         0.097098       0.001225
                          2       9    4dxy             34.417212    -284.349694
                                                         6.739673      -7.622831
                                                         2.441624      -4.347634
                                                         0.806764       0.560636
                                                         0.283960       0.241972
                                                         0.097098       0.002122
                          2       9    4dxz             34.417212    -284.349694
                                                         6.739673      -7.622831
                                                         2.441624      -4.347634
                                                         0.806764       0.560636
                                                         0.283960       0.241972
                                                         0.097098       0.002122
                          2       9    4dy2             34.417212    -164.169372
                                                         6.739673      -4.401044
                                                         2.441624      -2.510108
                                                         0.806764       0.323683
                                                         0.283960       0.139703
                                                         0.097098       0.001225
                          2       9    4dyz             34.417212    -284.349694
                                                         6.739673      -7.622831
                                                         2.441624      -4.347634
                                                         0.806764       0.560636
                                                         0.283960       0.241972
                                                         0.097098       0.002122
                          2       9    4dz2             34.417212    -164.169372
                                                         6.739673      -4.401044
                                                         2.441624      -2.510108
                                                         0.806764       0.323683
                                                         0.283960       0.139703
                                                         0.097098       0.001225

                          2      10    4fx3             34.417212      49.427593
                                                         6.739673      -2.026957
                                                         2.441624       1.033755
                                                         0.806764       0.576468
                                                         0.283960       0.042127
                                                         0.097098      -0.000799
                          2      10    4fx2y            34.417212     110.523457
                                                         6.739673      -4.532415
                                                         2.441624       2.311546
                                                         0.806764       1.289022
                                                         0.283960       0.094199
                                                         0.097098      -0.001786
                          2      10    4fx2z            34.417212     110.523457
                                                         6.739673      -4.532415
                                                         2.441624       2.311546
                                                         0.806764       1.289022
                                                         0.283960       0.094199
                                                         0.097098      -0.001786
                          2      10    4fxy2            34.417212     110.523457
                                                         6.739673      -4.532415
                                                         2.441624       2.311546
                                                         0.806764       1.289022
                                                         0.283960       0.094199
                                                         0.097098      -0.001786
                          2      10    4fxyz            34.417212     191.432243
                                                         6.739673      -7.850372
                                                         2.441624       4.003716
                                                         0.806764       2.232651
                                                         0.283960       0.163158
                                                         0.097098      -0.003093
                          2      10    4fxz2            34.417212     110.523457
                                                         6.739673      -4.532415
                                                         2.441624       2.311546
                                                         0.806764       1.289022
                                                         0.283960       0.094199
                                                         0.097098      -0.001786
                          2      10    4fy3             34.417212      49.427593
                                                         6.739673      -2.026957
                                                         2.441624       1.033755
                                                         0.806764       0.576468
                                                         0.283960       0.042127
                                                         0.097098      -0.000799
                          2      10    4fy2z            34.417212     110.523457
                                                         6.739673      -4.532415
                                                         2.441624       2.311546
                                                         0.806764       1.289022
                                                         0.283960       0.094199
                                                         0.097098      -0.001786
                          2      10    4fyz2            34.417212     110.523457
                                                         6.739673      -4.532415
                                                         2.441624       2.311546
                                                         0.806764       1.289022
                                                         0.283960       0.094199
                                                         0.097098      -0.001786
                          2      10    4fz3             34.417212      49.427593
                                                         6.739673      -2.026957
                                                         2.441624       1.033755
                                                         0.806764       0.576468
                                                         0.283960       0.042127
                                                         0.097098      -0.000799

       Atomic covalent radius [Angstrom]:                                  0.770

       Atomic van der Waals radius [Angstrom]:                             1.700

     The atoms of this atomic kind are PAW atoms (GAPW):
       Hard Gaussian function radius:                                      1.520
       Rho0 radius:                                                        1.520
       Maximum GTO radius used for PAW projector construction:            24.566

     GAPW Soft Basis Set                                TZVPP-MOLOPT-PBE-ae_soft

       Number of orbital shell sets:                                           2
       Number of orbital shells:                                              11
       Number of primitive Cartesian functions:                                4
       Number of Cartesian basis functions:                                   36
       Number of spherical basis functions:                                   31
       Norm type:                                                              2

       Normalised Cartesian orbitals:

                        Set   Shell   Orbital            Exponent    Coefficient

                          1       1    1s         

                          2       1    1s                2.441624       0.446183
                                                         0.806764       0.003692
                                                         0.283960       0.027513
                                                         0.097098       0.019281

                          2       2    2s                2.441624      -0.104551
                                                         0.806764       0.362633
                                                         0.283960       0.094997
                                                         0.097098       0.029117

                          2       3    3s                2.441624      -0.199197
                                                         0.806764      -0.252838
                                                         0.283960       0.169545
                                                         0.097098       0.047046

                          2       4    4s                2.441624      -0.053941
                                                         0.806764       0.091223
                                                         0.283960      -0.341415
                                                         0.097098       0.188374

                          2       5    2px               2.441624       0.695625
                                                         0.806764       0.779023
                                                         0.283960       0.032186
                                                         0.097098       0.005087
                          2       5    2py               2.441624       0.695625
                                                         0.806764       0.779023
                                                         0.283960       0.032186
                                                         0.097098       0.005087
                          2       5    2pz               2.441624       0.695625
                                                         0.806764       0.779023
                                                         0.283960       0.032186
                                                         0.097098       0.005087

                          2       6    3px               2.441624       0.912249
                                                         0.806764      -0.188640
                                                         0.283960       0.294367
                                                         0.097098       0.008084
                          2       6    3py               2.441624       0.912249
                                                         0.806764      -0.188640
                                                         0.283960       0.294367
                                                         0.097098       0.008084
                          2       6    3pz               2.441624       0.912249
                                                         0.806764      -0.188640
                                                         0.283960       0.294367
                                                         0.097098       0.008084

                          2       7    4px               2.441624      -0.855991
                                                         0.806764      -0.070055
                                                         0.283960      -0.017243
                                                         0.097098       0.081068
                          2       7    4py               2.441624      -0.855991
                                                         0.806764      -0.070055
                                                         0.283960      -0.017243
                                                         0.097098       0.081068
                          2       7    4pz               2.441624      -0.855991
                                                         0.806764      -0.070055
                                                         0.283960      -0.017243
                                                         0.097098       0.081068

                          2       8    3dx2              2.441624       3.763414
                                                         0.806764       0.546922
                                                         0.283960       0.015501
                                                         0.097098       0.001415
                          2       8    3dxy              2.441624       6.518424
                                                         0.806764       0.947296
                                                         0.283960       0.026849
                                                         0.097098       0.002451
                          2       8    3dxz              2.441624       6.518424
                                                         0.806764       0.947296
                                                         0.283960       0.026849
                                                         0.097098       0.002451
                          2       8    3dy2              2.441624       3.763414
                                                         0.806764       0.546922
                                                         0.283960       0.015501
                                                         0.097098       0.001415
                          2       8    3dyz              2.441624       6.518424
                                                         0.806764       0.947296
                                                         0.283960       0.026849
                                                         0.097098       0.002451
                          2       8    3dz2              2.441624       3.763414
                                                         0.806764       0.546922
                                                         0.283960       0.015501
                                                         0.097098       0.001415

                          2       9    4dx2              2.441624      -2.510108
                                                         0.806764       0.323683
                                                         0.283960       0.139703
                                                         0.097098       0.001225
                          2       9    4dxy              2.441624      -4.347634
                                                         0.806764       0.560636
                                                         0.283960       0.241972
                                                         0.097098       0.002122
                          2       9    4dxz              2.441624      -4.347634
                                                         0.806764       0.560636
                                                         0.283960       0.241972
                                                         0.097098       0.002122
                          2       9    4dy2              2.441624      -2.510108
                                                         0.806764       0.323683
                                                         0.283960       0.139703
                                                         0.097098       0.001225
                          2       9    4dyz              2.441624      -4.347634
                                                         0.806764       0.560636
                                                         0.283960       0.241972
                                                         0.097098       0.002122
                          2       9    4dz2              2.441624      -2.510108
                                                         0.806764       0.323683
                                                         0.283960       0.139703
                                                         0.097098       0.001225

                          2      10    4fx3              2.441624       1.033755
                                                         0.806764       0.576468
                                                         0.283960       0.042127
                                                         0.097098      -0.000799
                          2      10    4fx2y             2.441624       2.311546
                                                         0.806764       1.289022
                                                         0.283960       0.094199
                                                         0.097098      -0.001786
                          2      10    4fx2z             2.441624       2.311546
                                                         0.806764       1.289022
                                                         0.283960       0.094199
                                                         0.097098      -0.001786
                          2      10    4fxy2             2.441624       2.311546
                                                         0.806764       1.289022
                                                         0.283960       0.094199
                                                         0.097098      -0.001786
                          2      10    4fxyz             2.441624       4.003716
                                                         0.806764       2.232651
                                                         0.283960       0.163158
                                                         0.097098      -0.003093
                          2      10    4fxz2             2.441624       2.311546
                                                         0.806764       1.289022
                                                         0.283960       0.094199
                                                         0.097098      -0.001786
                          2      10    4fy3              2.441624       1.033755
                                                         0.806764       0.576468
                                                         0.283960       0.042127
                                                         0.097098      -0.000799
                          2      10    4fy2z             2.441624       2.311546
                                                         0.806764       1.289022
                                                         0.283960       0.094199
                                                         0.097098      -0.001786
                          2      10    4fyz2             2.441624       2.311546
                                                         0.806764       1.289022
                                                         0.283960       0.094199
                                                         0.097098      -0.001786
                          2      10    4fz3              2.441624       1.033755
                                                         0.806764       0.576468
                                                         0.283960       0.042127
                                                         0.097098      -0.000799

     AE Potential information for                                            ALL

       Description:                                       All-electron potential
                                          Krack, Parrinello, PCCP 2, 2105 (2000)

       Gaussian exponent of the core charge distribution:               4.109048
       Electronic configuration (s p d ...):                           4   2   0

  2. Atomic kind: N                                     Number of atoms:       2

     Orbital Basis Set                                       TZVPP-MOLOPT-PBE-ae

       Number of orbital shell sets:                                           2
       Number of orbital shells:                                              11
       Number of primitive Cartesian functions:                               12
       Number of Cartesian basis functions:                                   36
       Number of spherical basis functions:                                   31
       Norm type:                                                              2

       Normalised Cartesian orbitals:

                        Set   Shell   Orbital            Exponent    Coefficient

                          1       1    1s            19730.758242       0.654856
                                                      2958.006020       1.769548
                                                       673.387518       2.322723
                                                       190.675174       4.547417
                                                        62.366448       3.527190
                                                        22.833858       5.352733

                          2       1    1s               49.270190       0.802518
                                                         8.608625       2.378505
                                                         2.987378       0.535699
                                                         0.930550      -0.061635
                                                         0.322032       0.036074
                                                         0.113512       0.014500

                          2       2    2s               49.270190      -0.622920
                                                         8.608625      -0.061481
                                                         2.987378       0.054918
                                                         0.930550       0.396674
                                                         0.322032       0.082974
                                                         0.113512       0.032692

                          2       3    3s               49.270190      -0.366977
                                                         8.608625      -0.870010
                                                         2.987378      -0.229943
                                                         0.930550      -0.408076
                                                         0.322032       0.306069
                                                         0.113512       0.047996

                          2       4    4s               49.270190      -7.166333
                                                         8.608625      -0.961511
                                                         2.987378       0.637930
                                                         0.930550      -0.188982
                                                         0.322032      -0.186943
                                                         0.113512       0.171213

                          2       5    2px              49.270190      12.161855
                                                         8.608625       1.288759
                                                         2.987378       1.750760
                                                         0.930550       0.811118
                                                         0.322032       0.040684
                                                         0.113512       0.006367
                          2       5    2py              49.270190      12.161855
                                                         8.608625       1.288759
                                                         2.987378       1.750760
                                                         0.930550       0.811118
                                                         0.322032       0.040684
                                                         0.113512       0.006367
                          2       5    2pz              49.270190      12.161855
                                                         8.608625       1.288759
                                                         2.987378       1.750760
                                                         0.930550       0.811118
                                                         0.322032       0.040684
                                                         0.113512       0.006367

                          2       6    3px              49.270190     -28.403920
                                                         8.608625       0.375399
                                                         2.987378      -0.764833
                                                         0.930550      -0.153789
                                                         0.322032       0.344073
                                                         0.113512       0.011134
                          2       6    3py              49.270190     -28.403920
                                                         8.608625       0.375399
                                                         2.987378      -0.764833
                                                         0.930550      -0.153789
                                                         0.322032       0.344073
                                                         0.113512       0.011134
                          2       6    3pz              49.270190     -28.403920
                                                         8.608625       0.375399
                                                         2.987378      -0.764833
                                                         0.930550      -0.153789
                                                         0.322032       0.344073
                                                         0.113512       0.011134

                          2       7    4px              49.270190       8.328837
                                                         8.608625      -0.402261
                                                         2.987378      -0.049280
                                                         0.930550      -0.121777
                                                         0.322032      -0.047567
                                                         0.113512       0.104427
                          2       7    4py              49.270190       8.328837
                                                         8.608625      -0.402261
                                                         2.987378      -0.049280
                                                         0.930550      -0.121777
                                                         0.322032      -0.047567
                                                         0.113512       0.104427
                          2       7    4pz              49.270190       8.328837
                                                         8.608625      -0.402261
                                                         2.987378      -0.049280
                                                         0.930550      -0.121777
                                                         0.322032      -0.047567
                                                         0.113512       0.104427

                          2       8    3dx2             49.270190     -47.156995
                                                         8.608625     -15.504622
                                                         2.987378       4.861216
                                                         0.930550       0.975526
                                                         0.322032       0.004138
                                                         0.113512       0.008426
                          2       8    3dxy             49.270190     -81.678311
                                                         8.608625     -26.854794
                                                         2.987378       8.419873
                                                         0.930550       1.689661
                                                         0.322032       0.007167
                                                         0.113512       0.014594
                          2       8    3dxz             49.270190     -81.678311
                                                         8.608625     -26.854794
                                                         2.987378       8.419873
                                                         0.930550       1.689661
                                                         0.322032       0.007167
                                                         0.113512       0.014594
                          2       8    3dy2             49.270190     -47.156995
                                                         8.608625     -15.504622
                                                         2.987378       4.861216
                                                         0.930550       0.975526
                                                         0.322032       0.004138
                                                         0.113512       0.008426
                          2       8    3dyz             49.270190     -81.678311
                                                         8.608625     -26.854794
                                                         2.987378       8.419873
                                                         0.930550       1.689661
                                                         0.322032       0.007167
                                                         0.113512       0.014594
                          2       8    3dz2             49.270190     -47.156995
                                                         8.608625     -15.504622
                                                         2.987378       4.861216
                                                         0.930550       0.975526
                                                         0.322032       0.004138
                                                         0.113512       0.008426

                          2       9    4dx2             49.270190      69.517765
                                                         8.608625      17.703387
                                                         2.987378      -3.348764
                                                         0.930550       0.469670
                                                         0.322032       0.207542
                                                         0.113512      -0.007657
                          2       9    4dxy             49.270190     120.408301
                                                         8.608625      30.663165
                                                         2.987378      -5.800229
                                                         0.930550       0.813493
                                                         0.322032       0.359472
                                                         0.113512      -0.013263
                          2       9    4dxz             49.270190     120.408301
                                                         8.608625      30.663165
                                                         2.987378      -5.800229
                                                         0.930550       0.813493
                                                         0.322032       0.359472
                                                         0.113512      -0.013263
                          2       9    4dy2             49.270190      69.517765
                                                         8.608625      17.703387
                                                         2.987378      -3.348764
                                                         0.930550       0.469670
                                                         0.322032       0.207542
                                                         0.113512      -0.007657
                          2       9    4dyz             49.270190     120.408301
                                                         8.608625      30.663165
                                                         2.987378      -5.800229
                                                         0.930550       0.813493
                                                         0.322032       0.359472
                                                         0.113512      -0.013263
                          2       9    4dz2             49.270190      69.517765
                                                         8.608625      17.703387
                                                         2.987378      -3.348764
                                                         0.930550       0.469670
                                                         0.322032       0.207542
                                                         0.113512      -0.007657

                          2      10    4fx3             49.270190     240.939936
                                                         8.608625      -7.108652
                                                         2.987378       1.277764
                                                         0.930550       1.022795
                                                         0.322032       0.026408
                                                         0.113512       0.000350
                          2      10    4fx2y            49.270190     538.758076
                                                         8.608625     -15.895429
                                                         2.987378       2.857166
                                                         0.930550       2.287038
                                                         0.322032       0.059050
                                                         0.113512       0.000782
                          2      10    4fx2z            49.270190     538.758076
                                                         8.608625     -15.895429
                                                         2.987378       2.857166
                                                         0.930550       2.287038
                                                         0.322032       0.059050
                                                         0.113512       0.000782
                          2      10    4fxy2            49.270190     538.758076
                                                         8.608625     -15.895429
                                                         2.987378       2.857166
                                                         0.930550       2.287038
                                                         0.322032       0.059050
                                                         0.113512       0.000782
                          2      10    4fxyz            49.270190     933.156361
                                                         8.608625     -27.531691
                                                         2.987378       4.948757
                                                         0.930550       3.961267
                                                         0.322032       0.102278
                                                         0.113512       0.001354
                          2      10    4fxz2            49.270190     538.758076
                                                         8.608625     -15.895429
                                                         2.987378       2.857166
                                                         0.930550       2.287038
                                                         0.322032       0.059050
                                                         0.113512       0.000782
                          2      10    4fy3             49.270190     240.939936
                                                         8.608625      -7.108652
                                                         2.987378       1.277764
                                                         0.930550       1.022795
                                                         0.322032       0.026408
                                                         0.113512       0.000350
                          2      10    4fy2z            49.270190     538.758076
                                                         8.608625     -15.895429
                                                         2.987378       2.857166
                                                         0.930550       2.287038
                                                         0.322032       0.059050
                                                         0.113512       0.000782
                          2      10    4fyz2            49.270190     538.758076
                                                         8.608625     -15.895429
                                                         2.987378       2.857166
                                                         0.930550       2.287038
                                                         0.322032       0.059050
                                                         0.113512       0.000782
                          2      10    4fz3             49.270190     240.939936
                                                         8.608625      -7.108652
                                                         2.987378       1.277764
                                                         0.930550       1.022795
                                                         0.322032       0.026408
                                                         0.113512       0.000350

       Atomic covalent radius [Angstrom]:                                  0.750

       Atomic van der Waals radius [Angstrom]:                             1.550

     The atoms of this atomic kind are PAW atoms (GAPW):
       Hard Gaussian function radius:                                      1.400
       Rho0 radius:                                                        1.400
       Maximum GTO radius used for PAW projector construction:            24.566

     GAPW Soft Basis Set                                TZVPP-MOLOPT-PBE-ae_soft

       Number of orbital shell sets:                                           2
       Number of orbital shells:                                              11
       Number of primitive Cartesian functions:                                4
       Number of Cartesian basis functions:                                   36
       Number of spherical basis functions:                                   31
       Norm type:                                                              2

       Normalised Cartesian orbitals:

                        Set   Shell   Orbital            Exponent    Coefficient

                          1       1    1s         

                          2       1    1s                2.987378       0.535699
                                                         0.930550      -0.061635
                                                         0.322032       0.036074
                                                         0.113512       0.014500

                          2       2    2s                2.987378       0.054918
                                                         0.930550       0.396674
                                                         0.322032       0.082974
                                                         0.113512       0.032692

                          2       3    3s                2.987378      -0.229943
                                                         0.930550      -0.408076
                                                         0.322032       0.306069
                                                         0.113512       0.047996

                          2       4    4s                2.987378       0.637930
                                                         0.930550      -0.188982
                                                         0.322032      -0.186943
                                                         0.113512       0.171213

                          2       5    2px               2.987378       1.750760
                                                         0.930550       0.811118
                                                         0.322032       0.040684
                                                         0.113512       0.006367
                          2       5    2py               2.987378       1.750760
                                                         0.930550       0.811118
                                                         0.322032       0.040684
                                                         0.113512       0.006367
                          2       5    2pz               2.987378       1.750760
                                                         0.930550       0.811118
                                                         0.322032       0.040684
                                                         0.113512       0.006367

                          2       6    3px               2.987378      -0.764833
                                                         0.930550      -0.153789
                                                         0.322032       0.344073
                                                         0.113512       0.011134
                          2       6    3py               2.987378      -0.764833
                                                         0.930550      -0.153789
                                                         0.322032       0.344073
                                                         0.113512       0.011134
                          2       6    3pz               2.987378      -0.764833
                                                         0.930550      -0.153789
                                                         0.322032       0.344073
                                                         0.113512       0.011134

                          2       7    4px               2.987378      -0.049280
                                                         0.930550      -0.121777
                                                         0.322032      -0.047567
                                                         0.113512       0.104427
                          2       7    4py               2.987378      -0.049280
                                                         0.930550      -0.121777
                                                         0.322032      -0.047567
                                                         0.113512       0.104427
                          2       7    4pz               2.987378      -0.049280
                                                         0.930550      -0.121777
                                                         0.322032      -0.047567
                                                         0.113512       0.104427

                          2       8    3dx2              2.987378       4.861216
                                                         0.930550       0.975526
                                                         0.322032       0.004138
                                                         0.113512       0.008426
                          2       8    3dxy              2.987378       8.419873
                                                         0.930550       1.689661
                                                         0.322032       0.007167
                                                         0.113512       0.014594
                          2       8    3dxz              2.987378       8.419873
                                                         0.930550       1.689661
                                                         0.322032       0.007167
                                                         0.113512       0.014594
                          2       8    3dy2              2.987378       4.861216
                                                         0.930550       0.975526
                                                         0.322032       0.004138
                                                         0.113512       0.008426
                          2       8    3dyz              2.987378       8.419873
                                                         0.930550       1.689661
                                                         0.322032       0.007167
                                                         0.113512       0.014594
                          2       8    3dz2              2.987378       4.861216
                                                         0.930550       0.975526
                                                         0.322032       0.004138
                                                         0.113512       0.008426

                          2       9    4dx2              2.987378      -3.348764
                                                         0.930550       0.469670
                                                         0.322032       0.207542
                                                         0.113512      -0.007657
                          2       9    4dxy              2.987378      -5.800229
                                                         0.930550       0.813493
                                                         0.322032       0.359472
                                                         0.113512      -0.013263
                          2       9    4dxz              2.987378      -5.800229
                                                         0.930550       0.813493
                                                         0.322032       0.359472
                                                         0.113512      -0.013263
                          2       9    4dy2              2.987378      -3.348764
                                                         0.930550       0.469670
                                                         0.322032       0.207542
                                                         0.113512      -0.007657
                          2       9    4dyz              2.987378      -5.800229
                                                         0.930550       0.813493
                                                         0.322032       0.359472
                                                         0.113512      -0.013263
                          2       9    4dz2              2.987378      -3.348764
                                                         0.930550       0.469670
                                                         0.322032       0.207542
                                                         0.113512      -0.007657

                          2      10    4fx3              2.987378       1.277764
                                                         0.930550       1.022795
                                                         0.322032       0.026408
                                                         0.113512       0.000350
                          2      10    4fx2y             2.987378       2.857166
                                                         0.930550       2.287038
                                                         0.322032       0.059050
                                                         0.113512       0.000782
                          2      10    4fx2z             2.987378       2.857166
                                                         0.930550       2.287038
                                                         0.322032       0.059050
                                                         0.113512       0.000782
                          2      10    4fxy2             2.987378       2.857166
                                                         0.930550       2.287038
                                                         0.322032       0.059050
                                                         0.113512       0.000782
                          2      10    4fxyz             2.987378       4.948757
                                                         0.930550       3.961267
                                                         0.322032       0.102278
                                                         0.113512       0.001354
                          2      10    4fxz2             2.987378       2.857166
                                                         0.930550       2.287038
                                                         0.322032       0.059050
                                                         0.113512       0.000782
                          2      10    4fy3              2.987378       1.277764
                                                         0.930550       1.022795
                                                         0.322032       0.026408
                                                         0.113512       0.000350
                          2      10    4fy2z             2.987378       2.857166
                                                         0.930550       2.287038
                                                         0.322032       0.059050
                                                         0.113512       0.000782
                          2      10    4fyz2             2.987378       2.857166
                                                         0.930550       2.287038
                                                         0.322032       0.059050
                                                         0.113512       0.000782
                          2      10    4fz3              2.987378       1.277764
                                                         0.930550       1.022795
                                                         0.322032       0.026408
                                                         0.113512       0.000350

     AE Potential information for                                            ALL

       Description:                                       All-electron potential
                                          Krack, Parrinello, PCCP 2, 2105 (2000)

       Gaussian exponent of the core charge distribution:               5.979100
       Electronic configuration (s p d ...):                           4   3   0

  3. Atomic kind: H                                     Number of atoms:       8

     Orbital Basis Set                                       TZVPP-MOLOPT-PBE-ae

       Number of orbital shell sets:                                           1
       Number of orbital shells:                                               6
       Number of primitive Cartesian functions:                                5
       Number of Cartesian basis functions:                                   15
       Number of spherical basis functions:                                   14
       Norm type:                                                              2

       Normalised Cartesian orbitals:

                        Set   Shell   Orbital            Exponent    Coefficient

                          1       1    1s               34.177738      -6.423540
                                                         4.947701      -0.270539
                                                         1.065127       0.831136
                                                         0.293823      -0.051765
                                                         0.091371      -0.049397

                          1       2    2s               34.177738       3.211471
                                                         4.947701       0.528758
                                                         1.065127       0.154529
                                                         0.293823       0.227881
                                                         0.091371      -0.041080

                          1       3    3s               34.177738      -1.131577
                                                         4.947701      -0.040048
                                                         1.065127       0.164523
                                                         0.293823       0.077306
                                                         0.091371       0.076395

                          1       4    2px              34.177738     -11.084238
                                                         4.947701       1.341091
                                                         1.065127       1.416453
                                                         0.293823      -0.007684
                                                         0.091371       0.008886
                          1       4    2py              34.177738     -11.084238
                                                         4.947701       1.341091
                                                         1.065127       1.416453
                                                         0.293823      -0.007684
                                                         0.091371       0.008886
                          1       4    2pz              34.177738     -11.084238
                                                         4.947701       1.341091
                                                         1.065127       1.416453
                                                         0.293823      -0.007684
                                                         0.091371       0.008886

                          1       5    3px              34.177738       9.643751
                                                         4.947701      -0.549928
                                                         1.065127       0.106963
                                                         0.293823       0.330130
                                                         0.091371      -0.013062
                          1       5    3py              34.177738       9.643751
                                                         4.947701      -0.549928
                                                         1.065127       0.106963
                                                         0.293823       0.330130
                                                         0.091371      -0.013062
                          1       5    3pz              34.177738       9.643751
                                                         4.947701      -0.549928
                                                         1.065127       0.106963
                                                         0.293823       0.330130
                                                         0.091371      -0.013062

                          1       6    3dx2             34.177738       9.702470
                                                         4.947701      -1.124420
                                                         1.065127       1.617163
                                                         0.293823       0.052231
                                                         0.091371      -0.004737
                          1       6    3dxy             34.177738      16.805171
                                                         4.947701      -1.947552
                                                         1.065127       2.801009
                                                         0.293823       0.090468
                                                         0.091371      -0.008204
                          1       6    3dxz             34.177738      16.805171
                                                         4.947701      -1.947552
                                                         1.065127       2.801009
                                                         0.293823       0.090468
                                                         0.091371      -0.008204
                          1       6    3dy2             34.177738       9.702470
                                                         4.947701      -1.124420
                                                         1.065127       1.617163
                                                         0.293823       0.052231
                                                         0.091371      -0.004737
                          1       6    3dyz             34.177738      16.805171
                                                         4.947701      -1.947552
                                                         1.065127       2.801009
                                                         0.293823       0.090468
                                                         0.091371      -0.008204
                          1       6    3dz2             34.177738       9.702470
                                                         4.947701      -1.124420
                                                         1.065127       1.617163
                                                         0.293823       0.052231
                                                         0.091371      -0.004737

       Atomic covalent radius [Angstrom]:                                  0.320

       Atomic van der Waals radius [Angstrom]:                             1.090

     The atoms of this atomic kind are PAW atoms (GAPW):
       Hard Gaussian function radius:                                      1.000
       Rho0 radius:                                                        1.000
       Maximum GTO radius used for PAW projector construction:            24.566

     GAPW Soft Basis Set                                TZVPP-MOLOPT-PBE-ae_soft

       Number of orbital shell sets:                                           1
       Number of orbital shells:                                               6
       Number of primitive Cartesian functions:                                4
       Number of Cartesian basis functions:                                   15
       Number of spherical basis functions:                                   14
       Norm type:                                                              2

       Normalised Cartesian orbitals:

                        Set   Shell   Orbital            Exponent    Coefficient

                          1       1    1s                4.947701      -0.270539
                                                         1.065127       0.831136
                                                         0.293823      -0.051765
                                                         0.091371      -0.049397

                          1       2    2s                4.947701       0.528758
                                                         1.065127       0.154529
                                                         0.293823       0.227881
                                                         0.091371      -0.041080

                          1       3    3s                4.947701      -0.040048
                                                         1.065127       0.164523
                                                         0.293823       0.077306
                                                         0.091371       0.076395

                          1       4    2px               4.947701       1.341091
                                                         1.065127       1.416453
                                                         0.293823      -0.007684
                                                         0.091371       0.008886
                          1       4    2py               4.947701       1.341091
                                                         1.065127       1.416453
                                                         0.293823      -0.007684
                                                         0.091371       0.008886
                          1       4    2pz               4.947701       1.341091
                                                         1.065127       1.416453
                                                         0.293823      -0.007684
                                                         0.091371       0.008886

                          1       5    3px               4.947701      -0.549928
                                                         1.065127       0.106963
                                                         0.293823       0.330130
                                                         0.091371      -0.013062
                          1       5    3py               4.947701      -0.549928
                                                         1.065127       0.106963
                                                         0.293823       0.330130
                                                         0.091371      -0.013062
                          1       5    3pz               4.947701      -0.549928
                                                         1.065127       0.106963
                                                         0.293823       0.330130
                                                         0.091371      -0.013062

                          1       6    3dx2              4.947701      -1.124420
                                                         1.065127       1.617163
                                                         0.293823       0.052231
                                                         0.091371      -0.004737
                          1       6    3dxy              4.947701      -1.947552
                                                         1.065127       2.801009
                                                         0.293823       0.090468
                                                         0.091371      -0.008204
                          1       6    3dxz              4.947701      -1.947552
                                                         1.065127       2.801009
                                                         0.293823       0.090468
                                                         0.091371      -0.008204
                          1       6    3dy2              4.947701      -1.124420
                                                         1.065127       1.617163
                                                         0.293823       0.052231
                                                         0.091371      -0.004737
                          1       6    3dyz              4.947701      -1.947552
                                                         1.065127       2.801009
                                                         0.293823       0.090468
                                                         0.091371      -0.008204
                          1       6    3dz2              4.947701      -1.124420
                                                         1.065127       1.617163
                                                         0.293823       0.052231
                                                         0.091371      -0.004737

     AE Potential information for                                            ALL

       Description:                                       All-electron potential
                                          Krack, Parrinello, PCCP 2, 2105 (2000)

       Gaussian exponent of the core charge distribution:              12.500000
       Electronic configuration (s p d ...):                           1   0   0


 MOLECULE KIND INFORMATION


 All atoms are their own molecule, skipping detailed information


 TOTAL NUMBERS AND MAXIMUM NUMBERS

  Total number of            - Atomic kinds:                                   3
                             - Atoms:                                         15
                             - Shell sets:                                    22
                             - Shells:                                       125
                             - Primitive Cartesian functions:                124
                             - Cartesian basis functions:                    372
                             - Spherical basis functions:                    329

  Maximum angular momentum of the orbital basis functions:                     3


 MODULE QUICKSTEP: ATOMIC COORDINATES IN ANGSTROM

   Atom Kind Element         X             Y             Z       Z(eff)     Mass
      1    1 C     6     13.478330     15.640145     15.500000   6.0000  12.0107
      2    1 C     6     13.581160     13.479815     16.172150   6.0000  12.0107
      3    1 C     6     13.581160     13.479815     14.827850   6.0000  12.0107
      4    2 N     7     13.519000     14.801745     14.444110   7.0000  14.0067
      5    2 N     7     13.519000     14.801745     16.555890   7.0000  14.0067
      6    3 H     1     13.622310     12.659715     16.871040   1.0000   1.0079
      7    3 H     1     13.622310     12.659715     14.128960   1.0000   1.0079
      8    1 C     6     13.498930     15.253835     13.076230   6.0000  12.0107
      9    1 C     6     13.498930     15.253835     17.923770   6.0000  12.0107
     10    3 H     1     14.386270     14.917465     12.538650   1.0000   1.0079
     11    3 H     1     12.613730     14.889505     12.553120   1.0000   1.0079
     12    3 H     1     13.483170     16.340285     13.080200   1.0000   1.0079
     13    3 H     1     12.613730     14.889505     18.446880   1.0000   1.0079
     14    3 H     1     14.386270     14.917465     18.461350   1.0000   1.0079
     15    3 H     1     13.483170     16.340285     17.919800   1.0000   1.0079



 SCF PARAMETERS         Density guess:                                    ATOMIC
                        --------------------------------------------------------
                        max_scf:                                             200
                        max_scf_history:                                       0
                        max_diis:                                              4
                        --------------------------------------------------------
                        eps_scf:                                        1.00E-07
                        eps_scf_history:                                0.00E+00
                        eps_diis:                                       0.00E+00
                        eps_eigval:                                     1.00E-05
                        --------------------------------------------------------
                        level_shift [a.u.]:                             0.000000
                        --------------------------------------------------------
                        Outer loop SCF in use 
                        No variables optimised in outer loop
                        eps_scf                                         1.00E-07
                        max_scf                                               20
                        No outer loop optimization
                        step_size                                       5.00E-01

 PW_GRID| Information for grid number                                          1
 PW_GRID| Cutoff [a.u.]                                                    320.0
 PW_GRID| spherical cutoff:                                                   NO
 PW_GRID|   Bounds   1           -216     215                Points:         432
 PW_GRID|   Bounds   2           -225     224                Points:         450
 PW_GRID|   Bounds   3           -240     239                Points:         480
 PW_GRID| Volume element (a.u.^3)  0.1755E-02     Volume (a.u.^3)    163802.3253
 PW_GRID| Grid span                                                    FULLSPACE

 PW_GRID| Information for grid number                                          2
 PW_GRID| Number of the reference grid                                         1
 PW_GRID| Cutoff [a.u.]                                                    106.7
 PW_GRID| spherical cutoff:                                                   NO
 PW_GRID|   Bounds   1           -120     119                Points:         240
 PW_GRID|   Bounds   2           -128     127                Points:         256
 PW_GRID|   Bounds   3           -144     143                Points:         288
 PW_GRID| Volume element (a.u.^3)  0.9257E-02     Volume (a.u.^3)    163802.3253
 PW_GRID| Grid span                                                    FULLSPACE

 PW_GRID| Information for grid number                                          3
 PW_GRID| Number of the reference grid                                         1
 PW_GRID| Cutoff [a.u.]                                                     35.6
 PW_GRID| spherical cutoff:                                                   NO
 PW_GRID|   Bounds   1            -72      71                Points:         144
 PW_GRID|   Bounds   2            -75      74                Points:         150
 PW_GRID|   Bounds   3            -80      79                Points:         160
 PW_GRID| Volume element (a.u.^3)  0.4740E-01     Volume (a.u.^3)    163802.3253
 PW_GRID| Grid span                                                    FULLSPACE

 PW_GRID| Information for grid number                                          4
 PW_GRID| Number of the reference grid                                         1
 PW_GRID| Cutoff [a.u.]                                                     11.9
 PW_GRID| spherical cutoff:                                                   NO
 PW_GRID|   Bounds   1            -40      39                Points:          80
 PW_GRID|   Bounds   2            -45      44                Points:          90
 PW_GRID|   Bounds   3            -48      47                Points:          96
 PW_GRID| Volume element (a.u.^3)  0.2370         Volume (a.u.^3)    163802.3253
 PW_GRID| Grid span                                                    FULLSPACE

 PW_GRID| Information for grid number                                          5
 PW_GRID| Number of the reference grid                                         1
 PW_GRID| Cutoff [a.u.]                                                      4.0
 PW_GRID| spherical cutoff:                                                   NO
 PW_GRID|   Bounds   1            -22      22                Points:          45
 PW_GRID|   Bounds   2            -27      26                Points:          54
 PW_GRID|   Bounds   3            -27      26                Points:          54
 PW_GRID| Volume element (a.u.^3)   1.248         Volume (a.u.^3)    163802.3253
 PW_GRID| Grid span                                                    FULLSPACE

 POISSON| Solver                                                        ANALYTIC
 POISSON| Periodicity                                                       NONE

 RS_GRID| Information for grid number                                          1
 RS_GRID|   Bounds   1           -216     215                Points:         432
 RS_GRID|   Bounds   2           -225     224                Points:         450
 RS_GRID|   Bounds   3           -240     239                Points:         480

 RS_GRID| Information for grid number                                          2
 RS_GRID|   Bounds   1           -120     119                Points:         240
 RS_GRID|   Bounds   2           -128     127                Points:         256
 RS_GRID|   Bounds   3           -144     143                Points:         288

 RS_GRID| Information for grid number                                          3
 RS_GRID|   Bounds   1            -72      71                Points:         144
 RS_GRID|   Bounds   2            -75      74                Points:         150
 RS_GRID|   Bounds   3            -80      79                Points:         160

 RS_GRID| Information for grid number                                          4
 RS_GRID|   Bounds   1            -40      39                Points:          80
 RS_GRID|   Bounds   2            -45      44                Points:          90
 RS_GRID|   Bounds   3            -48      47                Points:          96

 RS_GRID| Information for grid number                                          5
 RS_GRID|   Bounds   1            -22      22                Points:          45
 RS_GRID|   Bounds   2            -27      26                Points:          54
 RS_GRID|   Bounds   3            -27      26                Points:          54

 Extrapolation method: initial_guess

 Atomic guess: The first density matrix is obtained in terms of atomic orbitals
               and electronic configurations assigned to each atomic kind

 Guess for atomic kind: C

 Electronic structure
    Total number of core electrons                                          0.00
    Total number of valence electrons                                       6.00
    Total number of electrons                                               6.00
    Multiplicity                                                   not specified
    S      2.00  2.00
    P      2.00


 *******************************************************************************
                  Iteration          Convergence                     Energy [au]
 *******************************************************************************
                          1        0.173655E-01                 -37.376787438959
                          2        0.676160E-02                 -37.376929801325
                          3        0.811969E-03                 -37.376951023995
                          4        0.160224E-04                 -37.376951339065
                          5        0.242098E-06                 -37.376951339187

 Energy components [Hartree]           Total Energy ::          -37.376951339187
                                        Band Energy ::          -20.702774312096
                                     Kinetic Energy ::           37.976803393369
                                   Potential Energy ::          -75.353754732556
                                      Virial (-V/T) ::            1.984204777638
                                        Core Energy ::          -50.754367308545
                                          XC Energy ::           -4.825764056545
                                     Coulomb Energy ::           18.203180025904

 Orbital energies  State     L     Occupation   Energy[a.u.]          Energy[eV]

                       1     0          2.000      -9.788461         -266.357558
                       2     0          2.000      -0.425735          -11.584833

                       1     1          2.000      -0.137192           -3.733179


 Total Electron Density at R=0:                                       119.617441

 Guess for atomic kind: N

 Electronic structure
    Total number of core electrons                                          0.00
    Total number of valence electrons                                       7.00
    Total number of electrons                                               7.00
    Multiplicity                                                   not specified
    S      2.00  2.00
    P      3.00


 *******************************************************************************
                  Iteration          Convergence                     Energy [au]
 *******************************************************************************
                          1        0.388374                     -53.972199509139
                          2        0.353293                     -53.976990897687
                          3        0.163616E-01                 -54.014551313244
                          4        0.500667E-03                 -54.014632721368
                          5        0.432519E-04                 -54.014632788190
                          6        0.221961E-06                 -54.014632788722

 Energy components [Hartree]           Total Energy ::          -54.014632788722
                                        Band Energy ::          -30.202432646837
                                     Kinetic Energy ::           53.701411266150
                                   Potential Energy ::         -107.716044054872
                                      Virial (-V/T) ::            2.005832649742
                                        Core Energy ::          -73.642211071888
                                          XC Energy ::           -6.131041439843
                                     Coulomb Energy ::           25.758619723010

 Orbital energies  State     L     Occupation   Energy[a.u.]          Energy[eV]

                       1     0          2.000     -14.018319         -381.457848
                       2     0          2.000      -0.679727          -18.496319

                       1     1          3.000      -0.268780           -7.313885


 Total Electron Density at R=0:                                       197.125592

 Guess for atomic kind: H

 Electronic structure
    Total number of core electrons                                          0.00
    Total number of valence electrons                                       1.00
    Total number of electrons                                               1.00
    Multiplicity                                                   not specified
    S      1.00


 *******************************************************************************
                  Iteration          Convergence                     Energy [au]
 *******************************************************************************
                          1        0.842545E-02                  -0.445100128715
                          2        0.129529E-02                  -0.445186551903
                          3        0.161091E-05                  -0.445188626016
                          4        0.290776E-07                  -0.445188626019

 Energy components [Hartree]           Total Energy ::           -0.445188626019
                                        Band Energy ::           -0.232306922112
                                     Kinetic Energy ::            0.426044212024
                                   Potential Energy ::           -0.871232838043
                                      Virial (-V/T) ::            2.044935275390
                                        Core Energy ::           -0.495846412394
                                          XC Energy ::           -0.232824427171
                                     Coulomb Energy ::            0.283482213547

 Orbital energies  State     L     Occupation   Energy[a.u.]          Energy[eV]

                       1     0          1.000      -0.232307           -6.321393


 Total Electron Density at R=0:                                         0.247530
 Re-scaling the density matrix to get the right number of electrons
                  # Electrons              Trace(P)               Scaling factor
                           52                52.000                        1.000

 Number of electrons:                                                         52
 Number of occupied orbitals:                                                 26
 Number of molecular orbitals:                                                26

 Number of orbital functions:                                                329
 Number of independent orbital functions:                                    329


 SCF WAVEFUNCTION OPTIMIZATION

  ----------------------------------- OT ---------------------------------------
  Minimizer      : DIIS                : direct inversion
                                         in the iterative subspace
                                         using   7 DIIS vectors
                                         safer DIIS on
  Preconditioner : FULL_ALL            : diagonalization, state selective
  Precond_solver : DEFAULT
  stepsize       :    0.10000000                  energy_gap     :    0.00100000
  eps_taylor     :   0.10000E-15                  max_taylor     :             4
  ----------------------------------- OT ---------------------------------------

  Step     Update method      Time    Convergence         Total energy    Change
  ------------------------------------------------------------------------------
 SKALA_GPW| Atom-composite cross support/maxima   2.315927033471E+00   4.240824809393E+01   4.927385174502E+02   7.675203803526E+02
 SKALA_GPW| Active atom-composite XC energy  -4.1508075835211521E+01
 SKALA_GPW| Active atom-composite electrons   5.1999979288749941E+01
 SKALA_GPW| Active atom-composite density range  -4.9525011061035163E-09   9.3409890166418933E+01
 SKALA_GPW| Active atom-composite tau range  -8.6868595550212097E-08   2.1572541569127020E+03
 SKALA_GPW| Active atom-composite tau integral   2.9401231965889241E+02
 SKALA_GPW| Active atom-composite max gradient   1.2192590481552731E+03
     1 OT DIIS     0.10E+00  145.4     0.11714175      -290.9453021911 -2.91E+02
 SKALA_GPW| Atom-composite cross support/maxima   2.315927033471E+00   4.401472290730E+01   5.211622620604E+02   8.284426564569E+02
 SKALA_GPW| Active atom-composite XC energy  -4.3258754634016768E+01
 SKALA_GPW| Active atom-composite electrons   5.1999980950799539E+01
 SKALA_GPW| Active atom-composite density range  -4.3028260441142730E-09   9.8474923228601469E+01
 SKALA_GPW| Active atom-composite tau range  -7.8080410659379508E-08   2.2939057976155850E+03
 SKALA_GPW| Active atom-composite tau integral   3.0610439129352187E+02
 SKALA_GPW| Active atom-composite max gradient   1.2916123758516740E+03
     2 OT DIIS     0.10E+00  125.8     0.06444953      -299.7777778119 -8.83E+00
 SKALA_GPW| Atom-composite cross support/maxima   2.315927033471E+00   4.395462653346E+01   5.288561468652E+02   8.545072229375E+02
 SKALA_GPW| Active atom-composite XC energy  -4.3641493498645680E+01
 SKALA_GPW| Active atom-composite electrons   5.1999980592637172E+01
 SKALA_GPW| Active atom-composite density range  -5.2948024109149843E-09   9.9563156094533383E+01
 SKALA_GPW| Active atom-composite tau range  -7.2741357923117682E-08   2.3416940795661803E+03
 SKALA_GPW| Active atom-composite tau integral   3.0571199185907199E+02
 SKALA_GPW| Active atom-composite max gradient   1.3126486732139954E+03
     3 OT DIIS     0.10E+00  129.2     0.02528177      -303.2146347840 -3.44E+00
 SKALA_GPW| Atom-composite cross support/maxima   2.315927033471E+00   4.377241519099E+01   5.283850397359E+02   8.569662407149E+02
 SKALA_GPW| Active atom-composite XC energy  -4.3728253053641744E+01
 SKALA_GPW| Active atom-composite electrons   5.1999980559755315E+01
 SKALA_GPW| Active atom-composite density range  -6.0636111464486951E-09   9.9679084721610252E+01
 SKALA_GPW| Active atom-composite tau range  -7.3045424682912961E-08   2.3500674772483094E+03
 SKALA_GPW| Active atom-composite tau integral   3.0494754799123075E+02
 SKALA_GPW| Active atom-composite max gradient   1.3161029780840354E+03
     4 OT DIIS     0.10E+00  126.8     0.01762165      -303.7637263178 -5.49E-01
 SKALA_GPW| Atom-composite cross support/maxima   2.315927033471E+00   4.365586085789E+01   5.282272649442E+02   8.588652611051E+02
 SKALA_GPW| Active atom-composite XC energy  -4.3822834869386085E+01
 SKALA_GPW| Active atom-composite electrons   5.1999980839827138E+01
 SKALA_GPW| Active atom-composite density range  -7.1328633051426790E-09   9.9447787274663284E+01
 SKALA_GPW| Active atom-composite tau range  -7.2231895842242153E-08   2.3462671936330535E+03
 SKALA_GPW| Active atom-composite tau integral   3.0437132015399641E+02
 SKALA_GPW| Active atom-composite max gradient   1.3133327155694326E+03
     5 OT DIIS     0.10E+00  126.1     0.01205705      -304.2199152360 -4.56E-01
 SKALA_GPW| Atom-composite cross support/maxima   2.315927033471E+00   4.358589272326E+01   5.277808578600E+02   8.591418321126E+02
 SKALA_GPW| Active atom-composite XC energy  -4.3854497884226220E+01
 SKALA_GPW| Active atom-composite electrons   5.1999980934654324E+01
 SKALA_GPW| Active atom-composite density range  -7.8703773092863943E-09   9.9376544347108975E+01
 SKALA_GPW| Active atom-composite tau range  -7.4599664614753834E-08   2.3455252445325391E+03
 SKALA_GPW| Active atom-composite tau integral   3.0394748295200037E+02
 SKALA_GPW| Active atom-composite max gradient   1.3127735992050143E+03
     6 OT DIIS     0.10E+00  125.4     0.00878048      -304.4121971268 -1.92E-01
 SKALA_GPW| Atom-composite cross support/maxima   2.315927033471E+00   4.359857014004E+01   5.274503714511E+02   8.579520965670E+02
 SKALA_GPW| Active atom-composite XC energy  -4.3865405003617738E+01
 SKALA_GPW| Active atom-composite electrons   5.1999980950963639E+01
 SKALA_GPW| Active atom-composite density range  -8.3780347433784648E-09   9.9430527487779401E+01
 SKALA_GPW| Active atom-composite tau range  -7.9497104970946278E-08   2.3446213282046506E+03
 SKALA_GPW| Active atom-composite tau integral   3.0378565904271022E+02
 SKALA_GPW| Active atom-composite max gradient   1.3128636545576724E+03
     7 OT DIIS     0.10E+00  128.0     0.00686099      -304.5665511445 -1.54E-01
 SKALA_GPW| Atom-composite cross support/maxima   2.315927033471E+00   4.354492280048E+01   5.268758579675E+02   8.573457870405E+02
 SKALA_GPW| Active atom-composite XC energy  -4.3872295633893813E+01
 SKALA_GPW| Active atom-composite electrons   5.1999980974714923E+01
 SKALA_GPW| Active atom-composite density range  -8.8266132853404928E-09   9.9429863214314651E+01
 SKALA_GPW| Active atom-composite tau range  -8.3643433354902767E-08   2.3451843746339741E+03
 SKALA_GPW| Active atom-composite tau integral   3.0359298636391918E+02
 SKALA_GPW| Active atom-composite max gradient   1.3129991493215325E+03
     8 OT DIIS     0.10E+00  124.3     0.00441088      -304.6498209871 -8.33E-02
 SKALA_GPW| Atom-composite cross support/maxima   2.315927033471E+00   4.353270675742E+01   5.266456120786E+02   8.568605984107E+02
 SKALA_GPW| Active atom-composite XC energy  -4.3885018155590345E+01
 SKALA_GPW| Active atom-composite electrons   5.1999980902747666E+01
 SKALA_GPW| Active atom-composite density range  -9.0417304078517912E-09   9.9458658092859537E+01
 SKALA_GPW| Active atom-composite tau range  -8.5762214878583276E-08   2.3457916346780748E+03
 SKALA_GPW| Active atom-composite tau integral   3.0368226135750376E+02
 SKALA_GPW| Active atom-composite max gradient   1.3133709150812713E+03
     9 OT DIIS     0.10E+00  126.6     0.00404769      -304.6804177197 -3.06E-02
 SKALA_GPW| Atom-composite cross support/maxima   2.315927033471E+00   4.349296956143E+01   5.263145483557E+02   8.567123136341E+02
 SKALA_GPW| Active atom-composite XC energy  -4.3897849567956328E+01
 SKALA_GPW| Active atom-composite electrons   5.1999980844472432E+01
 SKALA_GPW| Active atom-composite density range  -9.4424830809063847E-09   9.9464136657798576E+01
 SKALA_GPW| Active atom-composite tau range  -8.9358672230762110E-08   2.3468971862006069E+03
 SKALA_GPW| Active atom-composite tau integral   3.0365591137328545E+02
 SKALA_GPW| Active atom-composite max gradient   1.3137721263832741E+03
    10 OT DIIS     0.10E+00  125.2     0.00205881      -304.7251655189 -4.47E-02
 SKALA_GPW| Atom-composite cross support/maxima   2.315927033471E+00   4.349415484195E+01   5.264294907736E+02   8.570527765060E+02
 SKALA_GPW| Active atom-composite XC energy  -4.3906125639523594E+01
 SKALA_GPW| Active atom-composite electrons   5.1999980779246194E+01
 SKALA_GPW| Active atom-composite density range  -9.6302627536954272E-09   9.9436927004388266E+01
 SKALA_GPW| Active atom-composite tau range  -9.0936562578852881E-08   2.3464980022076961E+03
 SKALA_GPW| Active atom-composite tau integral   3.0365962739209488E+02
 SKALA_GPW| Active atom-composite max gradient   1.3135002747364254E+03
    11 OT DIIS     0.10E+00  125.3     0.00127732      -304.7389794134 -1.38E-02
 SKALA_GPW| Atom-composite cross support/maxima   2.315927033471E+00   4.350290942728E+01   5.265412638652E+02   8.572281999455E+02
 SKALA_GPW| Active atom-composite XC energy  -4.3910143939839188E+01
 SKALA_GPW| Active atom-composite electrons   5.1999980730574102E+01
 SKALA_GPW| Active atom-composite density range  -9.6914421808336553E-09   9.9442860724281005E+01
 SKALA_GPW| Active atom-composite tau range  -9.1454260013139899E-08   2.3466346068044040E+03
 SKALA_GPW| Active atom-composite tau integral   3.0368184677337024E+02
 SKALA_GPW| Active atom-composite max gradient   1.3135758238039732E+03
    12 OT DIIS     0.10E+00  125.9     0.00106168      -304.7432441090 -4.26E-03
 SKALA_GPW| Atom-composite cross support/maxima   2.315927033471E+00   4.350006092819E+01   5.265428679236E+02   8.572930843186E+02
 SKALA_GPW| Active atom-composite XC energy  -4.3910336495064904E+01
 SKALA_GPW| Active atom-composite electrons   5.1999980688226927E+01
 SKALA_GPW| Active atom-composite density range  -9.7593490839960953E-09   9.9436493582137061E+01
 SKALA_GPW| Active atom-composite tau range  -9.2000101054657844E-08   2.3465709628204213E+03
 SKALA_GPW| Active atom-composite tau integral   3.0366123005810124E+02
 SKALA_GPW| Active atom-composite max gradient   1.3135073419543253E+03
    13 OT DIIS     0.10E+00  125.7     0.00069807      -304.7463156257 -3.07E-03
 SKALA_GPW| Atom-composite cross support/maxima   2.315927033471E+00   4.350001022412E+01   5.265040183157E+02   8.571466392773E+02
 SKALA_GPW| Active atom-composite XC energy  -4.3912888628956921E+01
 SKALA_GPW| Active atom-composite electrons   5.1999980687049465E+01
 SKALA_GPW| Active atom-composite density range  -9.7524099064697967E-09   9.9433808590420469E+01
 SKALA_GPW| Active atom-composite tau range  -9.1932561471397846E-08   2.3463007670549318E+03
 SKALA_GPW| Active atom-composite tau integral   3.0368704558235839E+02
 SKALA_GPW| Active atom-composite max gradient   1.3134036467313829E+03
    14 OT DIIS     0.10E+00  125.1     0.00063701      -304.7466741622 -3.59E-04
 SKALA_GPW| Atom-composite cross support/maxima   2.315927033471E+00   4.349727991924E+01   5.264759983093E+02   8.571174859712E+02
 SKALA_GPW| Active atom-composite XC energy  -4.3913123199192491E+01
 SKALA_GPW| Active atom-composite electrons   5.1999980679557630E+01
 SKALA_GPW| Active atom-composite density range  -9.7774300908770087E-09   9.9433922558485222E+01
 SKALA_GPW| Active atom-composite tau range  -9.2120380848585528E-08   2.3462577100870476E+03
 SKALA_GPW| Active atom-composite tau integral   3.0368323298219622E+02
 SKALA_GPW| Active atom-composite max gradient   1.3134091943940384E+03
    15 OT DIIS     0.10E+00  127.0     0.00031967      -304.7474585094 -7.84E-04
 SKALA_GPW| Atom-composite cross support/maxima   2.315927033471E+00   4.349777287560E+01   5.264720114222E+02   8.571001549083E+02
 SKALA_GPW| Active atom-composite XC energy  -4.3914642859095061E+01
 SKALA_GPW| Active atom-composite electrons   5.1999980695138056E+01
 SKALA_GPW| Active atom-composite density range  -9.7921107140347931E-09   9.9431867273361291E+01
 SKALA_GPW| Active atom-composite tau range  -9.2225422432173338E-08   2.3462406626131205E+03
 SKALA_GPW| Active atom-composite tau integral   3.0369375670483265E+02
 SKALA_GPW| Active atom-composite max gradient   1.3133779746459634E+03
    16 OT DIIS     0.10E+00  127.4     0.00020171      -304.7477246516 -2.66E-04
 SKALA_GPW| Atom-composite cross support/maxima   2.315927033471E+00   4.349790041598E+01   5.264798057846E+02   8.571255539005E+02
 SKALA_GPW| Active atom-composite XC energy  -4.3914931725017269E+01
 SKALA_GPW| Active atom-composite electrons   5.1999980702010582E+01
 SKALA_GPW| Active atom-composite density range  -9.8057170553717376E-09   9.9430871624828185E+01
 SKALA_GPW| Active atom-composite tau range  -9.2333112925045257E-08   2.3462045656946111E+03
 SKALA_GPW| Active atom-composite tau integral   3.0369350402392575E+02
 SKALA_GPW| Active atom-composite max gradient   1.3133717742146366E+03
    17 OT DIIS     0.10E+00  125.4     0.00013238      -304.7478460386 -1.21E-04
 SKALA_GPW| Atom-composite cross support/maxima   2.315927033471E+00   4.349774611754E+01   5.264818050372E+02   8.571375658962E+02
 SKALA_GPW| Active atom-composite XC energy  -4.3914859885353266E+01
 SKALA_GPW| Active atom-composite electrons   5.1999980708235917E+01
 SKALA_GPW| Active atom-composite density range  -9.8103848283297714E-09   9.9430474882915107E+01
 SKALA_GPW| Active atom-composite tau range  -9.2371775429206225E-08   2.3461808988362100E+03
 SKALA_GPW| Active atom-composite tau integral   3.0369193843607422E+02
 SKALA_GPW| Active atom-composite max gradient   1.3133685721990842E+03
    18 OT DIIS     0.10E+00  123.6     0.00009556      -304.7478935711 -4.75E-05
 SKALA_GPW| Atom-composite cross support/maxima   2.315927033471E+00   4.349770389983E+01   5.264806445606E+02   8.571359173184E+02
 SKALA_GPW| Active atom-composite XC energy  -4.3914800318926595E+01
 SKALA_GPW| Active atom-composite electrons   5.1999980711787437E+01
 SKALA_GPW| Active atom-composite density range  -9.8112769351759894E-09   9.9430715878055977E+01
 SKALA_GPW| Active atom-composite tau range  -9.2379931475046291E-08   2.3461837778580420E+03
 SKALA_GPW| Active atom-composite tau integral   3.0369146370190032E+02
 SKALA_GPW| Active atom-composite max gradient   1.3133694241560104E+03
    19 OT DIIS     0.10E+00  126.3     0.00006951      -304.7479182160 -2.46E-05
 SKALA_GPW| Atom-composite cross support/maxima   2.315927033471E+00   4.349770620558E+01   5.264787883318E+02   8.571289994221E+02
 SKALA_GPW| Active atom-composite XC energy  -4.3914868096675100E+01
 SKALA_GPW| Active atom-composite electrons   5.1999980712264723E+01
 SKALA_GPW| Active atom-composite density range  -9.8115785834694259E-09   9.9430702429691692E+01
 SKALA_GPW| Active atom-composite tau range  -9.2385129992748231E-08   2.3461738042592301E+03
 SKALA_GPW| Active atom-composite tau integral   3.0369245258423979E+02
 SKALA_GPW| Active atom-composite max gradient   1.3133662871604965E+03
    20 OT DIIS     0.10E+00  127.0     0.00005258      -304.7479320835 -1.39E-05
 SKALA_GPW| Atom-composite cross support/maxima   2.315927033471E+00   4.349779299391E+01   5.264777590508E+02   8.571237861861E+02
 SKALA_GPW| Active atom-composite XC energy  -4.3914974433071080E+01
 SKALA_GPW| Active atom-composite electrons   5.1999980708762259E+01
 SKALA_GPW| Active atom-composite density range  -9.8133182490877071E-09   9.9430454166985072E+01
 SKALA_GPW| Active atom-composite tau range  -9.2400518407743178E-08   2.3461626694120596E+03
 SKALA_GPW| Active atom-composite tau integral   3.0369339793298514E+02
 SKALA_GPW| Active atom-composite max gradient   1.3133612646823872E+03
    21 OT DIIS     0.10E+00  124.6     0.00003360      -304.7479447317 -1.26E-05
 SKALA_GPW| Atom-composite cross support/maxima   2.315927033471E+00   4.349786919019E+01   5.264785539219E+02   8.571242383496E+02
 SKALA_GPW| Active atom-composite XC energy  -4.3915034588337925E+01
 SKALA_GPW| Active atom-composite electrons   5.1999980704856760E+01
 SKALA_GPW| Active atom-composite density range  -9.8145708904597780E-09   9.9430196178055539E+01
 SKALA_GPW| Active atom-composite tau range  -9.2409324226041781E-08   2.3461565301106789E+03
 SKALA_GPW| Active atom-composite tau integral   3.0369372047458700E+02
 SKALA_GPW| Active atom-composite max gradient   1.3133572994590279E+03
    22 OT DIIS     0.10E+00  124.7     0.00002422      -304.7479489075 -4.18E-06
 SKALA_GPW| Atom-composite cross support/maxima   2.315927033471E+00   4.349784525570E+01   5.264788248640E+02   8.571240938993E+02
 SKALA_GPW| Active atom-composite XC energy  -4.3915048455955883E+01
 SKALA_GPW| Active atom-composite electrons   5.1999980702748452E+01
 SKALA_GPW| Active atom-composite density range  -9.8152568148523899E-09   9.9430150396067901E+01
 SKALA_GPW| Active atom-composite tau range  -9.2413810556148170E-08   2.3461521662914765E+03
 SKALA_GPW| Active atom-composite tau integral   3.0369370282733558E+02
 SKALA_GPW| Active atom-composite max gradient   1.3133562772221699E+03
    23 OT DIIS     0.10E+00  124.4     0.00001946      -304.7479505738 -1.67E-06
 SKALA_GPW| Atom-composite cross support/maxima   2.315927033471E+00   4.349780038458E+01   5.264783549772E+02   8.571226306760E+02
 SKALA_GPW| Active atom-composite XC energy  -4.3915064491915153E+01
 SKALA_GPW| Active atom-composite electrons   5.1999980701029749E+01
 SKALA_GPW| Active atom-composite density range  -9.8159457890143575E-09   9.9430130199019160E+01
 SKALA_GPW| Active atom-composite tau range  -9.2418477985559532E-08   2.3461511226434691E+03
 SKALA_GPW| Active atom-composite tau integral   3.0369365874022111E+02
 SKALA_GPW| Active atom-composite max gradient   1.3133556579508424E+03
    24 OT DIIS     0.10E+00  125.7     0.00001500      -304.7479519727 -1.40E-06
 SKALA_GPW| Atom-composite cross support/maxima   2.315927033471E+00   4.349781985563E+01   5.264777097893E+02   8.571214152422E+02
 SKALA_GPW| Active atom-composite XC energy  -4.3915089701604856E+01
 SKALA_GPW| Active atom-composite electrons   5.1999980700370514E+01
 SKALA_GPW| Active atom-composite density range  -9.8163468401920754E-09   9.9430100944491457E+01
 SKALA_GPW| Active atom-composite tau range  -9.2421406132093274E-08   2.3461512351451256E+03
 SKALA_GPW| Active atom-composite tau integral   3.0369367908213945E+02
 SKALA_GPW| Active atom-composite max gradient   1.3133551736853194E+03
    25 OT DIIS     0.10E+00  124.0     0.00001194      -304.7479528054 -8.33E-07
 SKALA_GPW| Atom-composite cross support/maxima   2.315927033471E+00   4.349787952201E+01   5.264774617609E+02   8.571207216681E+02
 SKALA_GPW| Active atom-composite XC energy  -4.3915108807711931E+01
 SKALA_GPW| Active atom-composite electrons   5.1999980700068313E+01
 SKALA_GPW| Active atom-composite density range  -9.8165206810531027E-09   9.9430052449122229E+01
 SKALA_GPW| Active atom-composite tau range  -9.2423132041002796E-08   2.3461504637272451E+03
 SKALA_GPW| Active atom-composite tau integral   3.0369369425756275E+02
 SKALA_GPW| Active atom-composite max gradient   1.3133543734475850E+03
    26 OT DIIS     0.10E+00  124.4     0.00000951      -304.7479533617 -5.56E-07
 SKALA_GPW| Atom-composite cross support/maxima   2.315927033471E+00   4.349791006945E+01   5.264779386459E+02   8.571193525786E+02
 SKALA_GPW| Active atom-composite XC energy  -4.3915122109096970E+01
 SKALA_GPW| Active atom-composite electrons   5.1999980699617211E+01
 SKALA_GPW| Active atom-composite density range  -9.8163513138997672E-09   9.9429994120421384E+01
 SKALA_GPW| Active atom-composite tau range  -9.2422574143930694E-08   2.3461485840277346E+03
 SKALA_GPW| Active atom-composite tau integral   3.0369376281190682E+02
 SKALA_GPW| Active atom-composite max gradient   1.3133532523046060E+03
    27 OT DIIS     0.10E+00  125.0     0.00000662      -304.7479538155 -4.54E-07
 SKALA_GPW| Atom-composite cross support/maxima   2.315927033471E+00   4.349790686803E+01   5.264779578852E+02   8.571186333062E+02
 SKALA_GPW| Active atom-composite XC energy  -4.3915129183450041E+01
 SKALA_GPW| Active atom-composite electrons   5.1999980699102160E+01
 SKALA_GPW| Active atom-composite density range  -9.8159725630913694E-09   9.9429936183195679E+01
 SKALA_GPW| Active atom-composite tau range  -9.2420026864144328E-08   2.3461466922301584E+03
 SKALA_GPW| Active atom-composite tau integral   3.0369382019540967E+02
 SKALA_GPW| Active atom-composite max gradient   1.3133522125264169E+03
    28 OT DIIS     0.10E+00  125.8     0.00000426      -304.7479540503 -2.35E-07
 SKALA_GPW| Atom-composite cross support/maxima   2.315927033471E+00   4.349789208068E+01   5.264776973914E+02   8.571186398631E+02
 SKALA_GPW| Active atom-composite XC energy  -4.3915130702161605E+01
 SKALA_GPW| Active atom-composite electrons   5.1999980699038950E+01
 SKALA_GPW| Active atom-composite density range  -9.8157940093839543E-09   9.9429911690443348E+01
 SKALA_GPW| Active atom-composite tau range  -9.2418860715419377E-08   2.3461460330297568E+03
 SKALA_GPW| Active atom-composite tau integral   3.0369380533195334E+02
 SKALA_GPW| Active atom-composite max gradient   1.3133517949733753E+03
    29 OT DIIS     0.10E+00  126.4     0.00000320      -304.7479541107 -6.04E-08
 SKALA_GPW| Atom-composite cross support/maxima   2.315927033471E+00   4.349788020758E+01   5.264775074000E+02   8.571187641471E+02
 SKALA_GPW| Active atom-composite XC energy  -4.3915131682873351E+01
 SKALA_GPW| Active atom-composite electrons   5.1999980699209665E+01
 SKALA_GPW| Active atom-composite density range  -9.8157772148457530E-09   9.9429894032658055E+01
 SKALA_GPW| Active atom-composite tau range  -9.2418933555648065E-08   2.3461456351966863E+03
 SKALA_GPW| Active atom-composite tau integral   3.0369378653264727E+02
 SKALA_GPW| Active atom-composite max gradient   1.3133515487918480E+03
    30 OT DIIS     0.10E+00  123.9     0.00000276      -304.7479541329 -2.23E-08
 SKALA_GPW| Atom-composite cross support/maxima   2.315927033471E+00   4.349787981318E+01   5.264775264104E+02   8.571186694295E+02
 SKALA_GPW| Active atom-composite XC energy  -4.3915133043938411E+01
 SKALA_GPW| Active atom-composite electrons   5.1999980699408965E+01
 SKALA_GPW| Active atom-composite density range  -9.8157919548222469E-09   9.9429872221908028E+01
 SKALA_GPW| Active atom-composite tau range  -9.2419227134522919E-08   2.3461451005156227E+03
 SKALA_GPW| Active atom-composite tau integral   3.0369378895394465E+02
 SKALA_GPW| Active atom-composite max gradient   1.3133512660760402E+03
    31 OT DIIS     0.10E+00  124.8     0.00000239      -304.7479541526 -1.97E-08
 SKALA_GPW| Atom-composite cross support/maxima   2.315927033471E+00   4.349788565146E+01   5.264776534101E+02   8.571186231001E+02
 SKALA_GPW| Active atom-composite XC energy  -4.3915134458747559E+01
 SKALA_GPW| Active atom-composite electrons   5.1999980699532344E+01
 SKALA_GPW| Active atom-composite density range  -9.8158224890863540E-09   9.9429855961808883E+01
 SKALA_GPW| Active atom-composite tau range  -9.2419653562884034E-08   2.3461446483466452E+03
 SKALA_GPW| Active atom-composite tau integral   3.0369380899703930E+02
 SKALA_GPW| Active atom-composite max gradient   1.3133510368701316E+03
    32 OT DIIS     0.10E+00  125.4     0.00000197      -304.7479541743 -2.17E-08
 SKALA_GPW| Atom-composite cross support/maxima   2.315927033471E+00   4.349788702399E+01   5.264776833050E+02   8.571187027803E+02
 SKALA_GPW| Active atom-composite XC energy  -4.3915136062580316E+01
 SKALA_GPW| Active atom-composite electrons   5.1999980699530610E+01
 SKALA_GPW| Active atom-composite density range  -9.8158943199395371E-09   9.9429844292701105E+01
 SKALA_GPW| Active atom-composite tau range  -9.2420353280891980E-08   2.3461442014464051E+03
 SKALA_GPW| Active atom-composite tau integral   3.0369382824757679E+02
 SKALA_GPW| Active atom-composite max gradient   1.3133508020352533E+03
    33 OT DIIS     0.10E+00  128.1     0.00000151      -304.7479541997 -2.54E-08
 SKALA_GPW| Atom-composite cross support/maxima   2.315927033471E+00   4.349788012672E+01   5.264775983380E+02   8.571187529813E+02
 SKALA_GPW| Active atom-composite XC energy  -4.3915139234268210E+01
 SKALA_GPW| Active atom-composite electrons   5.1999980699470946E+01
 SKALA_GPW| Active atom-composite density range  -9.8159908658870207E-09   9.9429830456355106E+01
 SKALA_GPW| Active atom-composite tau range  -9.2421109777629108E-08   2.3461437195668818E+03
 SKALA_GPW| Active atom-composite tau integral   3.0369384031043347E+02
 SKALA_GPW| Active atom-composite max gradient   1.3133505336591791E+03
    34 OT DIIS     0.10E+00  126.1     0.00000113      -304.7479542139 -1.42E-08
 SKALA_GPW| Atom-composite cross support/maxima   2.315927033471E+00   4.349787507649E+01   5.264776175005E+02   8.571187305020E+02
 SKALA_GPW| Active atom-composite XC energy  -4.3915143442565984E+01
 SKALA_GPW| Active atom-composite electrons   5.1999980699416390E+01
 SKALA_GPW| Active atom-composite density range  -9.8160846359959957E-09   9.9429817561546102E+01
 SKALA_GPW| Active atom-composite tau range  -9.2421813791730062E-08   2.3461433203338838E+03
 SKALA_GPW| Active atom-composite tau integral   3.0369385364734626E+02
 SKALA_GPW| Active atom-composite max gradient   1.3133503089906285E+03
    35 OT DIIS     0.10E+00  125.0     0.00000084      -304.7479542086  5.24E-09
 SKALA_GPW| Atom-composite cross support/maxima   2.315927033471E+00   4.349787503515E+01   5.264776270109E+02   8.571187052427E+02
 SKALA_GPW| Active atom-composite XC energy  -4.3915147162876210E+01
 SKALA_GPW| Active atom-composite electrons   5.1999980699376707E+01
 SKALA_GPW| Active atom-composite density range  -9.8161629896447963E-09   9.9429811254597027E+01
 SKALA_GPW| Active atom-composite tau range  -9.2422437661929040E-08   2.3461431390186781E+03
 SKALA_GPW| Active atom-composite tau integral   3.0369386787899549E+02
 SKALA_GPW| Active atom-composite max gradient   1.3133502018480783E+03
    36 OT DIIS     0.10E+00  126.6     0.00000065      -304.7479542008  7.87E-09
 SKALA_GPW| Atom-composite cross support/maxima   2.315927033471E+00   4.349787695084E+01   5.264776344099E+02   8.571186857882E+02
 SKALA_GPW| Active atom-composite XC energy  -4.3915148612941628E+01
 SKALA_GPW| Active atom-composite electrons   5.1999980699360975E+01
 SKALA_GPW| Active atom-composite density range  -9.8162074516863110E-09   9.9429809674356747E+01
 SKALA_GPW| Active atom-composite tau range  -9.2422802993180796E-08   2.3461431009773905E+03
 SKALA_GPW| Active atom-composite tau integral   3.0369387264133780E+02
 SKALA_GPW| Active atom-composite max gradient   1.3133501706677105E+03
    37 OT DIIS     0.10E+00  126.2     0.00000056      -304.7479542192 -1.84E-08
 SKALA_GPW| Atom-composite cross support/maxima   2.315927033471E+00   4.349787788827E+01   5.264776372049E+02   8.571186561653E+02
 SKALA_GPW| Active atom-composite XC energy  -4.3915149293818878E+01
 SKALA_GPW| Active atom-composite electrons   5.1999980699356492E+01
 SKALA_GPW| Active atom-composite density range  -9.8162402789522112E-09   9.9429808014243548E+01
 SKALA_GPW| Active atom-composite tau range  -9.2423069164356836E-08   2.3461430729367339E+03
 SKALA_GPW| Active atom-composite tau integral   3.0369387442131068E+02
 SKALA_GPW| Active atom-composite max gradient   1.3133501432316275E+03
    38 OT DIIS     0.10E+00  124.5     0.00000049      -304.7479542088  1.04E-08
 SKALA_GPW| Atom-composite cross support/maxima   2.315927033471E+00   4.349787713671E+01   5.264776410221E+02   8.571186359657E+02
 SKALA_GPW| Active atom-composite XC energy  -4.3915149750205345E+01
 SKALA_GPW| Active atom-composite electrons   5.1999980699360087E+01
 SKALA_GPW| Active atom-composite density range  -9.8162623247079007E-09   9.9429806099341249E+01
 SKALA_GPW| Active atom-composite tau range  -9.2423256086779924E-08   2.3461430179169242E+03
 SKALA_GPW| Active atom-composite tau integral   3.0369387620798153E+02
 SKALA_GPW| Active atom-composite max gradient   1.3133501094074495E+03
    39 OT DIIS     0.10E+00  124.5     0.00000043      -304.7479542148 -5.95E-09
 SKALA_GPW| Atom-composite cross support/maxima   2.315927033471E+00   4.349787555656E+01   5.264776508638E+02   8.571186399384E+02
 SKALA_GPW| Active atom-composite XC energy  -4.3915150186108640E+01
 SKALA_GPW| Active atom-composite electrons   5.1999980699353280E+01
 SKALA_GPW| Active atom-composite density range  -9.8162813175897645E-09   9.9429804311355326E+01
 SKALA_GPW| Active atom-composite tau range  -9.2423425945288557E-08   2.3461429386277182E+03
 SKALA_GPW| Active atom-composite tau integral   3.0369387776450191E+02
 SKALA_GPW| Active atom-composite max gradient   1.3133500726172401E+03
    40 OT DIIS     0.10E+00  124.7     0.00000039      -304.7479542077  7.06E-09
 SKALA_GPW| Atom-composite cross support/maxima   2.315927033471E+00   4.349787397033E+01   5.264776592351E+02   8.571186494009E+02
 SKALA_GPW| Active atom-composite XC energy  -4.3915150527873131E+01
 SKALA_GPW| Active atom-composite electrons   5.1999980699342885E+01
 SKALA_GPW| Active atom-composite density range  -9.8163085942604873E-09   9.9429802220731517E+01
 SKALA_GPW| Active atom-composite tau range  -9.2423652926781353E-08   2.3461428401754874E+03
 SKALA_GPW| Active atom-composite tau integral   3.0369387695893442E+02
 SKALA_GPW| Active atom-composite max gradient   1.3133500302397733E+03
    41 OT DIIS     0.10E+00  125.6     0.00000033      -304.7479542238 -1.61E-08
 SKALA_GPW| Atom-composite cross support/maxima   2.315927033471E+00   4.349787265356E+01   5.264776579410E+02   8.571186453727E+02
 SKALA_GPW| Active atom-composite XC energy  -4.3915150667357040E+01
 SKALA_GPW| Active atom-composite electrons   5.1999980699326905E+01
 SKALA_GPW| Active atom-composite density range  -9.8163460036235254E-09   9.9429800896471917E+01
 SKALA_GPW| Active atom-composite tau range  -9.2423943601663212E-08   2.3461427936076107E+03
 SKALA_GPW| Active atom-composite tau integral   3.0369387430834774E+02
 SKALA_GPW| Active atom-composite max gradient   1.3133500101159316E+03
    42 OT DIIS     0.10E+00  125.1     0.00000028      -304.7479542202  3.66E-09
 SKALA_GPW| Atom-composite cross support/maxima   2.315927033471E+00   4.349787127361E+01   5.264776499868E+02   8.571186302014E+02
 SKALA_GPW| Active atom-composite XC energy  -4.3915150736521056E+01
 SKALA_GPW| Active atom-composite electrons   5.1999980699307500E+01
 SKALA_GPW| Active atom-composite density range  -9.8163893012184900E-09   9.9429801395886045E+01
 SKALA_GPW| Active atom-composite tau range  -9.2424273461740667E-08   2.3461428126873238E+03
 SKALA_GPW| Active atom-composite tau integral   3.0369387157334018E+02
 SKALA_GPW| Active atom-composite max gradient   1.3133500206894641E+03
    43 OT DIIS     0.10E+00  124.4     0.00000021      -304.7479542309 -1.07E-08
 SKALA_GPW| Atom-composite cross support/maxima   2.315927033471E+00   4.349787025171E+01   5.264776446259E+02   8.571186209451E+02
 SKALA_GPW| Active atom-composite XC energy  -4.3915150839540111E+01
 SKALA_GPW| Active atom-composite electrons   5.1999980699291719E+01
 SKALA_GPW| Active atom-composite density range  -9.8164143637383687E-09   9.9429803094369205E+01
 SKALA_GPW| Active atom-composite tau range  -9.2424460102881438E-08   2.3461428548257581E+03
 SKALA_GPW| Active atom-composite tau integral   3.0369387105409578E+02
 SKALA_GPW| Active atom-composite max gradient   1.3133500445467243E+03
    44 OT DIIS     0.10E+00  124.6     0.00000017      -304.7479542263  4.55E-09
 SKALA_GPW| Atom-composite cross support/maxima   2.315927033471E+00   4.349786974308E+01   5.264776419296E+02   8.571186168626E+02
 SKALA_GPW| Active atom-composite XC energy  -4.3915150870171026E+01
 SKALA_GPW| Active atom-composite electrons   5.1999980699281849E+01
 SKALA_GPW| Active atom-composite density range  -9.8164262357218214E-09   9.9429804243872354E+01
 SKALA_GPW| Active atom-composite tau range  -9.2424542651183791E-08   2.3461428720207919E+03
 SKALA_GPW| Active atom-composite tau integral   3.0369387079469618E+02
 SKALA_GPW| Active atom-composite max gradient   1.3133500579297006E+03
    45 OT DIIS     0.10E+00  125.8     0.00000014      -304.7479542282 -1.89E-09
 SKALA_GPW| Atom-composite cross support/maxima   2.315927033471E+00   4.349786950991E+01   5.264776415519E+02   8.571186183061E+02
 SKALA_GPW| Active atom-composite XC energy  -4.3915150769657501E+01
 SKALA_GPW| Active atom-composite electrons   5.1999980699275611E+01
 SKALA_GPW| Active atom-composite density range  -9.8164309697498926E-09   9.9429804593375977E+01
 SKALA_GPW| Active atom-composite tau range  -9.2424573760498680E-08   2.3461428762281248E+03
 SKALA_GPW| Active atom-composite tau integral   3.0369386993298622E+02
 SKALA_GPW| Active atom-composite max gradient   1.3133500634081840E+03
    46 OT DIIS     0.10E+00  127.0     0.00000011      -304.7479542251  3.06E-09
 SKALA_GPW| Atom-composite cross support/maxima   2.315927033471E+00   4.349786928797E+01   5.264776435116E+02   8.571186266739E+02
 SKALA_GPW| Active atom-composite XC energy  -4.3915150577485342E+01
 SKALA_GPW| Active atom-composite electrons   5.1999980699274360E+01
 SKALA_GPW| Active atom-composite density range  -9.8164314155825246E-09   9.9429804807932413E+01
 SKALA_GPW| Active atom-composite tau range  -9.2424577398256571E-08   2.3461428821600221E+03
 SKALA_GPW| Active atom-composite tau integral   3.0369386842262361E+02
 SKALA_GPW| Active atom-composite max gradient   1.3133500686630446E+03
    47 OT DIIS     0.10E+00  126.7     0.00000009      -304.7479542341 -8.95E-09

  *** SCF run converged in    47 steps ***


  Electronic density on regular grids:        -38.5471757765       13.4528242235
  Core density on regular grids:               52.0000000000        0.0000000000
  Hard and soft densities (Lebedev):         -350.7774345215     -337.3246102968
  Total Rho_soft + Rho1_hard - Rho1_soft      -52.0000000012
  Total charge density (r-space):              -0.0000000012
  Total Rho_soft + Rho0_soft (g-space):        -0.0000000024

  Overlap energy of the core charge distribution:               0.00001239497684
  Self energy of the core charge distribution:               -252.44667825258040
  Core Hamiltonian energy:                                    -46.48059285880164
  Hartree energy:                                             126.98437871801187
  Exchange-correlation energy:                                  0.00000000000000
  Dispersion energy:                                           -0.02134996192023

  GAPW| Exc from hard and soft atomic rho1:                   -43.91515057748534
  GAPW| local Eh = 1 center integrals:                        -88.86857369629088

  Total energy:                                              -304.74795423408983

  outer SCF iter =    1 RMS gradient =   0.92E-07 energy =       -304.7479542341
  outer SCF loop converged in   1 iterations or   47 steps


 !-----------------------------------------------------------------------------!
                     Mulliken Population Analysis

 #  Atom  Element  Kind  Atomic population                           Net charge
       1     C        1          5.918483                              0.081517
       2     C        1          5.968325                              0.031675
       3     C        1          5.968327                              0.031673
       4     N        2          7.215583                             -0.215583
       5     N        2          7.215582                             -0.215582
       6     H        3          0.976092                              0.023908
       7     H        3          0.976097                              0.023903
       8     C        1          5.969258                              0.030742
       9     C        1          5.969243                              0.030757
      10     H        3          0.974618                              0.025382
      11     H        3          0.973910                              0.026090
      12     H        3          0.962969                              0.037031
      13     H        3          0.973949                              0.026051
      14     H        3          0.974574                              0.025426
      15     H        3          0.962990                              0.037010
 # Total charge                             52.000000                  0.000000

 !-----------------------------------------------------------------------------!

 !-----------------------------------------------------------------------------!
                           Hirshfeld Charges

  #Atom  Element  Kind  Ref Charge     Population                    Net charge
      1       C      1       6.000          6.187                        -0.187
      2       C      1       6.000          6.434                        -0.434
      3       C      1       6.000          6.434                        -0.434
      4       N      2       7.000          7.152                        -0.152
      5       N      2       7.000          7.152                        -0.152
      6       H      3       1.000          0.504                         0.496
      7       H      3       1.000          0.504                         0.496
      8       C      1       6.000          7.252                        -1.252
      9       C      1       6.000          7.252                        -1.252
     10       H      3       1.000          0.522                         0.478
     11       H      3       1.000          0.522                         0.478
     12       H      3       1.000          0.511                         0.489
     13       H      3       1.000          0.522                         0.478
     14       H      3       1.000          0.522                         0.478
     15       H      3       1.000          0.511                         0.489

  Total Charge                                                            0.022
 !-----------------------------------------------------------------------------!

 ENERGY| Total FORCE_EVAL ( QS ) energy [hartree]           -304.747954234089832

 -------------------------------------------------------------------------------
 -                                                                             -
 -                                DBCSR STATISTICS                             -
 -                                                                             -
 -------------------------------------------------------------------------------
 COUNTER                                    TOTAL       BLAS       SMM       ACC
 flops    26 x    26 x    26             14658384     100.0%      0.0%      0.0%     
 flops    14 x    14 x    26             17611776     100.0%      0.0%      0.0%     
 flops    31 x    14 x    26             30331392     100.0%      0.0%      0.0%     
 flops    14 x    31 x    26             30331392     100.0%      0.0%      0.0%     
 flops    14 x    26 x    26             35736064     100.0%      0.0%      0.0%     
 flops    31 x    31 x    26             67162368     100.0%      0.0%      0.0%     
 flops    14 x    26 x    14             68490240     100.0%      0.0%      0.0%     
 flops    31 x    26 x    26             69238624     100.0%      0.0%      0.0%     
 flops    26 x    26 x   329             84068712     100.0%      0.0%      0.0%     
 flops    31 x    26 x    14            132699840     100.0%      0.0%      0.0%     
 flops    14 x    26 x    31            132699840     100.0%      0.0%      0.0%     
 flops    14 x    26 x   329            183945216     100.0%      0.0%      0.0%     
 flops    31 x    26 x    31            257105940     100.0%      0.0%      0.0%     
 flops    31 x    26 x   329            356393856     100.0%      0.0%      0.0%     
 flops inhomo. stacks                           0       0.0%      0.0%      0.0%
 flops total                         1.480474E+09     100.0%      0.0%      0.0%
 flops max/rank                      1.480474E+09     100.0%      0.0%      0.0%
 matmuls inhomo. stacks                         0       0.0%      0.0%      0.0%
 matmuls total                              34971     100.0%      0.0%      0.0%
 number of processed stacks                 10176     100.0%      0.0%      0.0%
 average stack size                                     3.4       0.0       0.0
 marketing flops                     1.605654E+09
 -------------------------------------------------------------------------------
 # multiplications                           1092
 max memory usage/rank              82.112643E+09
 # max total images/rank                        1
 # max 3D layers                                1
 # MPI messages exchanged                       0
 -------------------------------------------------------------------------------

 -------------------------------------------------------------------------------
 -                                                                             -
 -                                GRID STATISTICS                              -
 -                                                                             -
 -------------------------------------------------------------------------------
 LP    KERNEL             BACKEND                              COUNT     PERCENT
 6     collocate ortho    CPU                                  44448      13.40%
 6     integrate ortho    CPU                                  43522      13.12%
 5     collocate ortho    CPU                                  38976      11.75%
 7     collocate ortho    CPU                                  38976      11.75%
 5     integrate ortho    CPU                                  38164      11.51%
 7     integrate ortho    CPU                                  38164      11.51%
 4     collocate ortho    CPU                                  23280       7.02%
 4     integrate ortho    CPU                                  22795       6.87%
 8     collocate ortho    CPU                                  21168       6.38%
 8     integrate ortho    CPU                                  20727       6.25%
 4     collocate general  CPU                                    705       0.21%
 4     integrate general  CPU                                    705       0.21%
 0     collocate general  CPU                                     30       0.01%
 0     integrate general  CPU                                     15       0.00%
 -------------------------------------------------------------------------------

 -------------------------------------------------------------------------------
 -                                                                             -
 -                          OFFLOAD MEMPOOL STATISTICS                         -
 -                                                                             -
 -------------------------------------------------------------------------------
 Memory consumption                Number of allocations  Used [MiB]  Size [MiB]
 Host                                                  8        1592          58
 -------------------------------------------------------------------------------

 MEMORY| Estimated peak process memory [MiB]                               53302

 -------------------------------------------------------------------------------
 ----                             MULTIGRID INFO                            ----
 -------------------------------------------------------------------------------
 count for grid        1:          88516          cutoff [a.u.]          320.00
 count for grid        2:          21189          cutoff [a.u.]          106.67
 count for grid        3:          17568          cutoff [a.u.]           35.56
 count for grid        4:           6372          cutoff [a.u.]           11.85
 count for grid        5:            130          cutoff [a.u.]            3.95
 total gridlevel count  :         133775

 -------------------------------------------------------------------------------
 -                                                                             -
 -                           R E F E R E N C E S                               -
 -                                                                             -
 -------------------------------------------------------------------------------
 
 CP2K version 2026.2 (Development Version), the CP2K developers group (2026).
 CP2K is freely available from https://www.cp2k.org/ .
 
 M. Iannuzzi, J. Wilhelm, F. Stein, A. Bussy, H. Elgabarty, D. Golze, A. Hehn, 
 M. Graml, S. Marek, B. Sertcan Gökmen, C. Schran, H. Forbert, R. Z. 
 Khaliullin, A. Kozhevnikov, M. Taillefumier, R. Meli, V. V. Rybkin, M. Brehm, 
 R. Schade, O. Schütt, J. V. Pototschnig, H. Mirhosseini, A. Knüpfer, D. Marx, 
 M. Krack, J. Hutter, T. D. Kühne.
 J. Phys. Chem. B 130, 1237-1310 (2026).
 The CP2K Program Package Made Simple.
 https://doi.org/10.1021/acs.jpcb.5c05851

 L. Wittmann, I. Gordiy, M. Friede, B. Helmich-Paris, S. Grimme, A. Hansen, M. 
 Bursch.
 Phys. Chem. Chem. Phys. 26, 21379-21394 (2024).
 Extension of the D3 and D4 London dispersion corrections to the full actinides 
 series.
 https://doi.org/10.1039/d4cp01514b

 T. D. Kühne, M. Iannuzzi, M. Del Ben, V. V. Rybkin, P. Seewald, F. Stein, T. 
 Laino, R. Z. Khaliullin, O. Schütt, F. Schiffmann, D. Golze, J. Wilhelm, S. 
 Chulkov, M. H. Bani-Hashemian, V. Weber, U. Borstnik, M. Taillefumier, A. S. 
 Jakobovits, A. Lazzaro, H. Pabst, T. Müller, R. Schade, M. Guidon, S. 
 Andermatt, N. Holmberg, G. K. Schenter, A. Hehn, A. Bussy, F. Belleflamme, G. 
 Tabacchi, A. Glöß, M. Lass, I. Bethune, C. J. Mundy, C. Plessl, M. Watkins, 
 J. VandeVondele, M. Krack, J. Hutter.
 J. Chem. Phys. 152, 194103 (2020).
 CP2K: An electronic structure and molecular dynamics software package - 
 Quickstep: Efficient and accurate electronic structure calculations.
 https://doi.org/10.1063/5.0007045

 L. Goerigk, A. Hansen, C. Bauer, S. Ehrlich, A. Najibi, S. Grimme.
 Phys. Chem. Chem. Phys. 19, 32184-32215 (2017).
 A look at the density functional theory zoo with the advanced GMTKN55 database 
 for general main group thermochemistry, kinetics and noncovalent interactions.
 https://doi.org/10.1039/C7CP04913G

 O. Schuett, P. Messmer, J. Hutter, J. VandeVondele.
 Electronic Structure Calculations on Graphics Processing Units, 173-190 (2016).
 GPU-Accelerated Sparse Matrix-Matrix Multiplication for Linear Scaling Density 
 Functional Theory.
 https://doi.org/10.1002/9781118670712.ch8

 U. Borstnik, J. VandeVondele, V. Weber, J. Hutter.
 Parallel Comput. 40, 47-58 (2014).
 Sparse matrix multiplication: The distributed block-compressed sparse row 
 library.
 https://doi.org/10.1016/j.parco.2014.03.012

 S. Grimme, S. Ehrlich, L. Goerigk.
 J. Comput. Chem. 32, 1456 (2011).
 Effect of the damping function in dispersion corrected density functional 
 theory.
 https://doi.org/10.1002/jcc.21759

 S. Grimme, J. Antony, S. Ehrlich, H. Krieg.
 J. Chem. Phys. 132, 154104 (2010).
 A consistent and accurate ab initio parametrization of density functional 
 dispersion correction (DFT-D) for the 94 elements H-Pu.
 https://doi.org/10.1063/1.3382344

 J. VandeVondele, J. Hutter.
 J. Chem. Phys. 127, 114105 (2007).
 Gaussian basis sets for accurate calculations on molecular systems in gas and 
 condensed phases.
 https://doi.org/10.1063/1.2770708

 M. Frigo, S. G. Johnson.
 Proc. IEEE 93, 216-231 (2005).
 The design and implementation of FFTW3.
 https://doi.org/10.1109/JPROC.2004.840301

 J. VandeVondele, J. Hutter.
 J. Chem. Phys. 118, 4365-4369 (2003).
 An efficient orbital transformation method for electronic structure 
 calculations.
 https://doi.org/10.1063/1.1543154

 M. Krack, M. Parrinello.
 Phys. Chem. Chem. Phys. 2, 2105-2112 (2000).
 All-electron ab-initio molecular dynamics.
 https://doi.org/10.1039/b001167n

 G. Lippert, J. Hutter, M. Parrinello.
 Theor. Chem. Acc. 103, 124-140 (1999).
 The Gaussian and augmented-plane-wave density functional method for ab initio 
 molecular dynamics simulations.
 https://doi.org/10.1007/s002140050523


 -------------------------------------------------------------------------------
 -                                                                             -
 -                                T I M I N G                                  -
 -                                                                             -
 -------------------------------------------------------------------------------
 SUBROUTINE                       CALLS  ASD         SELF TIME        TOTAL TIME
                                MAXIMUM       AVERAGE  MAXIMUM  AVERAGE  MAXIMUM
 CP2K                                 1  1.0    2.157    2.157 5964.608 5964.608
 qs_energies                          1  2.0    0.000    0.000 5943.344 5943.344
 scf_env_do_scf                       1  3.0    0.000    0.000 5933.561 5933.561
 scf_env_do_scf_inner_loop           47  4.0    0.060    0.060 5788.222 5788.222
 qs_ks_update_qs_env                 48  5.0    0.001    0.001 5543.801 5543.801
 rebuild_ks_matrix                   47  6.0    0.000    0.000 5543.783 5543.783
 qs_ks_build_kohn_sham_matrix        47  7.0    0.016    0.016 5543.783 5543.783
 calculate_vxc_atom                  47  8.0 2292.262 2292.262 5140.242 5140.242
 fft_wrap_pw1pw2                   1469  9.6    0.037    0.037  897.294  897.294
 fft_wrap_pw1pw2_320                709 10.7  243.185  243.185  843.922  843.922
 skala_atom_torch_backward           94  9.0  774.716  774.716  774.716  774.716
 calc_tau_atom                     2115  9.0  584.240  584.240  584.240  584.240
 skala_atom_torch_forward            94  9.0    0.106    0.106  451.264  451.264
 torch_model_forward_mol_tensor      94 10.0  451.158  451.158  451.158  451.158
 qs_rho_update_rho_low               48  5.0    0.001    0.001  396.656  396.656
 calculate_rho_elec                  96  6.0   29.567   29.567  395.877  395.877
 xc_pw_derive                       282  9.5    0.004    0.004  352.823  352.823
 fft3d_s                           1470 11.6  327.394  327.394  327.444  327.444
 gaVxcgb_GC                        1410  9.0  311.840  311.840  311.840  311.840
 dgaVtaudgb                        1410  9.0  274.494  274.494  274.494  274.494
 density_rs2pw                       96  7.0    0.006    0.006  272.458  272.458
 xc_pw_divergence                    47  9.0    0.004    0.004  240.992  240.992
 pw_scatter_s                       707 12.1  213.259  213.259  213.259  213.259
 sum_up_and_integrate                47  8.0    0.004    0.004  171.086  171.086
 integrate_v_rspace                  94  9.0    0.049    0.049  166.627  166.627
 potential_pw2rs                     94 10.0    1.356    1.356  165.204  165.204
 init_scf_loop                        1  4.0    0.000    0.000  145.338  145.338
 -------------------------------------------------------------------------------

 The number of warnings for this run is : 0
 
 -------------------------------------------------------------------------------
  **** **** ******  **  PROGRAM ENDED AT                 2026-08-26 02:18:54.039
 ***** ** ***  *** **   PROGRAM RAN ON                                    cge042
 **    ****   ******    PROGRAM RAN BY                                  kuehne88
 ***** **    ** ** **   PROGRAM PROCESS ID                               2143282
  **** **  *******  **  PROGRAM STOPPED IN /data/home2/kuehne88/cp2k-native-skal
                                           a/validation-uzh/diet-production-p25/
                                           shared-gapw-ae/e7277ed95ca4511a3ef3b3
                                           348714d11f4dcfb03a
