 DBCSR| CPU Multiplication driver                                           BLAS (U)
 DBCSR| Multrec recursion limit                                              512 (U)
 DBCSR| Multiplication stack size                                           1000 (D)
 DBCSR| Maximum elements for images                                    UNLIMITED (U)
 DBCSR| Multiplicative factor virtual images                                   1 (U)
 DBCSR| Use multiplication densification                                       T (D)
 DBCSR| Multiplication size stacks                                             3 (U)
 DBCSR| Use memory pool for CPU allocation                                     F (U)
 DBCSR| Number of 3D layers                                               SINGLE (U)
 DBCSR| Use MPI memory allocation                                              F (U)
 DBCSR| Use RMA algorithm                                                      F (U)
 DBCSR| Use Communication thread                                               T (U)
 DBCSR| Communication thread load                                             15 (D)
 DBCSR| MPI: My process id                                                     0
 DBCSR| MPI: Number of processes                                               1
 DBCSR| OMP: Current number of threads                                        20
 DBCSR| OMP: Max number of threads                                            20
 DBCSR| Split modifier for TAS multiplication algorithm                  1.0E+00 (U)


  **** **** ******  **  PROGRAM STARTED AT               2026-09-04 15:32:01.846
 ***** ** ***  *** **   PROGRAM STARTED ON                                 terok
 **    ****   ******    PROGRAM STARTED BY                              kuehne88
 ***** **    ** ** **   PROGRAM PROCESS ID                                 78707
  **** **  *******  **  PROGRAM STARTED IN /home/kuehne88/work/native-skala-tero
                                           k/goldzak12/runs/diagnostic-terok-gx-
                                           aln-v01-from-v02-wave142-20260904/pro
                                           duction/gapwxc-gth/AlN/v01

 CP2K| version string:                 CP2K version 2026.2 (Development Version)
 CP2K| source code revision number:                                   3a700727ed
 CP2K| cp2kflags: omp fftw3 gauxc gauxc_mpi gauxc_onedft gauxc_host parallel sca
 CP2K|            lapack mpi_f08 openblas libtorch libtorch_cuda
 CP2K| is freely available from                            https://www.cp2k.org/
 CP2K| Program compiled at                                   2026-09-02 15:08:12
 CP2K| Program compiled on                                                 terok
 CP2K| Program compiled for                                               x86_64
 CP2K| Data directory path      /home/kuehne88/work/native-skala-terok/cp2k/data
 CP2K| Input file name                                          actual-input.inp

 GLOBAL| Force Environment number                                              1
 GLOBAL| Basis set file name                             BASIS_MOLOPT_UZH_2026.2
 GLOBAL| Potential file name                                POTENTIAL_UZH_2026.2
 GLOBAL| MM Potential file name                                     MM_POTENTIAL
 GLOBAL| Coordinate file name                                      __STD_INPUT__
 GLOBAL| Method name                                                        CP2K
 GLOBAL| Project name                      G12_AlN_gapwxc-gth_v0p9000000000_k555
 GLOBAL| Run type                                                         ENERGY
 GLOBAL| FFT library                                                       FFTW3
 GLOBAL| Diagonalization library                                       ScaLAPACK
 GLOBAL| Cholesky decomposition library                                ScaLAPACK
 GLOBAL| DGEMM library                                                      BLAS
 GLOBAL| Direct generalized diagonalization requested                          F
 GLOBAL| Orthonormality check for eigenvectors                          DISABLED
 GLOBAL| Matrix multiplication library                                 ScaLAPACK
 GLOBAL| All-to-all communication in single precision                          F
 GLOBAL| FFTs using library dependent lengths                                  F
 GLOBAL| Grid backend                                                       AUTO
 GLOBAL| Global print level                                               MEDIUM
 GLOBAL| MPI I/O enabled                                                       T
 GLOBAL| Total number of message passing processes                             1
 GLOBAL| Number of distributed systems (nodes)                                 1
 GLOBAL| Number of threads for this process                                   20
 GLOBAL| This output is from process                                           0
 GLOBAL| OpenMP stack size per thread (OMP_STACKSIZE)                       512M
 GLOBAL| CPU model name                                       AMD EPYC Processor

 MEMORY| system memory details [Kb]
 MEMORY|                        rank 0           min           max       average
 MEMORY| MemTotal            528104844     528104844     528104844     528104844
 MEMORY| MemFree             102972812     102972812     102972812     102972812
 MEMORY| Buffers                   664           664           664           664
 MEMORY| Cached              313554924     313554924     313554924     313554924
 MEMORY| Slab                 34991268      34991268      34991268      34991268
 MEMORY| SReclaimable         29060024      29060024      29060024      29060024
 MEMORY| MemLikelyFree       445588424     445588424     445588424     445588424


 *** Fundamental physical constants (SI units) ***

 *** Literature: B. J. Mohr and B. N. Taylor,
 ***             CODATA recommended values of the fundamental physical
 ***             constants: 2006, Web Version 5.1
 ***             http://physics.nist.gov/constants

 Speed of light in vacuum [m/s]                             2.99792458000000E+08
 Magnetic constant or permeability of vacuum [N/A**2]       1.25663706143592E-06
 Electric constant or permittivity of vacuum [F/m]          8.85418781762039E-12
 Planck constant (h) [J*s]                                  6.62606896000000E-34
 Planck constant (h-bar) [J*s]                              1.05457162825177E-34
 Elementary charge [C]                                      1.60217648700000E-19
 Electron mass [kg]                                         9.10938215000000E-31
 Electron g factor [ ]                                     -2.00231930436220E+00
 Proton mass [kg]                                           1.67262163700000E-27
 Fine-structure constant                                    7.29735253760000E-03
 Rydberg constant [1/m]                                     1.09737315685270E+07
 Avogadro constant [1/mol]                                  6.02214179000000E+23
 Boltzmann constant [J/K]                                   1.38065040000000E-23
 Atomic mass unit [kg]                                      1.66053878200000E-27
 Bohr radius [m]                                            5.29177208590000E-11

 *** Conversion factors ***

 [u] -> [a.u.]                                              1.82288848426455E+03
 [Angstrom] -> [Bohr] = [a.u.]                              1.88972613288564E+00
 [a.u.] = [Bohr] -> [Angstrom]                              5.29177208590000E-01
 [a.u.] -> [s]                                              2.41888432650478E-17
 [a.u.] -> [fs]                                             2.41888432650478E-02
 [a.u.] -> [J]                                              4.35974393937059E-18
 [a.u.] -> [N]                                              8.23872205491840E-08
 [a.u.] -> [K]                                              3.15774647902944E+05
 [a.u.] -> [kJ/mol]                                         2.62549961709828E+03
 [a.u.] -> [kcal/mol]                                       6.27509468713739E+02
 [a.u.] -> [Pa]                                             2.94210107994716E+13
 [a.u.] -> [bar]                                            2.94210107994716E+08
 [a.u.] -> [atm]                                            2.90362800883016E+08
 [a.u.] -> [eV]                                             2.72113838565563E+01
 [a.u.] -> [Hz]                                             6.57968392072181E+15
 [a.u.] -> [1/cm] (wave numbers)                            2.19474631370540E+05
 [a.u./Bohr**2] -> [1/cm]                                   5.14048714338585E+03
 

 CELL| Volume [angstrom^3]:                                            75.005032
 CELL| Vector a [angstrom]:       4.217     0.000     0.000   |a| =     4.217258
 CELL| Vector b [angstrom]:       0.000     4.217     0.000   |b| =     4.217258
 CELL| Vector c [angstrom]:       0.000     0.000     4.217   |c| =     4.217258
 CELL| Angle (b,c), alpha [degree]:                                    90.000000
 CELL| Angle (a,c), beta  [degree]:                                    90.000000
 CELL| Angle (a,b), gamma [degree]:                                    90.000000
 CELL| Numerically orthorhombic:                                             YES
 CELL| Periodicity                                                           XYZ

 CELL_REF| Volume [angstrom^3]:                                        75.005032
 CELL_REF| Vector a [angstrom     4.217     0.000     0.000   |a| =     4.217258
 CELL_REF| Vector b [angstrom     0.000     4.217     0.000   |b| =     4.217258
 CELL_REF| Vector c [angstrom     0.000     0.000     4.217   |c| =     4.217258
 CELL_REF| Angle (b,c), alpha [degree]:                                90.000000
 CELL_REF| Angle (a,c), beta  [degree]:                                90.000000
 CELL_REF| Angle (a,b), gamma [degree]:                                90.000000
 CELL_REF| Numerically orthorhombic:                                         YES
 CELL_REF| Periodicity                                                       XYZ

 GENERATE|  Preliminary Number of Bonds generated:                             0
 GENERATE|  Achieved consistency in connectivity generation.

 *** WARNING in cryssym.F:203 :: Symmetry library SPGLIB not available ***


 *******************************************************************************
 *******************************************************************************
 **                                                                           **
 **     #####                         ##              ##                      **
 **    ##   ##            ##          ##              ##                      **
 **   ##     ##                       ##            ######                    **
 **   ##     ##  ##   ##  ##   #####  ##  ##   ####   ##    #####    #####    **
 **   ##     ##  ##   ##  ##  ##      ## ##   ##      ##   ##   ##  ##   ##   **
 **   ##  ## ##  ##   ##  ##  ##      ####     ###    ##   ######   ######    **
 **    ##  ###   ##   ##  ##  ##      ## ##      ##   ##   ##       ##        **
 **     #######   #####   ##   #####  ##  ##  ####    ##    #####   ##        **
 **           ##                                                    ##        **
 **                                                                           **
 **                                                ... make the atoms dance   **
 **                                                                           **
 **            Copyright (C) by CP2K developers group (2000-2026)             **
 **                      J. Chem. Phys. 152, 194103 (2020)                    **
 **                                                                           **
 *******************************************************************************

 DFT| Spin restricted Kohn-Sham (RKS) calculation                            RKS
 DFT| Multiplicity                                                             1
 DFT| Number of spin states                                                    1
 DFT| Charge                                                                   0
 DFT| Self-interaction correction (SIC)                                       NO
 DFT| Cutoffs: density                                              1.000000E-10
 DFT|          gradient                                             1.000000E-10
 DFT|          tau                                                  1.000000E-10
 DFT|          cutoff_smoothing_range                               0.000000E+00
 DFT| XC density smoothing                                                  NONE
 DFT| XC derivatives                                                          PW

 FUNCTIONAL| GAUXC:
 FUNCTIONAL| Functional computed by GauXC Skala model SKALA                     

 vdW POTENTIAL|                                                   Pair Potential
 vdW POTENTIAL|          DFT-D3 (Version 3.1)
 vdW POTENTIAL|          Potential Form: S. Grimme et al, JCP 132: 154104 (2010)
 vdW POTENTIAL|          BJ Damping: S. Grimme et al, JCC 32: 1456 (2011)
 vdW POTENTIAL|          Cutoff Radius [Bohr]:                             37.79
 vdW POTENTIAL|          s6 Scaling Factor:                               1.0000
 vdW POTENTIAL|          a1 Damping Factor:                               0.3981
 vdW POTENTIAL|          s8 Scaling Factor:                               1.9889
 vdW POTENTIAL|          a2 Damping Factor:                               4.4211
 vdW POTENTIAL|          Cutoff for CN calculation:                   0.1000E-05

 QS| Method:                                                             GAPW_XC
 QS| Density plane wave grid type                        NON-SPHERICAL FULLSPACE
 QS| Number of grid levels:                                                    5
 QS| Density cutoff [a.u.]:                                                400.0
 QS| Multi grid cutoff [a.u.]: 1) grid level                               400.0
 QS|                           2) grid level                               133.3
 QS|                           3) grid level                                44.4
 QS|                           4) grid level                                14.8
 QS|                           5) grid level                                 4.9
 QS| Grid level progression factor:                                          3.0
 QS| Relative density cutoff [a.u.]:                                        30.0
 QS| Interaction thresholds: eps_pgf_orb:                                1.0E-06
 QS|                         eps_filter_matrix:                          0.0E+00
 QS|                         eps_core_charge:                            1.0E-14
 QS|                         eps_rho_gspace:                             1.0E-12
 QS|                         eps_rho_rspace:                             1.0E-12
 QS|                         eps_gvg_rspace:                             1.0E-06
 QS|                         eps_ppl:                                    1.0E-02
 QS|                         eps_ppnl:                                   1.0E-08
 QS| GAPW_XC|      One center basis extended with primitives (small:s)
 QS| GAPW_XC|                eps_fit:                                    1.0E-04
 QS| GAPW_XC|                eps_iso:                                    1.0E-12
 QS| GAPW_XC|                eps_svd:                                    1.0E-08
 QS| GAPW_XC|atom-r-grid: quadrature:                 GC_LOG                        
 QS| GAPW_XC|   atom-s-grid:  max l :                                          6


 ATOMIC KIND INFORMATION

  1. Atomic kind: Al                                    Number of atoms:       4

     Orbital Basis Set                                   TZV2P-MOLOPT-PBE-GTH-q3

       Number of orbital shell sets:                                           1
       Number of orbital shells:                                               9
       Number of primitive Cartesian functions:                                4
       Number of Cartesian basis functions:                                   34
       Number of spherical basis functions:                                   29
       Norm type:                                                              2

       Normalised Cartesian orbitals:

                        Set   Shell   Orbital            Exponent    Coefficient

                          1       1    2s                0.932557       0.083073
                                                         0.319866       0.005280
                                                         0.138316      -0.124729
                                                         0.047186      -0.024582

                          1       2    3s                0.932557      -1.003094
                                                         0.319866       0.522344
                                                         0.138316       0.044175
                                                         0.047186      -0.076887

                          1       3    4s                0.932557      -0.514791
                                                         0.319866      -0.029539
                                                         0.138316      -0.075728
                                                         0.047186       0.056402

                          1       4    3px               0.932557       0.068696
                                                         0.319866      -0.093391
                                                         0.138316      -0.065498
                                                         0.047186      -0.010400
                          1       4    3py               0.932557       0.068696
                                                         0.319866      -0.093391
                                                         0.138316      -0.065498
                                                         0.047186      -0.010400
                          1       4    3pz               0.932557       0.068696
                                                         0.319866      -0.093391
                                                         0.138316      -0.065498
                                                         0.047186      -0.010400

                          1       5    4px               0.932557      -0.246289
                                                         0.319866       0.398702
                                                         0.138316      -0.014422
                                                         0.047186      -0.024688
                          1       5    4py               0.932557      -0.246289
                                                         0.319866       0.398702
                                                         0.138316      -0.014422
                                                         0.047186      -0.024688
                          1       5    4pz               0.932557      -0.246289
                                                         0.319866       0.398702
                                                         0.138316      -0.014422
                                                         0.047186      -0.024688

                          1       6    5px               0.932557      -1.119223
                                                         0.319866       0.162694
                                                         0.138316      -0.115503
                                                         0.047186       0.032978
                          1       6    5py               0.932557      -1.119223
                                                         0.319866       0.162694
                                                         0.138316      -0.115503
                                                         0.047186       0.032978
                          1       6    5pz               0.932557      -1.119223
                                                         0.319866       0.162694
                                                         0.138316      -0.115503
                                                         0.047186       0.032978

                          1       7    4dx2              0.932557       0.314587
                                                         0.319866       0.129094
                                                         0.138316       0.015385
                                                         0.047186       0.000911
                          1       7    4dxy              0.932557       0.544880
                                                         0.319866       0.223598
                                                         0.138316       0.026648
                                                         0.047186       0.001577
                          1       7    4dxz              0.932557       0.544880
                                                         0.319866       0.223598
                                                         0.138316       0.026648
                                                         0.047186       0.001577
                          1       7    4dy2              0.932557       0.314587
                                                         0.319866       0.129094
                                                         0.138316       0.015385
                                                         0.047186       0.000911
                          1       7    4dyz              0.932557       0.544880
                                                         0.319866       0.223598
                                                         0.138316       0.026648
                                                         0.047186       0.001577
                          1       7    4dz2              0.932557       0.314587
                                                         0.319866       0.129094
                                                         0.138316       0.015385
                                                         0.047186       0.000911

                          1       8    5dx2              0.932557      -1.719432
                                                         0.319866       0.207166
                                                         0.138316      -0.050169
                                                         0.047186       0.000753
                          1       8    5dxy              0.932557      -2.978144
                                                         0.319866       0.358822
                                                         0.138316      -0.086895
                                                         0.047186       0.001305
                          1       8    5dxz              0.932557      -2.978144
                                                         0.319866       0.358822
                                                         0.138316      -0.086895
                                                         0.047186       0.001305
                          1       8    5dy2              0.932557      -1.719432
                                                         0.319866       0.207166
                                                         0.138316      -0.050169
                                                         0.047186       0.000753
                          1       8    5dyz              0.932557      -2.978144
                                                         0.319866       0.358822
                                                         0.138316      -0.086895
                                                         0.047186       0.001305
                          1       8    5dz2              0.932557      -1.719432
                                                         0.319866       0.207166
                                                         0.138316      -0.050169
                                                         0.047186       0.000753

                          1       9    5fx3              0.932557       0.230253
                                                         0.319866       0.076507
                                                         0.138316       0.004727
                                                         0.047186       0.000082
                          1       9    5fx2y             0.932557       0.514860
                                                         0.319866       0.171074
                                                         0.138316       0.010571
                                                         0.047186       0.000183
                          1       9    5fx2z             0.932557       0.514860
                                                         0.319866       0.171074
                                                         0.138316       0.010571
                                                         0.047186       0.000183
                          1       9    5fxy2             0.932557       0.514860
                                                         0.319866       0.171074
                                                         0.138316       0.010571
                                                         0.047186       0.000183
                          1       9    5fxyz             0.932557       0.891765
                                                         0.319866       0.296309
                                                         0.138316       0.018310
                                                         0.047186       0.000318
                          1       9    5fxz2             0.932557       0.514860
                                                         0.319866       0.171074
                                                         0.138316       0.010571
                                                         0.047186       0.000183
                          1       9    5fy3              0.932557       0.230253
                                                         0.319866       0.076507
                                                         0.138316       0.004727
                                                         0.047186       0.000082
                          1       9    5fy2z             0.932557       0.514860
                                                         0.319866       0.171074
                                                         0.138316       0.010571
                                                         0.047186       0.000183
                          1       9    5fyz2             0.932557       0.514860
                                                         0.319866       0.171074
                                                         0.138316       0.010571
                                                         0.047186       0.000183
                          1       9    5fz3              0.932557       0.230253
                                                         0.319866       0.076507
                                                         0.138316       0.004727
                                                         0.047186       0.000082

       Atomic covalent radius [Angstrom]:                                  1.180

       Atomic van der Waals radius [Angstrom]:                             1.840

     The atoms of this atomic kind are PAW atoms (GAPW):
       Hard Gaussian function radius:                                      1.900
       Rho0 radius:                                                        1.900
       Maximum GTO radius used for PAW projector construction:            24.566

     GAPW Soft Basis Set                            TZV2P-MOLOPT-PBE-GTH-q3_soft

       Number of orbital shell sets:                                           1
       Number of orbital shells:                                               9
       Number of primitive Cartesian functions:                                4
       Number of Cartesian basis functions:                                   34
       Number of spherical basis functions:                                   29
       Norm type:                                                              2

       Normalised Cartesian orbitals:

                        Set   Shell   Orbital            Exponent    Coefficient

                          1       1    2s                0.932557       0.083073
                                                         0.319866       0.005280
                                                         0.138316      -0.124729
                                                         0.047186      -0.024582

                          1       2    3s                0.932557      -1.003094
                                                         0.319866       0.522344
                                                         0.138316       0.044175
                                                         0.047186      -0.076887

                          1       3    4s                0.932557      -0.514791
                                                         0.319866      -0.029539
                                                         0.138316      -0.075728
                                                         0.047186       0.056402

                          1       4    3px               0.932557       0.068696
                                                         0.319866      -0.093391
                                                         0.138316      -0.065498
                                                         0.047186      -0.010400
                          1       4    3py               0.932557       0.068696
                                                         0.319866      -0.093391
                                                         0.138316      -0.065498
                                                         0.047186      -0.010400
                          1       4    3pz               0.932557       0.068696
                                                         0.319866      -0.093391
                                                         0.138316      -0.065498
                                                         0.047186      -0.010400

                          1       5    4px               0.932557      -0.246289
                                                         0.319866       0.398702
                                                         0.138316      -0.014422
                                                         0.047186      -0.024688
                          1       5    4py               0.932557      -0.246289
                                                         0.319866       0.398702
                                                         0.138316      -0.014422
                                                         0.047186      -0.024688
                          1       5    4pz               0.932557      -0.246289
                                                         0.319866       0.398702
                                                         0.138316      -0.014422
                                                         0.047186      -0.024688

                          1       6    5px               0.932557      -1.119223
                                                         0.319866       0.162694
                                                         0.138316      -0.115503
                                                         0.047186       0.032978
                          1       6    5py               0.932557      -1.119223
                                                         0.319866       0.162694
                                                         0.138316      -0.115503
                                                         0.047186       0.032978
                          1       6    5pz               0.932557      -1.119223
                                                         0.319866       0.162694
                                                         0.138316      -0.115503
                                                         0.047186       0.032978

                          1       7    4dx2              0.932557       0.314587
                                                         0.319866       0.129094
                                                         0.138316       0.015385
                                                         0.047186       0.000911
                          1       7    4dxy              0.932557       0.544880
                                                         0.319866       0.223598
                                                         0.138316       0.026648
                                                         0.047186       0.001577
                          1       7    4dxz              0.932557       0.544880
                                                         0.319866       0.223598
                                                         0.138316       0.026648
                                                         0.047186       0.001577
                          1       7    4dy2              0.932557       0.314587
                                                         0.319866       0.129094
                                                         0.138316       0.015385
                                                         0.047186       0.000911
                          1       7    4dyz              0.932557       0.544880
                                                         0.319866       0.223598
                                                         0.138316       0.026648
                                                         0.047186       0.001577
                          1       7    4dz2              0.932557       0.314587
                                                         0.319866       0.129094
                                                         0.138316       0.015385
                                                         0.047186       0.000911

                          1       8    5dx2              0.932557      -1.719432
                                                         0.319866       0.207166
                                                         0.138316      -0.050169
                                                         0.047186       0.000753
                          1       8    5dxy              0.932557      -2.978144
                                                         0.319866       0.358822
                                                         0.138316      -0.086895
                                                         0.047186       0.001305
                          1       8    5dxz              0.932557      -2.978144
                                                         0.319866       0.358822
                                                         0.138316      -0.086895
                                                         0.047186       0.001305
                          1       8    5dy2              0.932557      -1.719432
                                                         0.319866       0.207166
                                                         0.138316      -0.050169
                                                         0.047186       0.000753
                          1       8    5dyz              0.932557      -2.978144
                                                         0.319866       0.358822
                                                         0.138316      -0.086895
                                                         0.047186       0.001305
                          1       8    5dz2              0.932557      -1.719432
                                                         0.319866       0.207166
                                                         0.138316      -0.050169
                                                         0.047186       0.000753

                          1       9    5fx3              0.932557       0.230253
                                                         0.319866       0.076507
                                                         0.138316       0.004727
                                                         0.047186       0.000082
                          1       9    5fx2y             0.932557       0.514860
                                                         0.319866       0.171074
                                                         0.138316       0.010571
                                                         0.047186       0.000183
                          1       9    5fx2z             0.932557       0.514860
                                                         0.319866       0.171074
                                                         0.138316       0.010571
                                                         0.047186       0.000183
                          1       9    5fxy2             0.932557       0.514860
                                                         0.319866       0.171074
                                                         0.138316       0.010571
                                                         0.047186       0.000183
                          1       9    5fxyz             0.932557       0.891765
                                                         0.319866       0.296309
                                                         0.138316       0.018310
                                                         0.047186       0.000318
                          1       9    5fxz2             0.932557       0.514860
                                                         0.319866       0.171074
                                                         0.138316       0.010571
                                                         0.047186       0.000183
                          1       9    5fy3              0.932557       0.230253
                                                         0.319866       0.076507
                                                         0.138316       0.004727
                                                         0.047186       0.000082
                          1       9    5fy2z             0.932557       0.514860
                                                         0.319866       0.171074
                                                         0.138316       0.010571
                                                         0.047186       0.000183
                          1       9    5fyz2             0.932557       0.514860
                                                         0.319866       0.171074
                                                         0.138316       0.010571
                                                         0.047186       0.000183
                          1       9    5fz3              0.932557       0.230253
                                                         0.319866       0.076507
                                                         0.138316       0.004727
                                                         0.047186       0.000082

     GTH Potential information for                                    GTH-PBE-q3

       Description:                       Goedecker-Teter-Hutter pseudopotential
                                           Goedecker et al., PRB 54, 1703 (1996)
                                          Hartwigsen et al., PRB 58, 3641 (1998)
                                                      Krack, TCA 114, 145 (2005)

       Gaussian exponent of the core charge distribution:               2.469029
       Electronic configuration (s p d ...):                       2   1   0   0

       Parameters of the local part of the GTH pseudopotential:

                          rloc        C1          C2          C3          C4
                        0.450010   -7.556450

       Parameters of the non-local part of the GTH pseudopotential:

                   l      r(l)      h(i,j,l)

                   0    0.487441    6.960085   -1.888835
                                   -1.888835    2.438483
                   1    0.562274    1.865363

  2. Atomic kind: N                                     Number of atoms:       4

     Orbital Basis Set                                   TZV2P-MOLOPT-PBE-GTH-q5

       Number of orbital shell sets:                                           1
       Number of orbital shells:                                               9
       Number of primitive Cartesian functions:                                5
       Number of Cartesian basis functions:                                   34
       Number of spherical basis functions:                                   29
       Norm type:                                                              2

       Normalised Cartesian orbitals:

                        Set   Shell   Orbital            Exponent    Coefficient

                          1       1    2s                7.677291      -0.433945
                                                         2.819662      -0.225884
                                                         1.091144       0.281004
                                                         0.431009       0.272485
                                                         0.138938       0.015194

                          1       2    3s                7.677291       0.166796
                                                         2.819662       0.071789
                                                         1.091144      -0.075890
                                                         0.431009      -0.026983
                                                         0.138938       0.175604

                          1       3    4s                7.677291      -2.778831
                                                         2.819662      -0.627092
                                                         1.091144       0.528782
                                                         0.431009      -0.229325
                                                         0.138938       0.013164

                          1       4    3px               7.677291      -1.160805
                                                         2.819662      -0.968875
                                                         1.091144      -0.555552
                                                         0.431009      -0.214049
                                                         0.138938      -0.025189
                          1       4    3py               7.677291      -1.160805
                                                         2.819662      -0.968875
                                                         1.091144      -0.555552
                                                         0.431009      -0.214049
                                                         0.138938      -0.025189
                          1       4    3pz               7.677291      -1.160805
                                                         2.819662      -0.968875
                                                         1.091144      -0.555552
                                                         0.431009      -0.214049
                                                         0.138938      -0.025189

                          1       5    4px               7.677291       1.006840
                                                         2.819662       0.803085
                                                         1.091144       0.516640
                                                         0.431009       0.089613
                                                         0.138938      -0.129545
                          1       5    4py               7.677291       1.006840
                                                         2.819662       0.803085
                                                         1.091144       0.516640
                                                         0.431009       0.089613
                                                         0.138938      -0.129545
                          1       5    4pz               7.677291       1.006840
                                                         2.819662       0.803085
                                                         1.091144       0.516640
                                                         0.431009       0.089613
                                                         0.138938      -0.129545

                          1       6    5px               7.677291       2.926325
                                                         2.819662       2.482327
                                                         1.091144       1.352293
                                                         0.431009      -0.498852
                                                         0.138938       0.020139
                          1       6    5py               7.677291       2.926325
                                                         2.819662       2.482327
                                                         1.091144       1.352293
                                                         0.431009      -0.498852
                                                         0.138938       0.020139
                          1       6    5pz               7.677291       2.926325
                                                         2.819662       2.482327
                                                         1.091144       1.352293
                                                         0.431009      -0.498852
                                                         0.138938       0.020139

                          1       7    4dx2              7.677291       2.735993
                                                         2.819662       0.863524
                                                         1.091144       0.633376
                                                         0.431009       0.247924
                                                         0.138938       0.003429
                          1       7    4dxy              7.677291       4.738879
                                                         2.819662       1.495667
                                                         1.091144       1.097040
                                                         0.431009       0.429417
                                                         0.138938       0.005939
                          1       7    4dxz              7.677291       4.738879
                                                         2.819662       1.495667
                                                         1.091144       1.097040
                                                         0.431009       0.429417
                                                         0.138938       0.005939
                          1       7    4dy2              7.677291       2.735993
                                                         2.819662       0.863524
                                                         1.091144       0.633376
                                                         0.431009       0.247924
                                                         0.138938       0.003429
                          1       7    4dyz              7.677291       4.738879
                                                         2.819662       1.495667
                                                         1.091144       1.097040
                                                         0.431009       0.429417
                                                         0.138938       0.005939
                          1       7    4dz2              7.677291       2.735993
                                                         2.819662       0.863524
                                                         1.091144       0.633376
                                                         0.431009       0.247924
                                                         0.138938       0.003429

                          1       8    5dx2              7.677291       0.711513
                                                         2.819662      -0.221827
                                                         1.091144      -0.090019
                                                         0.431009      -0.030116
                                                         0.138938       0.054690
                          1       8    5dxy              7.677291       1.232378
                                                         2.819662      -0.384215
                                                         1.091144      -0.155918
                                                         0.431009      -0.052163
                                                         0.138938       0.094727
                          1       8    5dxz              7.677291       1.232378
                                                         2.819662      -0.384215
                                                         1.091144      -0.155918
                                                         0.431009      -0.052163
                                                         0.138938       0.094727
                          1       8    5dy2              7.677291       0.711513
                                                         2.819662      -0.221827
                                                         1.091144      -0.090019
                                                         0.431009      -0.030116
                                                         0.138938       0.054690
                          1       8    5dyz              7.677291       1.232378
                                                         2.819662      -0.384215
                                                         1.091144      -0.155918
                                                         0.431009      -0.052163
                                                         0.138938       0.094727
                          1       8    5dz2              7.677291       0.711513
                                                         2.819662      -0.221827
                                                         1.091144      -0.090019
                                                         0.431009      -0.030116
                                                         0.138938       0.054690

                          1       9    5fx3              7.677291      -1.237806
                                                         2.819662      -0.068561
                                                         1.091144       0.003479
                                                         0.431009       0.222292
                                                         0.138938      -0.000119
                          1       9    5fx2y             7.677291      -2.767819
                                                         2.819662      -0.153307
                                                         1.091144       0.007780
                                                         0.431009       0.497060
                                                         0.138938      -0.000265
                          1       9    5fx2z             7.677291      -2.767819
                                                         2.819662      -0.153307
                                                         1.091144       0.007780
                                                         0.431009       0.497060
                                                         0.138938      -0.000265
                          1       9    5fxy2             7.677291      -2.767819
                                                         2.819662      -0.153307
                                                         1.091144       0.007780
                                                         0.431009       0.497060
                                                         0.138938      -0.000265
                          1       9    5fxyz             7.677291      -4.794003
                                                         2.819662      -0.265535
                                                         1.091144       0.013476
                                                         0.431009       0.860933
                                                         0.138938      -0.000460
                          1       9    5fxz2             7.677291      -2.767819
                                                         2.819662      -0.153307
                                                         1.091144       0.007780
                                                         0.431009       0.497060
                                                         0.138938      -0.000265
                          1       9    5fy3              7.677291      -1.237806
                                                         2.819662      -0.068561
                                                         1.091144       0.003479
                                                         0.431009       0.222292
                                                         0.138938      -0.000119
                          1       9    5fy2z             7.677291      -2.767819
                                                         2.819662      -0.153307
                                                         1.091144       0.007780
                                                         0.431009       0.497060
                                                         0.138938      -0.000265
                          1       9    5fyz2             7.677291      -2.767819
                                                         2.819662      -0.153307
                                                         1.091144       0.007780
                                                         0.431009       0.497060
                                                         0.138938      -0.000265
                          1       9    5fz3              7.677291      -1.237806
                                                         2.819662      -0.068561
                                                         1.091144       0.003479
                                                         0.431009       0.222292
                                                         0.138938      -0.000119

       Atomic covalent radius [Angstrom]:                                  0.750

       Atomic van der Waals radius [Angstrom]:                             1.550

     The atoms of this atomic kind are PAW atoms (GAPW):
       Hard Gaussian function radius:                                      1.400
       Rho0 radius:                                                        1.400
       Maximum GTO radius used for PAW projector construction:            24.566

     GAPW Soft Basis Set                            TZV2P-MOLOPT-PBE-GTH-q5_soft

       Number of orbital shell sets:                                           1
       Number of orbital shells:                                               9
       Number of primitive Cartesian functions:                                4
       Number of Cartesian basis functions:                                   34
       Number of spherical basis functions:                                   29
       Norm type:                                                              2

       Normalised Cartesian orbitals:

                        Set   Shell   Orbital            Exponent    Coefficient

                          1       1    2s                2.819662      -0.225884
                                                         1.091144       0.281004
                                                         0.431009       0.272485
                                                         0.138938       0.015194

                          1       2    3s                2.819662       0.071789
                                                         1.091144      -0.075890
                                                         0.431009      -0.026983
                                                         0.138938       0.175604

                          1       3    4s                2.819662      -0.627092
                                                         1.091144       0.528782
                                                         0.431009      -0.229325
                                                         0.138938       0.013164

                          1       4    3px               2.819662      -0.968875
                                                         1.091144      -0.555552
                                                         0.431009      -0.214049
                                                         0.138938      -0.025189
                          1       4    3py               2.819662      -0.968875
                                                         1.091144      -0.555552
                                                         0.431009      -0.214049
                                                         0.138938      -0.025189
                          1       4    3pz               2.819662      -0.968875
                                                         1.091144      -0.555552
                                                         0.431009      -0.214049
                                                         0.138938      -0.025189

                          1       5    4px               2.819662       0.803085
                                                         1.091144       0.516640
                                                         0.431009       0.089613
                                                         0.138938      -0.129545
                          1       5    4py               2.819662       0.803085
                                                         1.091144       0.516640
                                                         0.431009       0.089613
                                                         0.138938      -0.129545
                          1       5    4pz               2.819662       0.803085
                                                         1.091144       0.516640
                                                         0.431009       0.089613
                                                         0.138938      -0.129545

                          1       6    5px               2.819662       2.482327
                                                         1.091144       1.352293
                                                         0.431009      -0.498852
                                                         0.138938       0.020139
                          1       6    5py               2.819662       2.482327
                                                         1.091144       1.352293
                                                         0.431009      -0.498852
                                                         0.138938       0.020139
                          1       6    5pz               2.819662       2.482327
                                                         1.091144       1.352293
                                                         0.431009      -0.498852
                                                         0.138938       0.020139

                          1       7    4dx2              2.819662       0.863524
                                                         1.091144       0.633376
                                                         0.431009       0.247924
                                                         0.138938       0.003429
                          1       7    4dxy              2.819662       1.495667
                                                         1.091144       1.097040
                                                         0.431009       0.429417
                                                         0.138938       0.005939
                          1       7    4dxz              2.819662       1.495667
                                                         1.091144       1.097040
                                                         0.431009       0.429417
                                                         0.138938       0.005939
                          1       7    4dy2              2.819662       0.863524
                                                         1.091144       0.633376
                                                         0.431009       0.247924
                                                         0.138938       0.003429
                          1       7    4dyz              2.819662       1.495667
                                                         1.091144       1.097040
                                                         0.431009       0.429417
                                                         0.138938       0.005939
                          1       7    4dz2              2.819662       0.863524
                                                         1.091144       0.633376
                                                         0.431009       0.247924
                                                         0.138938       0.003429

                          1       8    5dx2              2.819662      -0.221827
                                                         1.091144      -0.090019
                                                         0.431009      -0.030116
                                                         0.138938       0.054690
                          1       8    5dxy              2.819662      -0.384215
                                                         1.091144      -0.155918
                                                         0.431009      -0.052163
                                                         0.138938       0.094727
                          1       8    5dxz              2.819662      -0.384215
                                                         1.091144      -0.155918
                                                         0.431009      -0.052163
                                                         0.138938       0.094727
                          1       8    5dy2              2.819662      -0.221827
                                                         1.091144      -0.090019
                                                         0.431009      -0.030116
                                                         0.138938       0.054690
                          1       8    5dyz              2.819662      -0.384215
                                                         1.091144      -0.155918
                                                         0.431009      -0.052163
                                                         0.138938       0.094727
                          1       8    5dz2              2.819662      -0.221827
                                                         1.091144      -0.090019
                                                         0.431009      -0.030116
                                                         0.138938       0.054690

                          1       9    5fx3              2.819662      -0.068561
                                                         1.091144       0.003479
                                                         0.431009       0.222292
                                                         0.138938      -0.000119
                          1       9    5fx2y             2.819662      -0.153307
                                                         1.091144       0.007780
                                                         0.431009       0.497060
                                                         0.138938      -0.000265
                          1       9    5fx2z             2.819662      -0.153307
                                                         1.091144       0.007780
                                                         0.431009       0.497060
                                                         0.138938      -0.000265
                          1       9    5fxy2             2.819662      -0.153307
                                                         1.091144       0.007780
                                                         0.431009       0.497060
                                                         0.138938      -0.000265
                          1       9    5fxyz             2.819662      -0.265535
                                                         1.091144       0.013476
                                                         0.431009       0.860933
                                                         0.138938      -0.000460
                          1       9    5fxz2             2.819662      -0.153307
                                                         1.091144       0.007780
                                                         0.431009       0.497060
                                                         0.138938      -0.000265
                          1       9    5fy3              2.819662      -0.068561
                                                         1.091144       0.003479
                                                         0.431009       0.222292
                                                         0.138938      -0.000119
                          1       9    5fy2z             2.819662      -0.153307
                                                         1.091144       0.007780
                                                         0.431009       0.497060
                                                         0.138938      -0.000265
                          1       9    5fyz2             2.819662      -0.153307
                                                         1.091144       0.007780
                                                         0.431009       0.497060
                                                         0.138938      -0.000265
                          1       9    5fz3              2.819662      -0.068561
                                                         1.091144       0.003479
                                                         0.431009       0.222292
                                                         0.138938      -0.000119

     GTH Potential information for                                    GTH-PBE-q5

       Description:                       Goedecker-Teter-Hutter pseudopotential
                                           Goedecker et al., PRB 54, 1703 (1996)
                                          Hartwigsen et al., PRB 58, 3641 (1998)
                                                      Krack, TCA 114, 145 (2005)

       Gaussian exponent of the core charge distribution:               6.206770
       Electronic configuration (s p d ...):                       2   3   0   0

       Parameters of the local part of the GTH pseudopotential:

                          rloc        C1          C2          C3          C4
                        0.283826  -12.415174    1.868136

       Parameters of the non-local part of the GTH pseudopotential:

                   l      r(l)      h(i,j,l)

                   0    0.255418   13.631249


 MOLECULE KIND INFORMATION


 All atoms are their own molecule, skipping detailed information


 TOTAL NUMBERS AND MAXIMUM NUMBERS

  Total number of            - Atomic kinds:                                   2
                             - Atoms:                                          8
                             - Shell sets:                                     8
                             - Shells:                                        72
                             - Primitive Cartesian functions:                 36
                             - Cartesian basis functions:                    272
                             - Spherical basis functions:                    232

  Maximum angular momentum of- Orbital basis functions:                        3
                             - Local part of the GTH pseudopotential:          2
                             - Non-local part of the GTH pseudopotential:      2


 MODULE QUICKSTEP: ATOMIC COORDINATES IN ANGSTROM

   Atom Kind Element         X             Y             Z       Z(eff)     Mass
      1    1 Al   13      0.000000      0.000000      0.000000   3.0000  26.9815
      2    1 Al   13      0.000000      2.108629      2.108629   3.0000  26.9815
      3    1 Al   13      2.108629      0.000000      2.108629   3.0000  26.9815
      4    1 Al   13      2.108629      2.108629      0.000000   3.0000  26.9815
      5    2 N     7      1.054314      1.054314      1.054314   5.0000  14.0067
      6    2 N     7      1.054314      3.162943      3.162943   5.0000  14.0067
      7    2 N     7      3.162943      1.054314      3.162943   5.0000  14.0067
      8    2 N     7      3.162943      3.162943      1.054314   5.0000  14.0067



 SCF PARAMETERS         Density guess:                                   RESTART
                        --------------------------------------------------------
                        max_scf:                                              50
                        max_scf_history:                                       0
                        max_diis:                                              4
                        --------------------------------------------------------
                        eps_scf:                                        5.00E-07
                        eps_scf_history:                                0.00E+00
                        eps_diis:                                       0.00E+00
                        eps_eigval:                                     1.00E-05
                        --------------------------------------------------------
                        level_shift [a.u.]:                             0.000000
                        --------------------------------------------------------
                        Outer loop SCF in use 
                        No variables optimised in outer loop
                        eps_scf                                         5.00E-07
                        max_scf                                                4
                        No outer loop optimization
                        step_size                                       5.00E-01

 PW_GRID| Information for grid number                                          1
 PW_GRID| Cutoff [a.u.]                                                    400.0
 PW_GRID| spherical cutoff:                                                   NO
 PW_GRID|   Bounds   1            -36      35                Points:          72
 PW_GRID|   Bounds   2            -36      35                Points:          72
 PW_GRID|   Bounds   3            -36      35                Points:          72
 PW_GRID| Volume element (a.u.^3)  0.1356E-02     Volume (a.u.^3)       506.1590
 PW_GRID| Grid span                                                    FULLSPACE

 PW_GRID| Information for grid number                                          2
 PW_GRID| Number of the reference grid                                         1
 PW_GRID| Cutoff [a.u.]                                                    133.3
 PW_GRID| spherical cutoff:                                                   NO
 PW_GRID|   Bounds   1            -22      22                Points:          45
 PW_GRID|   Bounds   2            -22      22                Points:          45
 PW_GRID|   Bounds   3            -22      22                Points:          45
 PW_GRID| Volume element (a.u.^3)  0.5555E-02     Volume (a.u.^3)       506.1590
 PW_GRID| Grid span                                                    FULLSPACE

 PW_GRID| Information for grid number                                          3
 PW_GRID| Number of the reference grid                                         1
 PW_GRID| Cutoff [a.u.]                                                     44.4
 PW_GRID| spherical cutoff:                                                   NO
 PW_GRID|   Bounds   1            -12      11                Points:          24
 PW_GRID|   Bounds   2            -12      11                Points:          24
 PW_GRID|   Bounds   3            -12      11                Points:          24
 PW_GRID| Volume element (a.u.^3)  0.3661E-01     Volume (a.u.^3)       506.1590
 PW_GRID| Grid span                                                    FULLSPACE

 PW_GRID| Information for grid number                                          4
 PW_GRID| Number of the reference grid                                         1
 PW_GRID| Cutoff [a.u.]                                                     14.8
 PW_GRID| spherical cutoff:                                                   NO
 PW_GRID|   Bounds   1             -7       7                Points:          15
 PW_GRID|   Bounds   2             -7       7                Points:          15
 PW_GRID|   Bounds   3             -7       7                Points:          15
 PW_GRID| Volume element (a.u.^3)  0.1500         Volume (a.u.^3)       506.1590
 PW_GRID| Grid span                                                    FULLSPACE

 PW_GRID| Information for grid number                                          5
 PW_GRID| Number of the reference grid                                         1
 PW_GRID| Cutoff [a.u.]                                                      4.9
 PW_GRID| spherical cutoff:                                                   NO
 PW_GRID|   Bounds   1             -4       3                Points:           8
 PW_GRID|   Bounds   2             -4       3                Points:           8
 PW_GRID|   Bounds   3             -4       3                Points:           8
 PW_GRID| Volume element (a.u.^3)  0.9886         Volume (a.u.^3)       506.1590
 PW_GRID| Grid span                                                    FULLSPACE

 POISSON| Solver                                                        PERIODIC
 POISSON| Periodicity                                                        XYZ

 RS_GRID| Information for grid number                                          1
 RS_GRID|   Bounds   1            -36      35                Points:          72
 RS_GRID|   Bounds   2            -36      35                Points:          72
 RS_GRID|   Bounds   3            -36      35                Points:          72

 RS_GRID| Information for grid number                                          2
 RS_GRID|   Bounds   1            -22      22                Points:          45
 RS_GRID|   Bounds   2            -22      22                Points:          45
 RS_GRID|   Bounds   3            -22      22                Points:          45

 RS_GRID| Information for grid number                                          3
 RS_GRID|   Bounds   1            -12      11                Points:          24
 RS_GRID|   Bounds   2            -12      11                Points:          24
 RS_GRID|   Bounds   3            -12      11                Points:          24

 RS_GRID| Information for grid number                                          4
 RS_GRID|   Bounds   1             -7       7                Points:          15
 RS_GRID|   Bounds   2             -7       7                Points:          15
 RS_GRID|   Bounds   3             -7       7                Points:          15

 RS_GRID| Information for grid number                                          5
 RS_GRID|   Bounds   1             -4       3                Points:           8
 RS_GRID|   Bounds   2             -4       3                Points:           8
 RS_GRID|   Bounds   3             -4       3                Points:           8

 *******************************************************************************
                                    Kpoints
 *******************************************************************************
 BRILLOUIN| K-point scheme                                        Monkhorst-Pack
 BRILLOUIN| K-Point grid                                             5    5    5
 BRILLOUIN| Gamma-centered k-point mesh                                     ON
 BRILLOUIN| K-point symmetry accuracy                               0.100000E-07
 BRILLOUIN| K-Point point group symmetrization                                ON
 BRILLOUIN| Restrict symmetry to inversion                                    ON
 BRILLOUIN| Wavefunction type                                            COMPLEX
 BRILLOUIN| List of Kpoints [2 Pi/Bohr]                                       63
 BRILLOUIN| Number           Weight            X              Y              Z
 BRILLOUIN|     1           0.01600       -0.40000       -0.40000       -0.40000
 BRILLOUIN|     2           0.01600       -0.40000       -0.40000       -0.20000
 BRILLOUIN|     3           0.01600       -0.40000       -0.40000        0.00000
 BRILLOUIN|     4           0.01600       -0.40000       -0.40000        0.20000
 BRILLOUIN|     5           0.01600       -0.40000       -0.40000        0.40000
 BRILLOUIN|     6           0.01600       -0.40000       -0.20000       -0.40000
 BRILLOUIN|     7           0.01600       -0.40000       -0.20000       -0.20000
 BRILLOUIN|     8           0.01600       -0.40000       -0.20000        0.00000
 BRILLOUIN|     9           0.01600       -0.40000       -0.20000        0.20000
 BRILLOUIN|    10           0.01600       -0.40000       -0.20000        0.40000
 BRILLOUIN|    11           0.01600       -0.40000        0.00000       -0.40000
 BRILLOUIN|    12           0.01600       -0.40000        0.00000       -0.20000
 BRILLOUIN|    13           0.01600       -0.40000        0.00000        0.00000
 BRILLOUIN|    14           0.01600       -0.40000        0.00000        0.20000
 BRILLOUIN|    15           0.01600       -0.40000        0.00000        0.40000
 BRILLOUIN|    16           0.01600       -0.40000        0.20000       -0.40000
 BRILLOUIN|    17           0.01600       -0.40000        0.20000       -0.20000
 BRILLOUIN|    18           0.01600       -0.40000        0.20000        0.00000
 BRILLOUIN|    19           0.01600       -0.40000        0.20000        0.20000
 BRILLOUIN|    20           0.01600       -0.40000        0.20000        0.40000
 BRILLOUIN|    21           0.01600       -0.40000        0.40000       -0.40000
 BRILLOUIN|    22           0.01600       -0.40000        0.40000       -0.20000
 BRILLOUIN|    23           0.01600       -0.40000        0.40000        0.00000
 BRILLOUIN|    24           0.01600       -0.40000        0.40000        0.20000
 BRILLOUIN|    25           0.01600       -0.40000        0.40000        0.40000
 BRILLOUIN|    26           0.01600       -0.20000       -0.40000       -0.40000
 BRILLOUIN|    27           0.01600       -0.20000       -0.40000       -0.20000
 BRILLOUIN|    28           0.01600       -0.20000       -0.40000        0.00000
 BRILLOUIN|    29           0.01600       -0.20000       -0.40000        0.20000
 BRILLOUIN|    30           0.01600       -0.20000       -0.40000        0.40000
 BRILLOUIN|    31           0.01600       -0.20000       -0.20000       -0.40000
 BRILLOUIN|    32           0.01600       -0.20000       -0.20000       -0.20000
 BRILLOUIN|    33           0.01600       -0.20000       -0.20000        0.00000
 BRILLOUIN|    34           0.01600       -0.20000       -0.20000        0.20000
 BRILLOUIN|    35           0.01600       -0.20000       -0.20000        0.40000
 BRILLOUIN|    36           0.01600       -0.20000        0.00000       -0.40000
 BRILLOUIN|    37           0.01600       -0.20000        0.00000       -0.20000
 BRILLOUIN|    38           0.01600       -0.20000        0.00000        0.00000
 BRILLOUIN|    39           0.01600       -0.20000        0.00000        0.20000
 BRILLOUIN|    40           0.01600       -0.20000        0.00000        0.40000
 BRILLOUIN|    41           0.01600       -0.20000        0.20000       -0.40000
 BRILLOUIN|    42           0.01600       -0.20000        0.20000       -0.20000
 BRILLOUIN|    43           0.01600       -0.20000        0.20000        0.00000
 BRILLOUIN|    44           0.01600       -0.20000        0.20000        0.20000
 BRILLOUIN|    45           0.01600       -0.20000        0.20000        0.40000
 BRILLOUIN|    46           0.01600       -0.20000        0.40000       -0.40000
 BRILLOUIN|    47           0.01600       -0.20000        0.40000       -0.20000
 BRILLOUIN|    48           0.01600       -0.20000        0.40000        0.00000
 BRILLOUIN|    49           0.01600       -0.20000        0.40000        0.20000
 BRILLOUIN|    50           0.01600       -0.20000        0.40000        0.40000
 BRILLOUIN|    51           0.01600        0.00000       -0.40000       -0.40000
 BRILLOUIN|    52           0.01600        0.00000       -0.40000       -0.20000
 BRILLOUIN|    53           0.01600        0.00000       -0.40000        0.00000
 BRILLOUIN|    54           0.01600        0.00000       -0.40000        0.20000
 BRILLOUIN|    55           0.01600        0.00000       -0.40000        0.40000
 BRILLOUIN|    56           0.01600        0.00000       -0.20000       -0.40000
 BRILLOUIN|    57           0.01600        0.00000       -0.20000       -0.20000
 BRILLOUIN|    58           0.01600        0.00000       -0.20000        0.00000
 BRILLOUIN|    59           0.01600        0.00000       -0.20000        0.20000
 BRILLOUIN|    60           0.01600        0.00000       -0.20000        0.40000
 BRILLOUIN|    61           0.01600        0.00000        0.00000       -0.40000
 BRILLOUIN|    62           0.01600        0.00000        0.00000       -0.20000
 BRILLOUIN|    63           0.00800        0.00000        0.00000        0.00000
 *******************************************************************************

 Extrapolation method: initial_guess

 Number of electrons:                                                         32
 Number of occupied orbitals:                                                 16
 Number of molecular orbitals:                                                16

 Number of orbital functions:                                                232
 Number of independent orbital functions:                                    232


 SCF WAVEFUNCTION OPTIMIZATION

  ----------------------------------- OT ---------------------------------------
  Minimizer      : DIIS                : direct inversion
                                         in the iterative subspace
                                         using   7 DIIS vectors
                                         safer DIIS on
  Preconditioner : FULL_SINGLE_INVERSE : inversion of 
                                         H + eS - 2*(Sc)(c^T*H*c+const)(Sc)^T
  Precond_solver : DEFAULT
  stepsize       :    0.00100000                  energy_gap     :    0.00100000
  ortho_irac     : CHOL                           irac_degree    :             4
  max_irac       :            50                  eps_irac       :   0.10000E-09
  eps_irac_switch:   0.10000E-01                  eps_irac_quick_exit: 0.100E-04
  on_the_fly_loc : F
  ----------------------------------- OT ---------------------------------------

  Step     Update method      Time    Convergence         Total energy    Change
  ------------------------------------------------------------------------------

 *** WARNING in qs_ks_methods.F:773 :: Native SKALA grid evaluation with   ***
 *** k-points is using the CPU TorchScript path. Use a mutually compatible ***
 *** BLAS, ScaLAPACK, OpenMP, and LibTorch runtime stack, or select        ***
 *** NATIVE_GRID_USE_CUDA T.                                               ***

 SKALA_GPW| Atom-composite cross support/maxima   2.119019365127E+00   8.150128431754E-02   4.561951857275E-01   3.771479066885E+00
 SKALA_GPW| Active atom-composite XC energy  -1.4302576128959188E+01
 SKALA_GPW| Active atom-composite electrons   3.2072414609430560E+01
 SKALA_GPW| Active atom-composite density range   3.5474824794379245E-06   2.8474751220077582E-01
 SKALA_GPW| Active atom-composite tau range   2.4419002217249560E-03   6.1693337523096563E+00
 SKALA_GPW| Active atom-composite tau integral   3.5902176343054940E+01
 SKALA_GPW| Active atom-composite max gradient   9.5384449950042849E-01
 K-point OT: rebuilding physical virtual subspace by full KS diagonalization.

  ----------------------------------- OT ---------------------------------------
  Minimizer      : DIIS                : direct inversion
                                         in the iterative subspace
                                         using   7 DIIS vectors
                                         safer DIIS on
  Preconditioner : FULL_SINGLE_INVERSE : inversion of 
                                         H + eS - 2*(Sc)(c^T*H*c+const)(Sc)^T
  Precond_solver : DEFAULT
  stepsize       :    0.00100000                  energy_gap     :    0.00100000
  ortho_irac     : CHOL                           irac_degree    :             4
  max_irac       :            50                  eps_irac       :   0.10000E-09
  eps_irac_switch:   0.10000E-01                  eps_irac_quick_exit: 0.100E-04
  on_the_fly_loc : F
  ----------------------------------- OT ---------------------------------------

  Step     Update method      Time    Convergence         Total energy    Change
  ------------------------------------------------------------------------------
     1 OT INIT     0.10E-02  525.1     0.00000500       -48.7483345789 -4.87E+01
 SKALA_GPW| Atom-composite cross support/maxima   2.119019365127E+00   8.042936724776E-02   4.599381907632E-01   3.821271293283E+00
 SKALA_GPW| Active atom-composite XC energy  -1.3467618683789745E+01
 SKALA_GPW| Active atom-composite electrons   3.2036420239600403E+01
 SKALA_GPW| Active atom-composite density range   5.1757739300273276E-06   2.8576490524096726E-01
 SKALA_GPW| Active atom-composite tau range   1.4967858102653314E-03   6.2445091983101921E+00
 SKALA_GPW| Active atom-composite tau integral   3.6201517434217081E+01
 SKALA_GPW| Active atom-composite max gradient   9.6246687841124268E-01
     2 OT DIIS     0.10E-02  497.6     0.00630790       -47.8597514893  8.89E-01
 SKALA_GPW| Atom-composite cross support/maxima   2.119019365127E+00   8.043334144575E-02   4.599354891660E-01   3.821182682381E+00
 SKALA_GPW| Active atom-composite XC energy  -1.3485752227748611E+01
 SKALA_GPW| Active atom-composite electrons   3.2036421114311672E+01
 SKALA_GPW| Active atom-composite density range   5.1795360590106698E-06   2.8576619568014644E-01
 SKALA_GPW| Active atom-composite tau range   1.5091931686851830E-03   6.2443790348012342E+00
 SKALA_GPW| Active atom-composite tau integral   3.6200742238976829E+01
 SKALA_GPW| Active atom-composite max gradient   9.6245368992245606E-01
     3 OT DIIS     0.10E-02  478.0     0.00614621       -47.8781089446 -1.84E-02
 SKALA_GPW| Atom-composite cross support/maxima   2.119019365127E+00   8.055238312603E-02   4.598533765245E-01   3.818509647848E+00
 SKALA_GPW| Active atom-composite XC energy  -1.3926991131185865E+01
 SKALA_GPW| Active atom-composite electrons   3.2036447324255420E+01
 SKALA_GPW| Active atom-composite density range   5.2732252237841504E-06   2.8580376225255866E-01
 SKALA_GPW| Active atom-composite tau range   1.9036046490963307E-03   6.2404498986167010E+00
 SKALA_GPW| Active atom-composite tau integral   3.6177954372181730E+01
 SKALA_GPW| Active atom-composite max gradient   9.6205719947733626E-01
     4 OT SD       0.10E-02  489.3     0.00568956       -48.3257355902 -4.48E-01
 SKALA_GPW| Atom-composite cross support/maxima   2.119019365127E+00   8.055483908272E-02   4.598468496595E-01   3.818405349195E+00
 SKALA_GPW| Active atom-composite XC energy  -1.3940789743539032E+01
 SKALA_GPW| Active atom-composite electrons   3.2036447913949118E+01
 SKALA_GPW| Active atom-composite density range   5.2770990423001152E-06   2.8580245571752128E-01
 SKALA_GPW| Active atom-composite tau range   1.9119217672540585E-03   6.2402941541261407E+00
 SKALA_GPW| Active atom-composite tau integral   3.6177386293382028E+01
 SKALA_GPW| Active atom-composite max gradient   9.6203974738484732E-01
     5 OT DIIS     0.10E-02  459.0     0.00482434       -48.3396862781 -1.40E-02
 SKALA_GPW| Atom-composite cross support/maxima   2.119019365127E+00   8.061772250563E-02   4.597852918339E-01   3.816813058306E+00
 SKALA_GPW| Active atom-composite XC energy  -1.4078711842002750E+01
 SKALA_GPW| Active atom-composite electrons   3.2036462027405477E+01
 SKALA_GPW| Active atom-composite density range   5.3256683107821834E-06   2.8581443170230497E-01
 SKALA_GPW| Active atom-composite tau range   2.1398116414421088E-03   6.2379423534820910E+00
 SKALA_GPW| Active atom-composite tau integral   3.6165161470586284E+01
 SKALA_GPW| Active atom-composite max gradient   9.6179466956363058E-01
     6 OT DIIS     0.10E-02  477.9     0.00285898       -48.4808661056 -1.41E-01
 SKALA_GPW| Atom-composite cross support/maxima   2.119019365127E+00   8.078992912509E-02   4.596224054020E-01   3.812508539165E+00
 SKALA_GPW| Active atom-composite XC energy  -1.4252244933295430E+01
 SKALA_GPW| Active atom-composite electrons   3.2036500442671425E+01
 SKALA_GPW| Active atom-composite density range   5.4556687322654396E-06   2.8584852841341024E-01
 SKALA_GPW| Active atom-composite tau range   2.3703758487593619E-03   6.2315806425283178E+00
 SKALA_GPW| Active atom-composite tau integral   3.6132876560518000E+01
 SKALA_GPW| Active atom-composite max gradient   9.6113319664439612E-01
     7 OT DIIS     0.10E-02  469.0     0.00119601       -48.6624503360 -1.82E-01
 SKALA_GPW| Atom-composite cross support/maxima   2.119019365127E+00   8.092299543563E-02   4.594866168485E-01   3.809078410608E+00
 SKALA_GPW| Active atom-composite XC energy  -1.4292091234535157E+01
 SKALA_GPW| Active atom-composite electrons   3.2036529883431797E+01
 SKALA_GPW| Active atom-composite density range   5.5611794843313245E-06   2.8586938463342709E-01
 SKALA_GPW| Active atom-composite tau range   2.3924164385767184E-03   6.2265012037028864E+00
 SKALA_GPW| Active atom-composite tau integral   3.6108897482559492E+01
 SKALA_GPW| Active atom-composite max gradient   9.6060184771519086E-01
     8 OT DIIS     0.10E-02  466.3     0.00050423       -48.7077020662 -4.53E-02
 SKALA_GPW| Atom-composite cross support/maxima   2.119019365127E+00   8.107217427382E-02   4.593299594603E-01   3.805188869708E+00
 SKALA_GPW| Active atom-composite XC energy  -1.4308537335185942E+01
 SKALA_GPW| Active atom-composite electrons   3.2036562655125195E+01
 SKALA_GPW| Active atom-composite density range   5.6797967644683922E-06   2.8588991012239118E-01
 SKALA_GPW| Active atom-composite tau range   2.4172663325864280E-03   6.2207326619199215E+00
 SKALA_GPW| Active atom-composite tau integral   3.6083017664834450E+01
 SKALA_GPW| Active atom-composite max gradient   9.5999527697939824E-01
     9 OT DIIS     0.10E-02  479.7     0.00013072       -48.7293585356 -2.17E-02
 SKALA_GPW| Atom-composite cross support/maxima   2.119019365127E+00   8.114786074830E-02   4.592481221411E-01   3.803192087378E+00
 SKALA_GPW| Active atom-composite XC energy  -1.4308506907739385E+01
 SKALA_GPW| Active atom-composite electrons   3.2036579182353066E+01
 SKALA_GPW| Active atom-composite density range   5.7389489192677390E-06   2.8589891587290284E-01
 SKALA_GPW| Active atom-composite tau range   2.4299442679483613E-03   6.2177677011663732E+00
 SKALA_GPW| Active atom-composite tau integral   3.6070308997757614E+01
 SKALA_GPW| Active atom-composite max gradient   9.5968221367300766E-01
    10 OT DIIS     0.10E-02  462.9     0.00006021       -48.7316239885 -2.27E-03
 SKALA_GPW| Atom-composite cross support/maxima   2.119019365127E+00   8.124822425358E-02   4.591370215088E-01   3.800518490653E+00
 SKALA_GPW| Active atom-composite XC energy  -1.4304575999884094E+01
 SKALA_GPW| Active atom-composite electrons   3.2036601026074472E+01
 SKALA_GPW| Active atom-composite density range   5.8180946639896369E-06   2.8590932880781633E-01
 SKALA_GPW| Active atom-composite tau range   2.4468352107367523E-03   6.2137939093096435E+00
 SKALA_GPW| Active atom-composite tau integral   3.6053880565113538E+01
 SKALA_GPW| Active atom-composite max gradient   9.5926122974877581E-01
    11 OT DIIS     0.10E-02  457.2     0.00005202       -48.7303788506  1.25E-03
 SKALA_GPW| Atom-composite cross support/maxima   2.119019365127E+00   8.122984574026E-02   4.591567836540E-01   3.801002419035E+00
 SKALA_GPW| Active atom-composite XC energy  -1.4305568953440588E+01
 SKALA_GPW| Active atom-composite electrons   3.2036597088043877E+01
 SKALA_GPW| Active atom-composite density range   5.8027584097647411E-06   2.8590719552125232E-01
 SKALA_GPW| Active atom-composite tau range   2.4437515686164292E-03   6.2145131332042158E+00
 SKALA_GPW| Active atom-composite tau integral   3.6056831238370449E+01
 SKALA_GPW| Active atom-composite max gradient   9.5933732725270249E-01
    12 OT SD       0.10E-02  464.3     0.00004732       -48.7309161853 -5.37E-04
 SKALA_GPW| Atom-composite cross support/maxima   2.119019365127E+00   8.122986626141E-02   4.591568185157E-01   3.801002676572E+00
 SKALA_GPW| Active atom-composite XC energy  -1.4305570620974894E+01
 SKALA_GPW| Active atom-composite electrons   3.2036597103634811E+01
 SKALA_GPW| Active atom-composite density range   5.8027393903120617E-06   2.8590721241584111E-01
 SKALA_GPW| Active atom-composite tau range   2.4437508417254300E-03   6.2145135843276265E+00
 SKALA_GPW| Active atom-composite tau integral   3.6056834186403712E+01
 SKALA_GPW| Active atom-composite max gradient   9.5933744235722673E-01
    13 OT DIIS     0.10E-02  450.1     0.00004731       -48.7309172274 -1.04E-06
 SKALA_GPW| Atom-composite cross support/maxima   2.119019365127E+00   8.144986006964E-02   4.592182193732E-01   3.799134460698E+00
 SKALA_GPW| Active atom-composite XC energy  -1.4304465454802418E+01
 SKALA_GPW| Active atom-composite electrons   3.2036687106676425E+01
 SKALA_GPW| Active atom-composite density range   5.8955565041401981E-06   2.8602003367563494E-01
 SKALA_GPW| Active atom-composite tau range   2.4619998180853628E-03   6.2120489665445877E+00
 SKALA_GPW| Active atom-composite tau integral   3.6049456319985921E+01
 SKALA_GPW| Active atom-composite max gradient   9.5937469515773921E-01
    14 OT DIIS     0.10E-02  462.3     0.00007221       -48.7299239666  9.93E-04
 SKALA_GPW| Atom-composite cross support/maxima   2.119019365127E+00   8.142552273186E-02   4.592785679649E-01   3.800202438797E+00
 SKALA_GPW| Active atom-composite XC energy  -1.4307487779102882E+01
 SKALA_GPW| Active atom-composite electrons   3.2036685408095323E+01
 SKALA_GPW| Active atom-composite density range   5.8730851506677562E-06   2.8602830531567047E-01
 SKALA_GPW| Active atom-composite tau range   2.4560443956538817E-03   6.2136684617258728E+00
 SKALA_GPW| Active atom-composite tau integral   3.6056089773210914E+01
 SKALA_GPW| Active atom-composite max gradient   9.5957542403389895E-01
    15 OT DIIS     0.10E-02  457.9     0.00005683       -48.7318179820 -1.89E-03
 SKALA_GPW| Atom-composite cross support/maxima   2.119019365127E+00   8.159322873453E-02   4.595753031502E-01   3.802480905140E+00
 SKALA_GPW| Active atom-composite XC energy  -1.4315786511666335E+01
 SKALA_GPW| Active atom-composite electrons   3.2036789490623704E+01
 SKALA_GPW| Active atom-composite density range   5.8475542559222049E-06   2.8618903425143544E-01
 SKALA_GPW| Active atom-composite tau range   2.4521129592767290E-03   6.2176130732458059E+00
 SKALA_GPW| Active atom-composite tau integral   3.6077125211847047E+01
 SKALA_GPW| Active atom-composite max gradient   9.6042919521380021E-01
    16 OT SD       0.10E-02  480.2     0.00012096       -48.7342938954 -2.48E-03
 SKALA_GPW| Atom-composite cross support/maxima   2.119019365127E+00   8.159324077172E-02   4.595751032458E-01   3.802476861595E+00
 SKALA_GPW| Active atom-composite XC energy  -1.4315791887394184E+01
 SKALA_GPW| Active atom-composite electrons   3.2036789487432138E+01
 SKALA_GPW| Active atom-composite density range   5.8477712472082555E-06   2.8618886908754826E-01
 SKALA_GPW| Active atom-composite tau range   2.4521099985034640E-03   6.2176071426909143E+00
 SKALA_GPW| Active atom-composite tau integral   3.6077116633700122E+01
 SKALA_GPW| Active atom-composite max gradient   9.6042877874243426E-01
    17 OT SD       0.10E-02  462.3     0.00011993       -48.7343006810 -6.79E-06
 SKALA_GPW| Atom-composite cross support/maxima   2.119019365127E+00   8.159325252462E-02   4.595749031842E-01   3.802472839560E+00
 SKALA_GPW| Active atom-composite XC energy  -1.4315797179016791E+01
 SKALA_GPW| Active atom-composite electrons   3.2036789484246960E+01
 SKALA_GPW| Active atom-composite density range   5.8479867457161827E-06   2.8618870454671014E-01
 SKALA_GPW| Active atom-composite tau range   2.4521070529550009E-03   6.2176012428812060E+00
 SKALA_GPW| Active atom-composite tau integral   3.6077108067603000E+01
 SKALA_GPW| Active atom-composite max gradient   9.6042836239632634E-01
    18 OT DIIS     0.10E-02  460.5     0.00011890       -48.7343073799 -6.70E-06
 SKALA_GPW| Atom-composite cross support/maxima   2.119019365127E+00   8.157426641563E-02   4.595454137262E-01   3.802260112353E+00
 SKALA_GPW| Active atom-composite XC energy  -1.4315822500005304E+01
 SKALA_GPW| Active atom-composite electrons   3.2036781417224958E+01
 SKALA_GPW| Active atom-composite density range   5.8571885957620085E-06   2.8616233670861230E-01
 SKALA_GPW| Active atom-composite tau range   2.4507012888392303E-03   6.2172133662554110E+00
 SKALA_GPW| Active atom-composite tau integral   3.6076418318919750E+01
 SKALA_GPW| Active atom-composite max gradient   9.6037052048585236E-01
    19 OT DIIS     0.10E-02  451.9     0.00004764       -48.7346054173 -2.98E-04
 SKALA_GPW| Atom-composite cross support/maxima   2.119019365127E+00   8.155275903004E-02   4.595338004197E-01   3.802297779895E+00
 SKALA_GPW| Active atom-composite XC energy  -1.4315299986830702E+01
 SKALA_GPW| Active atom-composite electrons   3.2036766643203968E+01
 SKALA_GPW| Active atom-composite density range   5.8637894495144893E-06   2.8614943323639913E-01
 SKALA_GPW| Active atom-composite tau range   2.4501671456501647E-03   6.2171878869330790E+00
 SKALA_GPW| Active atom-composite tau integral   3.6075158356506705E+01
 SKALA_GPW| Active atom-composite max gradient   9.6032357123514855E-01
    20 OT DIIS     0.10E-02  458.5     0.00004580       -48.7346053659  5.14E-08
 SKALA_GPW| Atom-composite cross support/maxima   2.119019365127E+00   8.155497296402E-02   4.594968406172E-01   3.801825404397E+00
 SKALA_GPW| Active atom-composite XC energy  -1.4314744210349998E+01
 SKALA_GPW| Active atom-composite electrons   3.2036766685092978E+01
 SKALA_GPW| Active atom-composite density range   5.8692922029202066E-06   2.8613923757339593E-01
 SKALA_GPW| Active atom-composite tau range   2.4521761577012218E-03   6.2164668272589063E+00
 SKALA_GPW| Active atom-composite tau integral   3.6072228390080852E+01
 SKALA_GPW| Active atom-composite max gradient   9.6022241860795132E-01
    21 OT DIIS     0.10E-02  506.2     0.00001493       -48.7346578803 -5.25E-05
 SKALA_GPW| Atom-composite cross support/maxima   2.119019365127E+00   8.159502291856E-02   4.595406249652E-01   3.802000720298E+00
 SKALA_GPW| Active atom-composite XC energy  -1.4315801529586926E+01
 SKALA_GPW| Active atom-composite electrons   3.2036788650161476E+01
 SKALA_GPW| Active atom-composite density range   5.8733804923216670E-06   2.8616762404429047E-01
 SKALA_GPW| Active atom-composite tau range   2.4525796494371918E-03   6.2168206616398809E+00
 SKALA_GPW| Active atom-composite tau integral   3.6075049471665302E+01
 SKALA_GPW| Active atom-composite max gradient   9.6034617966348490E-01
    22 OT DIIS     0.10E-02  465.6     0.00002083       -48.7347123593 -5.45E-05
 SKALA_GPW| Atom-composite cross support/maxima   2.119019365127E+00   8.156621564618E-02   4.595072122789E-01   3.801840484554E+00
 SKALA_GPW| Active atom-composite XC energy  -1.4314979320750997E+01
 SKALA_GPW| Active atom-composite electrons   3.2036772362214485E+01
 SKALA_GPW| Active atom-composite density range   5.8710694197244839E-06   2.8614651841541844E-01
 SKALA_GPW| Active atom-composite tau range   2.4525024724336782E-03   6.2165123984332826E+00
 SKALA_GPW| Active atom-composite tau integral   3.6072731465281251E+01
 SKALA_GPW| Active atom-composite max gradient   9.6024937505350005E-01
    23 OT SD       0.10E-02  446.7     0.00001423       -48.7346838841  2.85E-05
 SKALA_GPW| Atom-composite cross support/maxima   2.119019365127E+00   8.156619122186E-02   4.595070253206E-01   3.801839259011E+00
 SKALA_GPW| Active atom-composite XC energy  -1.4314978515448649E+01
 SKALA_GPW| Active atom-composite electrons   3.2036772359977654E+01
 SKALA_GPW| Active atom-composite density range   5.8711052634274896E-06   2.8614643682991331E-01
 SKALA_GPW| Active atom-composite tau range   2.4525006093834042E-03   6.2165105303900159E+00
 SKALA_GPW| Active atom-composite tau integral   3.6072725661982368E+01
 SKALA_GPW| Active atom-composite max gradient   9.6024903833815833E-01
    24 OT DIIS     0.10E-02  453.2     0.00001423       -48.7346839819 -9.78E-08
 SKALA_GPW| Atom-composite cross support/maxima   2.119019365127E+00   8.155054153659E-02   4.593453711763E-01   3.800764751208E+00
 SKALA_GPW| Active atom-composite XC energy  -1.4314440760926832E+01
 SKALA_GPW| Active atom-composite electrons   3.2036773951323596E+01
 SKALA_GPW| Active atom-composite density range   5.9040861542652978E-06   2.8607713424532150E-01
 SKALA_GPW| Active atom-composite tau range   2.4508260435689398E-03   6.2148869163056251E+00
 SKALA_GPW| Active atom-composite tau integral   3.6067993941679035E+01
 SKALA_GPW| Active atom-composite max gradient   9.5996633477556936E-01
    25 OT SD       0.10E-02  463.1     0.00001431       -48.7347827585 -9.88E-05
 SKALA_GPW| Atom-composite cross support/maxima   2.119019365127E+00   8.155052147266E-02   4.593452006705E-01   3.800763634404E+00
 SKALA_GPW| Active atom-composite XC energy  -1.4314440050016206E+01
 SKALA_GPW| Active atom-composite electrons   3.2036773948474760E+01
 SKALA_GPW| Active atom-composite density range   5.9041263462400462E-06   2.8607706113518117E-01
 SKALA_GPW| Active atom-composite tau range   2.4508242396530816E-03   6.2148852292973009E+00
 SKALA_GPW| Active atom-composite tau integral   3.6067988562947420E+01
 SKALA_GPW| Active atom-composite max gradient   9.5996603185099838E-01
    26 OT DIIS     0.10E-02  459.6     0.00001430       -48.7347828641 -1.06E-07
 SKALA_GPW| Atom-composite cross support/maxima   2.119019365127E+00   8.134115255196E-02   4.575459745486E-01   3.787280973937E+00
 SKALA_GPW| Active atom-composite XC energy  -1.4306109178968711E+01
 SKALA_GPW| Active atom-composite electrons   3.2036766654748199E+01
 SKALA_GPW| Active atom-composite density range   6.3412187618211435E-06   2.8521274304065930E-01
 SKALA_GPW| Active atom-composite tau range   2.4309017577037856E-03   6.1944245568179008E+00
 SKALA_GPW| Active atom-composite tau integral   3.6005535627545960E+01
 SKALA_GPW| Active atom-composite max gradient   9.5677215462363452E-01
    27 OT SD       0.10E-02  485.7     0.00000907       -48.7354599508 -6.77E-04
 SKALA_GPW| Atom-composite cross support/maxima   2.119019365127E+00   8.134115625411E-02   4.575460105221E-01   3.787281513149E+00
 SKALA_GPW| Active atom-composite XC energy  -1.4306109925809317E+01
 SKALA_GPW| Active atom-composite electrons   3.2036766645452381E+01
 SKALA_GPW| Active atom-composite density range   6.3412175101695833E-06   2.8521277321476574E-01
 SKALA_GPW| Active atom-composite tau range   2.4309008528220883E-03   6.1944254183347809E+00
 SKALA_GPW| Active atom-composite tau integral   3.6005538609470328E+01
 SKALA_GPW| Active atom-composite max gradient   9.5677224240555336E-01
    28 OT DIIS     0.10E-02  471.3     0.00000905       -48.7354599948 -4.41E-08
 SKALA_GPW| Atom-composite cross support/maxima   2.119019365127E+00   8.136453028901E-02   4.575598873428E-01   3.787450438726E+00
 SKALA_GPW| Active atom-composite XC energy  -1.4306843323356205E+01
 SKALA_GPW| Active atom-composite electrons   3.2036771230168540E+01
 SKALA_GPW| Active atom-composite density range   6.3508309397219964E-06   2.8523850601345208E-01
 SKALA_GPW| Active atom-composite tau range   2.4313410603296376E-03   6.1947483285576475E+00
 SKALA_GPW| Active atom-composite tau integral   3.6007357866516941E+01
 SKALA_GPW| Active atom-composite max gradient   9.5682015177687196E-01
    29 OT DIIS     0.10E-02  461.9     0.00000782       -48.7354837176 -2.37E-05
 SKALA_GPW| Atom-composite cross support/maxima   2.119019365127E+00   8.136475433442E-02   4.575517684053E-01   3.787376903933E+00
 SKALA_GPW| Active atom-composite XC energy  -1.4306827033815734E+01
 SKALA_GPW| Active atom-composite electrons   3.2036771873034056E+01
 SKALA_GPW| Active atom-composite density range   6.3535623507082750E-06   2.8523459473307644E-01
 SKALA_GPW| Active atom-composite tau range   2.4312415468450243E-03   6.1946394763331547E+00
 SKALA_GPW| Active atom-composite tau integral   3.6007082144950097E+01
 SKALA_GPW| Active atom-composite max gradient   9.5680682066104006E-01
    30 OT SD       0.10E-02  474.6     0.00000771       -48.7354851347 -1.42E-06
 SKALA_GPW| Atom-composite cross support/maxima   2.119019365127E+00   8.136475359627E-02   4.575517937345E-01   3.787377351353E+00
 SKALA_GPW| Active atom-composite XC energy  -1.4306827601934705E+01
 SKALA_GPW| Active atom-composite electrons   3.2036771863468545E+01
 SKALA_GPW| Active atom-composite density range   6.3535555293731116E-06   2.8523461649514720E-01
 SKALA_GPW| Active atom-composite tau range   2.4312404414147085E-03   6.1946401737444505E+00
 SKALA_GPW| Active atom-composite tau integral   3.6007084601941941E+01
 SKALA_GPW| Active atom-composite max gradient   9.5680688448350237E-01
    31 OT DIIS     0.10E-02  467.9     0.00000771       -48.7354851351 -3.84E-10
 SKALA_GPW| Atom-composite cross support/maxima   2.119019365127E+00   8.136087760682E-02   4.575246256425E-01   3.787309207684E+00
 SKALA_GPW| Active atom-composite XC energy  -1.4307077198331523E+01
 SKALA_GPW| Active atom-composite electrons   3.2036765552142462E+01
 SKALA_GPW| Active atom-composite density range   6.3635478584345151E-06   2.8522677225983606E-01
 SKALA_GPW| Active atom-composite tau range   2.4296914949684112E-03   6.1945552239367245E+00
 SKALA_GPW| Active atom-composite tau integral   3.6007170264785373E+01
 SKALA_GPW| Active atom-composite max gradient   9.5677549997104006E-01
    32 OT SD       0.10E-02  457.6     0.00000741       -48.7355134258 -2.83E-05
 SKALA_GPW| Atom-composite cross support/maxima   2.119019365127E+00   8.136087689116E-02   4.575246547249E-01   3.787309644701E+00
 SKALA_GPW| Active atom-composite XC energy  -1.4307077779885049E+01
 SKALA_GPW| Active atom-composite electrons   3.2036765543024899E+01
 SKALA_GPW| Active atom-composite density range   6.3635406113288218E-06   2.8522679408881124E-01
 SKALA_GPW| Active atom-composite tau range   2.4296904704463797E-03   6.1945559096696803E+00
 SKALA_GPW| Active atom-composite tau integral   3.6007172665720518E+01
 SKALA_GPW| Active atom-composite max gradient   9.5677556571790956E-01
    33 OT DIIS     0.10E-02  477.0     0.00000740       -48.7355134628 -3.69E-08
 SKALA_GPW| Atom-composite cross support/maxima   2.119019365127E+00   8.131427498319E-02   4.574287225567E-01   3.787494725457E+00
 SKALA_GPW| Active atom-composite XC energy  -1.4308484109763663E+01
 SKALA_GPW| Active atom-composite electrons   3.2036712988520378E+01
 SKALA_GPW| Active atom-composite density range   6.3941555838581410E-06   2.8519382686538669E-01
 SKALA_GPW| Active atom-composite tau range   2.4177457084420466E-03   6.1948920800179899E+00
 SKALA_GPW| Active atom-composite tau integral   3.6009579383556641E+01
 SKALA_GPW| Active atom-composite max gradient   9.5668802760413207E-01
    34 OT SD       0.10E-02  462.5     0.00000539       -48.7356405074 -1.27E-04
 SKALA_GPW| Atom-composite cross support/maxima   2.119019365127E+00   8.131428004518E-02   4.574287855839E-01   3.787495141574E+00
 SKALA_GPW| Active atom-composite XC energy  -1.4308484608253080E+01
 SKALA_GPW| Active atom-composite electrons   3.2036712983491682E+01
 SKALA_GPW| Active atom-composite density range   6.3941482056628640E-06   2.8519385453287027E-01
 SKALA_GPW| Active atom-composite tau range   2.4177452581565810E-03   6.1948927435887278E+00
 SKALA_GPW| Active atom-composite tau integral   3.6009581545031608E+01
 SKALA_GPW| Active atom-composite max gradient   9.5668814361728471E-01
    35 OT DIIS     0.10E-02  467.8     0.00000539       -48.7356405505 -4.31E-08
 SKALA_GPW| Atom-composite cross support/maxima   2.119019365127E+00   8.131770819960E-02   4.575237933840E-01   3.788120021215E+00
 SKALA_GPW| Active atom-composite XC energy  -1.4309049089186278E+01
 SKALA_GPW| Active atom-composite electrons   3.2036705980088144E+01
 SKALA_GPW| Active atom-composite density range   6.3783533010980387E-06   2.8522972717682632E-01
 SKALA_GPW| Active atom-composite tau range   2.4170383793350467E-03   6.1958562266612223E+00
 SKALA_GPW| Active atom-composite tau integral   3.6012647019872261E+01
 SKALA_GPW| Active atom-composite max gradient   9.5686834756075534E-01
    36 OT SD       0.10E-02  452.1     0.00000506       -48.7356471068 -6.56E-06
 SKALA_GPW| Atom-composite cross support/maxima   2.119019365127E+00   8.131771237769E-02   4.575238418250E-01   3.788120367544E+00
 SKALA_GPW| Active atom-composite XC energy  -1.4309049477487942E+01
 SKALA_GPW| Active atom-composite electrons   3.2036705975931568E+01
 SKALA_GPW| Active atom-composite density range   6.3783473655959488E-06   2.8522975032095393E-01
 SKALA_GPW| Active atom-composite tau range   2.4170380586260691E-03   6.1958567785287597E+00
 SKALA_GPW| Active atom-composite tau integral   3.6012648801133246E+01
 SKALA_GPW| Active atom-composite max gradient   9.5686843884413375E-01
    37 OT DIIS     0.10E-02  459.2     0.00000506       -48.7356471162 -9.39E-09
 SKALA_GPW| Atom-composite cross support/maxima   2.119019365127E+00   8.133378831609E-02   4.578474807122E-01   3.790205199382E+00
 SKALA_GPW| Active atom-composite XC energy  -1.4311166749500579E+01
 SKALA_GPW| Active atom-composite electrons   3.2036681852446193E+01
 SKALA_GPW| Active atom-composite density range   6.3325098082489539E-06   2.8535302274688884E-01
 SKALA_GPW| Active atom-composite tau range   2.4141265756974653E-03   6.1990958329711940E+00
 SKALA_GPW| Active atom-composite tau integral   3.6023237189120948E+01
 SKALA_GPW| Active atom-composite max gradient   9.5749266656740528E-01
    38 OT DIIS     0.10E-02  458.9     0.00000407       -48.7356698183 -2.27E-05
 SKALA_GPW| Atom-composite cross support/maxima   2.119019365127E+00   8.133765171797E-02   4.578712408628E-01   3.790342116961E+00
 SKALA_GPW| Active atom-composite XC energy  -1.4311339059860316E+01
 SKALA_GPW| Active atom-composite electrons   3.2036681640241383E+01
 SKALA_GPW| Active atom-composite density range   6.3301623914879812E-06   2.8536329936567340E-01
 SKALA_GPW| Active atom-composite tau range   2.4141134864715118E-03   6.1993131012358820E+00
 SKALA_GPW| Active atom-composite tau integral   3.6023997775939272E+01
 SKALA_GPW| Active atom-composite max gradient   9.5753872971294340E-01
    39 OT SD       0.10E-02  461.9     0.00000407       -48.7356712535 -1.44E-06
 SKALA_GPW| Atom-composite cross support/maxima   2.119019365127E+00   8.133765103886E-02   4.578712351292E-01   3.790342182540E+00
 SKALA_GPW| Active atom-composite XC energy  -1.4311339125770024E+01
 SKALA_GPW| Active atom-composite electrons   3.2036681639157074E+01
 SKALA_GPW| Active atom-composite density range   6.3301617686944978E-06   2.8536330359762679E-01
 SKALA_GPW| Active atom-composite tau range   2.4141135998907923E-03   6.1993132074572017E+00
 SKALA_GPW| Active atom-composite tau integral   3.6023998037231877E+01
 SKALA_GPW| Active atom-composite max gradient   9.5753871870664209E-01
    40 OT DIIS     0.10E-02  472.9     0.00000407       -48.7356712624 -8.90E-09
 SKALA_GPW| Atom-composite cross support/maxima   2.119019365127E+00   8.133224424250E-02   4.578435170836E-01   3.790149098485E+00
 SKALA_GPW| Active atom-composite XC energy  -1.4311779261132870E+01
 SKALA_GPW| Active atom-composite electrons   3.2036670911292219E+01
 SKALA_GPW| Active atom-composite density range   6.3529190420796855E-06   2.8534929350749788E-01
 SKALA_GPW| Active atom-composite tau range   2.4110860101024261E-03   6.1990739082319992E+00
 SKALA_GPW| Active atom-composite tau integral   3.6023854508645940E+01
 SKALA_GPW| Active atom-composite max gradient   9.5751715070830956E-01
    41 OT DIIS     0.10E-02  460.3     0.00000345       -48.7357016715 -3.04E-05
 SKALA_GPW| Atom-composite cross support/maxima   2.119019365127E+00   8.131335046966E-02   4.577252363344E-01   3.789377178021E+00
 SKALA_GPW| Active atom-composite XC energy  -1.4311494355296276E+01
 SKALA_GPW| Active atom-composite electrons   3.2036663053730138E+01
 SKALA_GPW| Active atom-composite density range   6.3849001352839219E-06   2.8529297794536734E-01
 SKALA_GPW| Active atom-composite tau range   2.4082583015410716E-03   6.1979115122899922E+00
 SKALA_GPW| Active atom-composite tau integral   3.6020560854012956E+01
 SKALA_GPW| Active atom-composite max gradient   9.5732090952335336E-01
    42 OT SD       0.10E-02  449.1     0.00000324       -48.7357162831 -1.46E-05
 SKALA_GPW| Atom-composite cross support/maxima   2.119019365127E+00   8.131335174381E-02   4.577252430052E-01   3.789377325998E+00
 SKALA_GPW| Active atom-composite XC energy  -1.4311494452684190E+01
 SKALA_GPW| Active atom-composite electrons   3.2036663053641234E+01
 SKALA_GPW| Active atom-composite density range   6.3848933906235361E-06   2.8529298844673506E-01
 SKALA_GPW| Active atom-composite tau range   2.4082587895483784E-03   6.1979117413741411E+00
 SKALA_GPW| Active atom-composite tau integral   3.6020561487760837E+01
 SKALA_GPW| Active atom-composite max gradient   9.5732091949116160E-01
    43 OT DIIS     0.10E-02  452.6     0.00000324       -48.7357162933 -1.02E-08
 SKALA_GPW| Atom-composite cross support/maxima   2.119019365127E+00   8.129838287481E-02   4.576235867610E-01   3.788757347696E+00
 SKALA_GPW| Active atom-composite XC energy  -1.4311374832868216E+01
 SKALA_GPW| Active atom-composite electrons   3.2036655065136664E+01
 SKALA_GPW| Active atom-composite density range   6.4139324553458277E-06   2.8524908842184671E-01
 SKALA_GPW| Active atom-composite tau range   2.4057090627849216E-03   6.1969944238192909E+00
 SKALA_GPW| Active atom-composite tau integral   3.6018048944736989E+01
 SKALA_GPW| Active atom-composite max gradient   9.5715374762753136E-01
    44 OT DIIS     0.10E-02  457.5     0.00000268       -48.7357273311 -1.10E-05
 SKALA_GPW| Atom-composite cross support/maxima   2.119019365127E+00   8.129820833354E-02   4.576392460057E-01   3.788862906123E+00
 SKALA_GPW| Active atom-composite XC energy  -1.4311469090287883E+01
 SKALA_GPW| Active atom-composite electrons   3.2036653395565779E+01
 SKALA_GPW| Active atom-composite density range   6.4113227798284766E-06   2.8525451210915886E-01
 SKALA_GPW| Active atom-composite tau range   2.4054987844713493E-03   6.1971564492418505E+00
 SKALA_GPW| Active atom-composite tau integral   3.6018562032840940E+01
 SKALA_GPW| Active atom-composite max gradient   9.5718400114025726E-01
    45 OT SD       0.10E-02  473.5     0.00000268       -48.7357276387 -3.08E-07
 SKALA_GPW| Atom-composite cross support/maxima   2.119019365127E+00   8.129821100590E-02   4.576392608914E-01   3.788863123675E+00
 SKALA_GPW| Active atom-composite XC energy  -1.4311469208057463E+01
 SKALA_GPW| Active atom-composite electrons   3.2036653395976273E+01
 SKALA_GPW| Active atom-composite density range   6.4113158694950600E-06   2.8525452686139469E-01
 SKALA_GPW| Active atom-composite tau range   2.4054993893270721E-03   6.1971567822984177E+00
 SKALA_GPW| Active atom-composite tau integral   3.6018562925943641E+01
 SKALA_GPW| Active atom-composite max gradient   9.5718402894412846E-01
    46 OT DIIS     0.10E-02  476.8     0.00000268       -48.7357276362  2.45E-09
 SKALA_GPW| Atom-composite cross support/maxima   2.119019365127E+00   8.130061425086E-02   4.576225549934E-01   3.788798250626E+00
 SKALA_GPW| Active atom-composite XC energy  -1.4311408797786854E+01
 SKALA_GPW| Active atom-composite electrons   3.2036656219469506E+01
 SKALA_GPW| Active atom-composite density range   6.4129691848963111E-06   2.8525371177655873E-01
 SKALA_GPW| Active atom-composite tau range   2.4060855126404337E-03   6.1970609779826074E+00
 SKALA_GPW| Active atom-composite tau integral   3.6018221052776418E+01
 SKALA_GPW| Active atom-composite max gradient   9.5715129273321975E-01
    47 OT SD       0.10E-02  486.6     0.00000260       -48.7357288906 -1.25E-06
 SKALA_GPW| Atom-composite cross support/maxima   2.119019365127E+00   8.130061659837E-02   4.576225720856E-01   3.788798471161E+00
 SKALA_GPW| Active atom-composite XC energy  -1.4311408924772309E+01
 SKALA_GPW| Active atom-composite electrons   3.2036656219640761E+01
 SKALA_GPW| Active atom-composite density range   6.4129621328984365E-06   2.8525372631406837E-01
 SKALA_GPW| Active atom-composite tau range   2.4060860352255824E-03   6.1970613121043012E+00
 SKALA_GPW| Active atom-composite tau integral   3.6018221957149883E+01
 SKALA_GPW| Active atom-composite max gradient   9.5715132494519117E-01
    48 OT DIIS     0.10E-02  432.6     0.00000260       -48.7357288943 -3.71E-09
 SKALA_GPW| Atom-composite cross support/maxima   2.119019365127E+00   8.131669613151E-02   4.577420476567E-01   3.789948422886E+00
 SKALA_GPW| Active atom-composite XC energy  -1.4312123732249646E+01
 SKALA_GPW| Active atom-composite electrons   3.2036657221275178E+01
 SKALA_GPW| Active atom-composite density range   6.3762340831025055E-06   2.8533119297560405E-01
 SKALA_GPW| Active atom-composite tau range   2.4085266833037502E-03   6.1988170506250997E+00
 SKALA_GPW| Active atom-composite tau integral   3.6023206972021683E+01
 SKALA_GPW| Active atom-composite max gradient   9.5736802933706455E-01
    49 OT DIIS     0.10E-02  419.0     0.00000203       -48.7357371231 -8.23E-06
 SKALA_GPW| Atom-composite cross support/maxima   2.119019365127E+00   8.132411705738E-02   4.578195004452E-01   3.790722610419E+00
 SKALA_GPW| Active atom-composite XC energy  -1.4312690505933375E+01
 SKALA_GPW| Active atom-composite electrons   3.2036654245501786E+01
 SKALA_GPW| Active atom-composite density range   6.3546170718936645E-06   2.8538080571970137E-01
 SKALA_GPW| Active atom-composite tau range   2.4094060666524108E-03   6.2000057227802170E+00
 SKALA_GPW| Active atom-composite tau integral   3.6026658484820210E+01
 SKALA_GPW| Active atom-composite max gradient   9.5751441568186269E-01
    50 OT DIIS     0.10E-02  430.1     0.00000188       -48.7357428639 -5.74E-06

  Leaving inner SCF loop after reaching    50 steps.


  Electronic density on regular grids:        -32.0000000000        0.0000000000
  Core density on regular grids:               32.0000000000       -0.0000000000
  Total charge density on r-space grids:       -0.0000000000
  Total charge density g-space grids:          -0.0000000000

  Overlap energy of the core charge distribution:               0.00000000612488
  Self energy of the core charge distribution:               -121.95714208655001
  Core Hamiltonian energy:                                     35.73073891927963
  Hartree energy:                                              51.96629141798297
  Exchange-correlation energy:                                  0.00000000000000
  Dispersion energy:                                           -0.16294061481691

  GAPW_XC| Exc from hard and soft atomic rho1:                -14.31269050593338

  Total energy:                                               -48.73574286391282

  outer SCF iter =    1 RMS gradient =   0.19E-05 energy =        -48.7357428639

  ----------------------------------- OT ---------------------------------------
  Minimizer      : DIIS                : direct inversion
                                         in the iterative subspace
                                         using   7 DIIS vectors
                                         safer DIIS on
  Preconditioner : FULL_SINGLE_INVERSE : inversion of 
                                         H + eS - 2*(Sc)(c^T*H*c+const)(Sc)^T
  Precond_solver : DEFAULT
  stepsize       :    0.00100000                  energy_gap     :    0.00100000
  ortho_irac     : CHOL                           irac_degree    :             4
  max_irac       :            50                  eps_irac       :   0.10000E-09
  eps_irac_switch:   0.10000E-01                  eps_irac_quick_exit: 0.100E-04
  on_the_fly_loc : F
  ----------------------------------- OT ---------------------------------------

  Step     Update method      Time    Convergence         Total energy    Change
  ------------------------------------------------------------------------------
 SKALA_GPW| Atom-composite cross support/maxima   2.119019365127E+00   8.132240198752E-02   4.578110596786E-01   3.790678205216E+00
 SKALA_GPW| Active atom-composite XC energy  -1.4312682597990648E+01
 SKALA_GPW| Active atom-composite electrons   3.2036653278775020E+01
 SKALA_GPW| Active atom-composite density range   6.3567982086371044E-06   2.8537715343821085E-01
 SKALA_GPW| Active atom-composite tau range   2.4091539016222723E-03   6.1999394286445177E+00
 SKALA_GPW| Active atom-composite tau integral   3.6026471830116265E+01
 SKALA_GPW| Active atom-composite max gradient   9.5750104998604391E-01
 K-point OT: rebuilding physical virtual subspace by full KS diagonalization.

  ----------------------------------- OT ---------------------------------------
  Minimizer      : DIIS                : direct inversion
                                         in the iterative subspace
                                         using   7 DIIS vectors
                                         safer DIIS on
  Preconditioner : FULL_SINGLE_INVERSE : inversion of 
                                         H + eS - 2*(Sc)(c^T*H*c+const)(Sc)^T
  Precond_solver : DEFAULT
  stepsize       :    0.00100000                  energy_gap     :    0.00100000
  ortho_irac     : CHOL                           irac_degree    :             4
  max_irac       :            50                  eps_irac       :   0.10000E-09
  eps_irac_switch:   0.10000E-01                  eps_irac_quick_exit: 0.100E-04
  on_the_fly_loc : F
  ----------------------------------- OT ---------------------------------------

  Step     Update method      Time    Convergence         Total energy    Change
  ------------------------------------------------------------------------------
     1 OT INIT     0.10E-02  884.4     0.00000500       -48.7357435508 -6.87E-07
 SKALA_GPW| Atom-composite cross support/maxima   2.119019365127E+00   8.133515520566E-02   4.577307921180E-01   3.789926596668E+00
 SKALA_GPW| Active atom-composite XC energy  -1.4310538933847232E+01
 SKALA_GPW| Active atom-composite electrons   3.2036676991775778E+01
 SKALA_GPW| Active atom-composite density range   6.3598605804932040E-06   2.8536958576553334E-01
 SKALA_GPW| Active atom-composite tau range   2.4160812094759705E-03   6.1986491390578102E+00
 SKALA_GPW| Active atom-composite tau integral   3.6018034230161518E+01
 SKALA_GPW| Active atom-composite max gradient   9.5733199909819533E-01
     2 OT DIIS     0.10E-02  458.2     0.00007227       -48.7354495869  2.94E-04
 SKALA_GPW| Atom-composite cross support/maxima   2.119019365127E+00   8.133512676681E-02   4.577308342983E-01   3.789926929735E+00
 SKALA_GPW| Active atom-composite XC energy  -1.4310542106203275E+01
 SKALA_GPW| Active atom-composite electrons   3.2036676989530235E+01
 SKALA_GPW| Active atom-composite density range   6.3598353166188781E-06   2.8536955212707410E-01
 SKALA_GPW| Active atom-composite tau range   2.4160778972375351E-03   6.1986496383674350E+00
 SKALA_GPW| Active atom-composite tau integral   3.6018039325739757E+01
 SKALA_GPW| Active atom-composite max gradient   9.5733205227119922E-01
     3 OT DIIS     0.10E-02  436.0     0.00007160       -48.7354520252 -2.44E-06
 SKALA_GPW| Atom-composite cross support/maxima   2.119019365127E+00   8.133270998021E-02   4.577344473796E-01   3.789958601510E+00
 SKALA_GPW| Active atom-composite XC energy  -1.4310729324703111E+01
 SKALA_GPW| Active atom-composite electrons   3.2036676797898266E+01
 SKALA_GPW| Active atom-composite density range   6.3576729018854916E-06   2.8536672220243958E-01
 SKALA_GPW| Active atom-composite tau range   2.4157955894798084E-03   6.1986926654698298E+00
 SKALA_GPW| Active atom-composite tau integral   3.6018474878143046E+01
 SKALA_GPW| Active atom-composite max gradient   9.5733664126463591E-01
     4 OT DIIS     0.10E-02  443.2     0.00003157       -48.7355761478 -1.24E-04
 SKALA_GPW| Atom-composite cross support/maxima   2.119019365127E+00   8.133200691748E-02   4.577363436529E-01   3.789977458048E+00
 SKALA_GPW| Active atom-composite XC energy  -1.4310764210410365E+01
 SKALA_GPW| Active atom-composite electrons   3.2036676730679162E+01
 SKALA_GPW| Active atom-composite density range   6.3567512425255490E-06   2.8536653564389186E-01
 SKALA_GPW| Active atom-composite tau range   2.4156992995026626E-03   6.1987181708257548E+00
 SKALA_GPW| Active atom-composite tau integral   3.6018632971878048E+01
 SKALA_GPW| Active atom-composite max gradient   9.5733998975435941E-01
     5 OT DIIS     0.10E-02  451.1     0.00003276       -48.7355878870 -1.17E-05
 SKALA_GPW| Atom-composite cross support/maxima   2.119019365127E+00   8.132895274920E-02   4.577465561982E-01   3.790083313650E+00
 SKALA_GPW| Active atom-composite XC energy  -1.4310970072811173E+01
 SKALA_GPW| Active atom-composite electrons   3.2036676368364795E+01
 SKALA_GPW| Active atom-composite density range   6.3503368308848174E-06   2.8536811330334094E-01
 SKALA_GPW| Active atom-composite tau range   2.4152044015618790E-03   6.1988828169299763E+00
 SKALA_GPW| Active atom-composite tau integral   3.6019530165634627E+01
 SKALA_GPW| Active atom-composite max gradient   9.5735861329161964E-01
     6 OT DIIS     0.10E-02  449.4     0.00002433       -48.7356612523 -7.34E-05
 SKALA_GPW| Atom-composite cross support/maxima   2.119019365127E+00   8.132654228184E-02   4.577544211501E-01   3.790166570853E+00
 SKALA_GPW| Active atom-composite XC energy  -1.4311106301227417E+01
 SKALA_GPW| Active atom-composite electrons   3.2036676091905541E+01
 SKALA_GPW| Active atom-composite density range   6.3457029441660318E-06   2.8536883814872649E-01
 SKALA_GPW| Active atom-composite tau range   2.4148229184006360E-03   6.1990080154706142E+00
 SKALA_GPW| Active atom-composite tau integral   3.6020207160293658E+01
 SKALA_GPW| Active atom-composite max gradient   9.5737331981098550E-01
     7 OT DIIS     0.10E-02  437.4     0.00002545       -48.7356972193 -3.60E-05
 SKALA_GPW| Atom-composite cross support/maxima   2.119019365127E+00   8.131649824604E-02   4.577879570679E-01   3.790533950221E+00
 SKALA_GPW| Active atom-composite XC energy  -1.4311498113097496E+01
 SKALA_GPW| Active atom-composite electrons   3.2036674907491133E+01
 SKALA_GPW| Active atom-composite density range   6.3248108190250285E-06   2.8537343140693316E-01
 SKALA_GPW| Active atom-composite tau range   2.4132172616678563E-03   6.1995662560749265E+00
 SKALA_GPW| Active atom-composite tau integral   3.6023124532693153E+01
 SKALA_GPW| Active atom-composite max gradient   9.5743860398864111E-01
     8 OT DIIS     0.10E-02  464.8     0.00008204       -48.7356535429  4.37E-05
 SKALA_GPW| Atom-composite cross support/maxima   2.119019365127E+00   8.131760566495E-02   4.577851847106E-01   3.790500249845E+00
 SKALA_GPW| Active atom-composite XC energy  -1.4311564893860856E+01
 SKALA_GPW| Active atom-composite electrons   3.2036674999853844E+01
 SKALA_GPW| Active atom-composite density range   6.3293183052287594E-06   2.8537351640101555E-01
 SKALA_GPW| Active atom-composite tau range   2.4132732427537048E-03   6.1995252489386417E+00
 SKALA_GPW| Active atom-composite tau integral   3.6022865071826018E+01
 SKALA_GPW| Active atom-composite max gradient   9.5743285283837953E-01
     9 OT DIIS     0.10E-02  457.3     0.00001165       -48.7357573543 -1.04E-04
 SKALA_GPW| Atom-composite cross support/maxima   2.119019365127E+00   8.131912707816E-02   4.577801453481E-01   3.790445446667E+00
 SKALA_GPW| Active atom-composite XC energy  -1.4311501434563819E+01
 SKALA_GPW| Active atom-composite electrons   3.2036675179913424E+01
 SKALA_GPW| Active atom-composite density range   6.3328966114217788E-06   2.8537245791728960E-01
 SKALA_GPW| Active atom-composite tau range   2.4135092943507949E-03   6.1994409293014456E+00
 SKALA_GPW| Active atom-composite tau integral   3.6022412984010778E+01
 SKALA_GPW| Active atom-composite max gradient   9.5742277771963491E-01
    10 OT DIIS     0.10E-02  462.1     0.00000211       -48.7357615791 -4.22E-06
 SKALA_GPW| Atom-composite cross support/maxima   2.119019365127E+00   8.131896441050E-02   4.577806819004E-01   3.790450663362E+00
 SKALA_GPW| Active atom-composite XC energy  -1.4311509051830511E+01
 SKALA_GPW| Active atom-composite electrons   3.2036675160287203E+01
 SKALA_GPW| Active atom-composite density range   6.3323193568581848E-06   2.8537267686862550E-01
 SKALA_GPW| Active atom-composite tau range   2.4134883012088331E-03   6.1994487626144892E+00
 SKALA_GPW| Active atom-composite tau integral   3.6022464828103104E+01
 SKALA_GPW| Active atom-composite max gradient   9.5742381545621913E-01
    11 OT DIIS     0.10E-02  453.6     0.00000309       -48.7357615098  6.93E-08
 SKALA_GPW| Atom-composite cross support/maxima   2.119019365127E+00   8.131893752929E-02   4.577813211609E-01   3.790457613249E+00
 SKALA_GPW| Active atom-composite XC energy  -1.4311515288128199E+01
 SKALA_GPW| Active atom-composite electrons   3.2036675134987902E+01
 SKALA_GPW| Active atom-composite density range   6.3324029870998055E-06   2.8537278783101661E-01
 SKALA_GPW| Active atom-composite tau range   2.4134636712097104E-03   6.1994598949895998E+00
 SKALA_GPW| Active atom-composite tau integral   3.6022502437959695E+01
 SKALA_GPW| Active atom-composite max gradient   9.5742514111290744E-01
    12 OT DIIS     0.10E-02  451.4     0.00000145       -48.7357616053 -9.55E-08
 SKALA_GPW| Atom-composite cross support/maxima   2.119019365127E+00   8.131919864434E-02   4.577806976360E-01   3.790450537575E+00
 SKALA_GPW| Active atom-composite XC energy  -1.4311506746442284E+01
 SKALA_GPW| Active atom-composite electrons   3.2036675155370638E+01
 SKALA_GPW| Active atom-composite density range   6.3327368983040477E-06   2.8537283459041973E-01
 SKALA_GPW| Active atom-composite tau range   2.4135026217563149E-03   6.1994491093335888E+00
 SKALA_GPW| Active atom-composite tau integral   3.6022444286064434E+01
 SKALA_GPW| Active atom-composite max gradient   9.5742398860335087E-01
    13 OT DIIS     0.10E-02  438.0     0.00000040       -48.7357616525 -4.73E-08

  *** SCF run converged in    13 steps ***


  Electronic density on regular grids:        -32.0000000000        0.0000000000
  Core density on regular grids:               32.0000000000       -0.0000000000
  Total charge density on r-space grids:       -0.0000000000
  Total charge density g-space grids:          -0.0000000000

  Overlap energy of the core charge distribution:               0.00000000612488
  Self energy of the core charge distribution:               -121.95714208655001
  Core Hamiltonian energy:                                     35.72721989532182
  Hartree energy:                                              51.96860789385634
  Exchange-correlation energy:                                  0.00000000000000
  Dispersion energy:                                           -0.16294061481691

  GAPW_XC| Exc from hard and soft atomic rho1:                -14.31150674644228

  Total energy:                                               -48.73576165250616

  outer SCF iter =    2 RMS gradient =   0.40E-06 energy =        -48.7357616525
  outer SCF loop converged in   2 iterations or   63 steps


 !-----------------------------------------------------------------------------!
                     Mulliken Population Analysis

 #  Atom  Element  Kind  Atomic population                           Net charge
       1     Al       1          1.238932                              1.761068
       2     Al       1          1.227086                              1.772914
       3     Al       1          1.227085                              1.772915
       4     Al       1          1.227083                              1.772917
       5     N        2          6.772096                             -1.772096
       6     N        2          6.769251                             -1.769251
       7     N        2          6.769248                             -1.769248
       8     N        2          6.769219                             -1.769219
 # Total charge                             32.000000                  0.000000

 !-----------------------------------------------------------------------------!

 !-----------------------------------------------------------------------------!
                           Hirshfeld Charges

  #Atom  Element  Kind  Ref Charge     Population                    Net charge
      1       Al     1       3.000          2.578                         0.422
      2       Al     1       3.000          2.577                         0.423
      3       Al     1       3.000          2.577                         0.423
      4       Al     1       3.000          2.577                         0.423
      5       N      2       5.000          5.423                        -0.423
      6       N      2       5.000          5.423                        -0.423
      7       N      2       5.000          5.423                        -0.423
      8       N      2       5.000          5.423                        -0.423

  Total Charge                                                           -0.000
 !-----------------------------------------------------------------------------!

 ENERGY| Total FORCE_EVAL ( QS ) energy [hartree]            -48.735761652506156

 -------------------------------------------------------------------------------
 -                                                                             -
 -                                DBCSR STATISTICS                             -
 -                                                                             -
 -------------------------------------------------------------------------------
 COUNTER                                    TOTAL       BLAS       SMM       ACC
 flops    16 x    16 x    16            268369920     100.0%      0.0%      0.0%     
 flops    40 x    16 x    16            985743360     100.0%      0.0%      0.0%     
 flops    64 x    16 x    16           4731568128     100.0%      0.0%      0.0%     
 flops    16 x    16 x   232           7603126272     100.0%      0.0%      0.0%     
 flops    40 x    16 x   232          29484564480     100.0%      0.0%      0.0%     
 flops    64 x    16 x   232         141525909504     100.0%      0.0%      0.0%     
 flops inhomo. stacks                           0       0.0%      0.0%      0.0%
 flops total                       184.599282E+09     100.0%      0.0%      0.0%
 flops max/rank                    184.599282E+09     100.0%      0.0%      0.0%
 matmuls inhomo. stacks                         0       0.0%      0.0%      0.0%
 matmuls total                             686448     100.0%      0.0%      0.0%
 number of processed stacks                686448     100.0%      0.0%      0.0%
 average stack size                                     1.0       0.0       0.0
 marketing flops                   184.075682E+09
 -------------------------------------------------------------------------------
 # multiplications                         244188
 max memory usage/rank              29.927854E+09
 # max total images/rank                        1
 # max 3D layers                                1
 # MPI messages exchanged                       0
 -------------------------------------------------------------------------------
 -                                                                             -
 -                      DBCSR MESSAGE PASSING PERFORMANCE                      -
 -                                                                             -
 -------------------------------------------------------------------------------
 ROUTINE             CALLS      AVE VOLUME [Bytes]
 MP_Bcast                7                     12.
 MP_Allreduce      1220971                      8.
 MP_Alltoall       2164412                  54977.
 MP_ISend           976752                    115.
 MP_IRecv           976752                    115.
 -------------------------------------------------------------------------------

 -------------------------------------------------------------------------------
 -                                                                             -
 -                                GRID STATISTICS                              -
 -                                                                             -
 -------------------------------------------------------------------------------
 LP    KERNEL             BACKEND                              COUNT     PERCENT
 6     collocate ortho    CPU                                4121856      33.91%
 6     integrate ortho    CPU                                4057452      33.38%
 8     collocate ortho    CPU                                2003968      16.49%
 8     integrate ortho    CPU                                1972656      16.23%
 0     collocate general  CPU                                     24       0.00%
 0     integrate general  CPU                                      8       0.00%
 -------------------------------------------------------------------------------

 -------------------------------------------------------------------------------
 -                                                                             -
 -                          OFFLOAD MEMPOOL STATISTICS                         -
 -                                                                             -
 -------------------------------------------------------------------------------
 Memory consumption                Number of allocations  Used [MiB]  Size [MiB]
 Host                                                  9         200    90313224
 -------------------------------------------------------------------------------

 MEMORY| Estimated peak process memory [MiB]                                2848

 -------------------------------------------------------------------------------
 ----                             MULTIGRID INFO                            ----
 -------------------------------------------------------------------------------
 count for grid        1:           9123          cutoff [a.u.]          400.00
 count for grid        2:          13137          cutoff [a.u.]          133.33
 count for grid        3:          27068          cutoff [a.u.]           44.44
 count for grid        4:          40362          cutoff [a.u.]           14.81
 count for grid        5:           7924          cutoff [a.u.]            4.94
 total gridlevel count  :          97614

 -------------------------------------------------------------------------------
 -                                                                             -
 -                         MESSAGE PASSING PERFORMANCE                         -
 -                                                                             -
 -------------------------------------------------------------------------------

 ROUTINE             CALLS      AVE VOLUME [Bytes]
 MP_Group              131
 MP_Bcast           129376                   2994.
 MP_Allreduce       282309                  26458.
 MP_Sync                 5
 MP_Wait             87570
 MP_ISend           122598                  61519.
 MP_IRecv           122598                  61519.
 -------------------------------------------------------------------------------


 -------------------------------------------------------------------------------
 -                                                                             -
 -                           R E F E R E N C E S                               -
 -                                                                             -
 -------------------------------------------------------------------------------
 
 CP2K version 2026.2 (Development Version), the CP2K developers group (2026).
 CP2K is freely available from https://www.cp2k.org/ .
 
 M. Iannuzzi, J. Wilhelm, F. Stein, A. Bussy, H. Elgabarty, D. Golze, A. Hehn, 
 M. Graml, S. Marek, B. Sertcan Gökmen, C. Schran, H. Forbert, R. Z. 
 Khaliullin, A. Kozhevnikov, M. Taillefumier, R. Meli, V. V. Rybkin, M. Brehm, 
 R. Schade, O. Schütt, J. V. Pototschnig, H. Mirhosseini, A. Knüpfer, D. Marx, 
 M. Krack, J. Hutter, T. D. Kühne.
 J. Phys. Chem. B 130, 1237-1310 (2026).
 The CP2K Program Package Made Simple.
 https://doi.org/10.1021/acs.jpcb.5c05851

 L. Wittmann, I. Gordiy, M. Friede, B. Helmich-Paris, S. Grimme, A. Hansen, M. 
 Bursch.
 Phys. Chem. Chem. Phys. 26, 21379-21394 (2024).
 Extension of the D3 and D4 London dispersion corrections to the full actinides 
 series.
 https://doi.org/10.1039/d4cp01514b

 T. D. Kühne, M. Iannuzzi, M. Del Ben, V. V. Rybkin, P. Seewald, F. Stein, T. 
 Laino, R. Z. Khaliullin, O. Schütt, F. Schiffmann, D. Golze, J. Wilhelm, S. 
 Chulkov, M. H. Bani-Hashemian, V. Weber, U. Borstnik, M. Taillefumier, A. S. 
 Jakobovits, A. Lazzaro, H. Pabst, T. Müller, R. Schade, M. Guidon, S. 
 Andermatt, N. Holmberg, G. K. Schenter, A. Hehn, A. Bussy, F. Belleflamme, G. 
 Tabacchi, A. Glöß, M. Lass, I. Bethune, C. J. Mundy, C. Plessl, M. Watkins, 
 J. VandeVondele, M. Krack, J. Hutter.
 J. Chem. Phys. 152, 194103 (2020).
 CP2K: An electronic structure and molecular dynamics software package - 
 Quickstep: Efficient and accurate electronic structure calculations.
 https://doi.org/10.1063/5.0007045

 L. Goerigk, A. Hansen, C. Bauer, S. Ehrlich, A. Najibi, S. Grimme.
 Phys. Chem. Chem. Phys. 19, 32184-32215 (2017).
 A look at the density functional theory zoo with the advanced GMTKN55 database 
 for general main group thermochemistry, kinetics and noncovalent interactions.
 https://doi.org/10.1039/C7CP04913G

 O. Schuett, P. Messmer, J. Hutter, J. VandeVondele.
 Electronic Structure Calculations on Graphics Processing Units, 173-190 (2016).
 GPU-Accelerated Sparse Matrix-Matrix Multiplication for Linear Scaling Density 
 Functional Theory.
 https://doi.org/10.1002/9781118670712.ch8

 U. Borstnik, J. VandeVondele, V. Weber, J. Hutter.
 Parallel Comput. 40, 47-58 (2014).
 Sparse matrix multiplication: The distributed block-compressed sparse row 
 library.
 https://doi.org/10.1016/j.parco.2014.03.012

 S. Grimme, S. Ehrlich, L. Goerigk.
 J. Comput. Chem. 32, 1456 (2011).
 Effect of the damping function in dispersion corrected density functional 
 theory.
 https://doi.org/10.1002/jcc.21759

 S. Grimme, J. Antony, S. Ehrlich, H. Krieg.
 J. Chem. Phys. 132, 154104 (2010).
 A consistent and accurate ab initio parametrization of density functional 
 dispersion correction (DFT-D) for the 94 elements H-Pu.
 https://doi.org/10.1063/1.3382344

 V. Weber, J. VandeVondele, J. Hutter, A. M. N. Niklasson.
 J. Chem. Phys. 128, 084113 (2008).
 Direct energy functional minimization under orthogonality constraints.
 https://doi.org/10.1063/1.2841077

 J. VandeVondele, J. Hutter.
 J. Chem. Phys. 127, 114105 (2007).
 Gaussian basis sets for accurate calculations on molecular systems in gas and 
 condensed phases.
 https://doi.org/10.1063/1.2770708

 M. Krack.
 Theor. Chem. Acc. 114, 145-152 (2005).
 Pseudopotentials for H to Kr optimized for gradient-corrected 
 exchange-correlation functionals.
 https://doi.org/10.1007/s00214-005-0655-y

 M. Frigo, S. G. Johnson.
 Proc. IEEE 93, 216-231 (2005).
 The design and implementation of FFTW3.
 https://doi.org/10.1109/JPROC.2004.840301

 J. VandeVondele, J. Hutter.
 J. Chem. Phys. 118, 4365-4369 (2003).
 An efficient orbital transformation method for electronic structure 
 calculations.
 https://doi.org/10.1063/1.1543154

 C. Hartwigsen, S. Goedecker, J. Hutter.
 Phys. Rev. B 58, 3641-3662 (1998).
 Relativistic separable dual-space Gaussian pseudopotentials from H to Rn.
 https://doi.org/10.1103/PhysRevB.58.3641

 S. Goedecker, M. Teter, J. Hutter.
 Phys. Rev. B 54, 1703-1710 (1996).
 Separable dual-space Gaussian pseudopotentials.
 https://doi.org/10.1103/PhysRevB.54.1703

 C.-L. Fu, K.-M. Ho.
 Phys. Rev. B 28, 5480-5486 (1983).
 First-principles calculation of the equilibrium ground-state properties of 
 transition metals: Applications to Nb and Mo.
 https://doi.org/10.1103/PhysRevB.28.5480


 -------------------------------------------------------------------------------
 -                                                                             -
 -                                T I M I N G                                  -
 -                                                                             -
 -------------------------------------------------------------------------------
 SUBROUTINE                       CALLS  ASD         SELF TIME        TOTAL TIME
                                MAXIMUM       AVERAGE  MAXIMUM  AVERAGE  MAXIMUM
 CP2K                                 1  1.0     0.01     0.01 29157.86 29157.86
 qs_energies                          1  2.0     0.00     0.00 29157.48 29157.48
 scf_env_do_scf                       1  3.0     0.00     0.00 29144.95 29144.95
 scf_env_do_scf_inner_loop           65  4.0     0.05     0.05 29071.33 29071.33
 qs_ks_update_qs_env                 65  5.0     0.00     0.00 27856.61 27856.61
 rebuild_ks_matrix                   63  6.0     0.00     0.00 27853.59 27853.59
 qs_ks_build_kohn_sham_matrix        63  7.0     0.06     0.06 27853.59 27853.59
 calculate_vxc_atom                  63  8.0 22164.09 22164.09 27410.15 27410.15
 calc_tau_atom                     1512  9.0  1303.13  1303.13  1303.13  1303.13
 skala_atom_torch_backward          189  9.0  1298.60  1298.60  1298.60  1298.60
 gaVxcgb_GC                        1008  9.0   904.02   904.02   904.02   904.02
 skala_atom_torch_forward           189  9.0     0.36     0.36   891.63   891.63
 torch_model_forward_mol_tensor     189 10.0   891.27   891.27   891.27   891.27
 qs_scf_new_mos_kp                   65  5.0     0.00     0.00   787.65   787.65
 qs_scf_loop_do_ot_kp                65  6.0     0.29     0.29   787.65   787.65
 dgaVtaudgb                        1008  9.0   758.79   758.79   758.79   758.79
 -------------------------------------------------------------------------------

 The number of warnings for this run is : 2
 
 -------------------------------------------------------------------------------
  **** **** ******  **  PROGRAM ENDED AT                 2026-09-04 23:38:01.532
 ***** ** ***  *** **   PROGRAM RAN ON                                     terok
 **    ****   ******    PROGRAM RAN BY                                  kuehne88
 ***** **    ** ** **   PROGRAM PROCESS ID                                 78707
  **** **  *******  **  PROGRAM STOPPED IN /home/kuehne88/work/native-skala-tero
                                           k/goldzak12/runs/diagnostic-terok-gx-
                                           aln-v01-from-v02-wave142-20260904/pro
                                           duction/gapwxc-gth/AlN/v01
