 DBCSR| CPU Multiplication driver                                           BLAS (U)
 DBCSR| Multrec recursion limit                                              512 (U)
 DBCSR| Multiplication stack size                                           1000 (D)
 DBCSR| Maximum elements for images                                    UNLIMITED (U)
 DBCSR| Multiplicative factor virtual images                                   1 (U)
 DBCSR| Use multiplication densification                                       T (D)
 DBCSR| Multiplication size stacks                                             3 (U)
 DBCSR| Use memory pool for CPU allocation                                     F (U)
 DBCSR| Number of 3D layers                                               SINGLE (U)
 DBCSR| Use MPI memory allocation                                              F (U)
 DBCSR| Use RMA algorithm                                                      F (U)
 DBCSR| Use Communication thread                                               T (U)
 DBCSR| Communication thread load                                             15 (D)
 DBCSR| MPI: My process id                                                     0
 DBCSR| MPI: Number of processes                                               1
 DBCSR| OMP: Current number of threads                                        20
 DBCSR| OMP: Max number of threads                                            20
 DBCSR| Split modifier for TAS multiplication algorithm                  1.0E+00 (U)


  **** **** ******  **  PROGRAM STARTED AT               2026-08-31 22:33:10.972
 ***** ** ***  *** **   PROGRAM STARTED ON                                 terok
 **    ****   ******    PROGRAM STARTED BY                              kuehne88
 ***** **    ** ** **   PROGRAM PROCESS ID                                454817
  **** **  *******  **  PROGRAM STARTED IN /home/kuehne88/work/native-skala-tero
                                           k/goldzak12/runs/production/hybrid-di
                                           rect/Si/v04

 CP2K| version string:                 CP2K version 2026.2 (Development Version)
 CP2K| source code revision number:                                   c1bff3eeb8
 CP2K| cp2kflags: omp fftw3 gauxc gauxc_mpi gauxc_onedft gauxc_host parallel sca
 CP2K|            lapack mpi_f08 openblas libtorch libtorch_cuda
 CP2K| is freely available from                            https://www.cp2k.org/
 CP2K| Program compiled at                                   2026-08-24 23:53:18
 CP2K| Program compiled on                                                 terok
 CP2K| Program compiled for                                               x86_64
 CP2K| Data directory path    /home/kuehne88/work/native-skala-terok/install-gau
 CP2K| Input file name                                          actual-input.inp

 GLOBAL| Force Environment number                                              1
 GLOBAL| Basis set file name                             BASIS_MOLOPT_UZH_2026.2
 GLOBAL| Potential file name                                POTENTIAL_UZH_2026.2
 GLOBAL| MM Potential file name                                     MM_POTENTIAL
 GLOBAL| Coordinate file name                                      __STD_INPUT__
 GLOBAL| Method name                                                        CP2K
 GLOBAL| Project name                    G12_Si_hybrid-direct_v0p9666666667_k444
 GLOBAL| Run type                                                         ENERGY
 GLOBAL| FFT library                                                       FFTW3
 GLOBAL| Diagonalization library                                       ScaLAPACK
 GLOBAL| Cholesky decomposition library                                ScaLAPACK
 GLOBAL| DGEMM library                                                      BLAS
 GLOBAL| Direct generalized diagonalization requested                          F
 GLOBAL| Orthonormality check for eigenvectors                          DISABLED
 GLOBAL| Matrix multiplication library                                 ScaLAPACK
 GLOBAL| All-to-all communication in single precision                          F
 GLOBAL| FFTs using library dependent lengths                                  F
 GLOBAL| Grid backend                                                       AUTO
 GLOBAL| Global print level                                               MEDIUM
 GLOBAL| MPI I/O enabled                                                       T
 GLOBAL| Total number of message passing processes                             1
 GLOBAL| Number of distributed systems (nodes)                                 1
 GLOBAL| Number of threads for this process                                   20
 GLOBAL| This output is from process                                           0
 GLOBAL| OpenMP stack size per thread (OMP_STACKSIZE)                       512M
 GLOBAL| CPU model name                                       AMD EPYC Processor

 MEMORY| system memory details [Kb]
 MEMORY|                        rank 0           min           max       average
 MEMORY| MemTotal            528104844     528104844     528104844     528104844
 MEMORY| MemFree             319778900     319778900     319778900     319778900
 MEMORY| Buffers                   664           664           664           664
 MEMORY| Cached              142398704     142398704     142398704     142398704
 MEMORY| Slab                 26794052      26794052      26794052      26794052
 MEMORY| SReclaimable         22321448      22321448      22321448      22321448
 MEMORY| MemLikelyFree       484499716     484499716     484499716     484499716


 *** Fundamental physical constants (SI units) ***

 *** Literature: B. J. Mohr and B. N. Taylor,
 ***             CODATA recommended values of the fundamental physical
 ***             constants: 2006, Web Version 5.1
 ***             http://physics.nist.gov/constants

 Speed of light in vacuum [m/s]                             2.99792458000000E+08
 Magnetic constant or permeability of vacuum [N/A**2]       1.25663706143592E-06
 Electric constant or permittivity of vacuum [F/m]          8.85418781762039E-12
 Planck constant (h) [J*s]                                  6.62606896000000E-34
 Planck constant (h-bar) [J*s]                              1.05457162825177E-34
 Elementary charge [C]                                      1.60217648700000E-19
 Electron mass [kg]                                         9.10938215000000E-31
 Electron g factor [ ]                                     -2.00231930436220E+00
 Proton mass [kg]                                           1.67262163700000E-27
 Fine-structure constant                                    7.29735253760000E-03
 Rydberg constant [1/m]                                     1.09737315685270E+07
 Avogadro constant [1/mol]                                  6.02214179000000E+23
 Boltzmann constant [J/K]                                   1.38065040000000E-23
 Atomic mass unit [kg]                                      1.66053878200000E-27
 Bohr radius [m]                                            5.29177208590000E-11

 *** Conversion factors ***

 [u] -> [a.u.]                                              1.82288848426455E+03
 [Angstrom] -> [Bohr] = [a.u.]                              1.88972613288564E+00
 [a.u.] = [Bohr] -> [Angstrom]                              5.29177208590000E-01
 [a.u.] -> [s]                                              2.41888432650478E-17
 [a.u.] -> [fs]                                             2.41888432650478E-02
 [a.u.] -> [J]                                              4.35974393937059E-18
 [a.u.] -> [N]                                              8.23872205491840E-08
 [a.u.] -> [K]                                              3.15774647902944E+05
 [a.u.] -> [kJ/mol]                                         2.62549961709828E+03
 [a.u.] -> [kcal/mol]                                       6.27509468713739E+02
 [a.u.] -> [Pa]                                             2.94210107994716E+13
 [a.u.] -> [bar]                                            2.94210107994716E+08
 [a.u.] -> [atm]                                            2.90362800883016E+08
 [a.u.] -> [eV]                                             2.72113838565563E+01
 [a.u.] -> [Hz]                                             6.57968392072181E+15
 [a.u.] -> [1/cm] (wave numbers)                            2.19474631370540E+05
 [a.u./Bohr**2] -> [1/cm]                                   5.14048714338585E+03
 

 CELL| Volume [angstrom^3]:                                           153.997959
 CELL| Vector a [angstrom]:       5.360     0.000     0.000   |a| =     5.360085
 CELL| Vector b [angstrom]:       0.000     5.360     0.000   |b| =     5.360085
 CELL| Vector c [angstrom]:       0.000     0.000     5.360   |c| =     5.360085
 CELL| Angle (b,c), alpha [degree]:                                    90.000000
 CELL| Angle (a,c), beta  [degree]:                                    90.000000
 CELL| Angle (a,b), gamma [degree]:                                    90.000000
 CELL| Numerically orthorhombic:                                             YES
 CELL| Periodicity                                                           XYZ

 CELL_REF| Volume [angstrom^3]:                                       153.997959
 CELL_REF| Vector a [angstrom     5.360     0.000     0.000   |a| =     5.360085
 CELL_REF| Vector b [angstrom     0.000     5.360     0.000   |b| =     5.360085
 CELL_REF| Vector c [angstrom     0.000     0.000     5.360   |c| =     5.360085
 CELL_REF| Angle (b,c), alpha [degree]:                                90.000000
 CELL_REF| Angle (a,c), beta  [degree]:                                90.000000
 CELL_REF| Angle (a,b), gamma [degree]:                                90.000000
 CELL_REF| Numerically orthorhombic:                                         YES
 CELL_REF| Periodicity                                                       XYZ

 GENERATE|  Preliminary Number of Bonds generated:                             0
 GENERATE|  Achieved consistency in connectivity generation.

 *** WARNING in cryssym.F:203 :: Symmetry library SPGLIB not available ***


 *******************************************************************************
 *******************************************************************************
 **                                                                           **
 **     #####                         ##              ##                      **
 **    ##   ##            ##          ##              ##                      **
 **   ##     ##                       ##            ######                    **
 **   ##     ##  ##   ##  ##   #####  ##  ##   ####   ##    #####    #####    **
 **   ##     ##  ##   ##  ##  ##      ## ##   ##      ##   ##   ##  ##   ##   **
 **   ##  ## ##  ##   ##  ##  ##      ####     ###    ##   ######   ######    **
 **    ##  ###   ##   ##  ##  ##      ## ##      ##   ##   ##       ##        **
 **     #######   #####   ##   #####  ##  ##  ####    ##    #####   ##        **
 **           ##                                                    ##        **
 **                                                                           **
 **                                                ... make the atoms dance   **
 **                                                                           **
 **            Copyright (C) by CP2K developers group (2000-2026)             **
 **                      J. Chem. Phys. 152, 194103 (2020)                    **
 **                                                                           **
 *******************************************************************************

 DFT| Spin restricted Kohn-Sham (RKS) calculation                            RKS
 DFT| Multiplicity                                                             1
 DFT| Number of spin states                                                    1
 DFT| Charge                                                                   0
 DFT| Self-interaction correction (SIC)                                       NO
 DFT| Cutoffs: density                                              1.000000E-10
 DFT|          gradient                                             1.000000E-10
 DFT|          tau                                                  1.000000E-10
 DFT|          cutoff_smoothing_range                               0.000000E+00
 DFT| XC density smoothing                                                  NONE
 DFT| XC derivatives                                                          PW

 FUNCTIONAL| GAUXC:
 FUNCTIONAL| Functional computed by GauXC Skala model SKALA                     

 vdW POTENTIAL|                                                   Pair Potential
 vdW POTENTIAL|          DFT-D3 (Version 3.1)
 vdW POTENTIAL|          Potential Form: S. Grimme et al, JCP 132: 154104 (2010)
 vdW POTENTIAL|          BJ Damping: S. Grimme et al, JCC 32: 1456 (2011)
 vdW POTENTIAL|          Cutoff Radius [Bohr]:                             37.79
 vdW POTENTIAL|          s6 Scaling Factor:                               1.0000
 vdW POTENTIAL|          a1 Damping Factor:                               0.3981
 vdW POTENTIAL|          s8 Scaling Factor:                               1.9889
 vdW POTENTIAL|          a2 Damping Factor:                               4.4211
 vdW POTENTIAL|          Cutoff for CN calculation:                   0.1000E-05

 QS| Method:                                                                GAPW
 QS| Density plane wave grid type                        NON-SPHERICAL FULLSPACE
 QS| Number of grid levels:                                                    5
 QS| Density cutoff [a.u.]:                                                400.0
 QS| Multi grid cutoff [a.u.]: 1) grid level                               400.0
 QS|                           2) grid level                               133.3
 QS|                           3) grid level                                44.4
 QS|                           4) grid level                                14.8
 QS|                           5) grid level                                 4.9
 QS| Grid level progression factor:                                          3.0
 QS| Relative density cutoff [a.u.]:                                        30.0
 QS| Interaction thresholds: eps_pgf_orb:                                1.0E-06
 QS|                         eps_filter_matrix:                          0.0E+00
 QS|                         eps_core_charge:                            1.0E-14
 QS|                         eps_rho_gspace:                             1.0E-12
 QS|                         eps_rho_rspace:                             1.0E-12
 QS|                         eps_gvg_rspace:                             1.0E-06
 QS|                         eps_ppl:                                    1.0E-02
 QS|                         eps_ppnl:                                   1.0E-08
 QS| GAPW|      XC integration using accurate scheme: Ref. exponent     6.000000
 QS| GAPW|      One center basis extended with primitives (small:s)
 QS| GAPW|                   eps_fit:                                    1.0E-04
 QS| GAPW|                   eps_iso:                                    1.0E-12
 QS| GAPW|                   eps_svd:                                    1.0E-08
 QS| GAPW|                   eps_cpc:                                    1.0E-12
 QS| GAPW|   atom-r-grid: quadrature:                                     GC_LOG
 QS| GAPW|      atom-s-grid:  max l :                                          6
 QS| GAPW|      max_l_rho0 :                                                   4
 QS| GAPW|      At least one kind is NOT PAW, i.e. it has only soft AO 
 QS| GAPW|      The NOT PAW atoms are treated fully GPW


 ATOMIC KIND INFORMATION

  1. Atomic kind: Si                                    Number of atoms:       8

     Orbital Basis Set                                   TZV2P-MOLOPT-PBE-GTH-q4

       Number of orbital shell sets:                                           1
       Number of orbital shells:                                               9
       Number of primitive Cartesian functions:                                4
       Number of Cartesian basis functions:                                   34
       Number of spherical basis functions:                                   29
       Norm type:                                                              2

       Normalised Cartesian orbitals:

                        Set   Shell   Orbital            Exponent    Coefficient

                          1       1    2s                1.225726       0.396008
                                                         0.420991      -0.156102
                                                         0.169524      -0.164194
                                                         0.047522       0.001359

                          1       2    3s                1.225726      -0.314955
                                                         0.420991       0.115254
                                                         0.169524      -0.070030
                                                         0.047522      -0.053096

                          1       3    4s                1.225726      -0.770932
                                                         0.420991       0.139640
                                                         0.169524      -0.125600
                                                         0.047522       0.070994

                          1       4    3px               1.225726       0.193725
                                                         0.420991      -0.297086
                                                         0.169524      -0.078660
                                                         0.047522       0.000093
                          1       4    3py               1.225726       0.193725
                                                         0.420991      -0.297086
                                                         0.169524      -0.078660
                                                         0.047522       0.000093
                          1       4    3pz               1.225726       0.193725
                                                         0.420991      -0.297086
                                                         0.169524      -0.078660
                                                         0.047522       0.000093

                          1       5    4px               1.225726       0.165208
                                                         0.420991      -0.261223
                                                         0.169524       0.105025
                                                         0.047522       0.021509
                          1       5    4py               1.225726       0.165208
                                                         0.420991      -0.261223
                                                         0.169524       0.105025
                                                         0.047522       0.021509
                          1       5    4pz               1.225726       0.165208
                                                         0.420991      -0.261223
                                                         0.169524       0.105025
                                                         0.047522       0.021509

                          1       6    5px               1.225726      -1.548058
                                                         0.420991       0.146763
                                                         0.169524      -0.083355
                                                         0.047522       0.028085
                          1       6    5py               1.225726      -1.548058
                                                         0.420991       0.146763
                                                         0.169524      -0.083355
                                                         0.047522       0.028085
                          1       6    5pz               1.225726      -1.548058
                                                         0.420991       0.146763
                                                         0.169524      -0.083355
                                                         0.047522       0.028085

                          1       7    4dx2              1.225726       0.452920
                                                         0.420991       0.207665
                                                         0.169524       0.027528
                                                         0.047522       0.000294
                          1       7    4dxy              1.225726       0.784480
                                                         0.420991       0.359686
                                                         0.169524       0.047680
                                                         0.047522       0.000509
                          1       7    4dxz              1.225726       0.784480
                                                         0.420991       0.359686
                                                         0.169524       0.047680
                                                         0.047522       0.000509
                          1       7    4dy2              1.225726       0.452920
                                                         0.420991       0.207665
                                                         0.169524       0.027528
                                                         0.047522       0.000294
                          1       7    4dyz              1.225726       0.784480
                                                         0.420991       0.359686
                                                         0.169524       0.047680
                                                         0.047522       0.000509
                          1       7    4dz2              1.225726       0.452920
                                                         0.420991       0.207665
                                                         0.169524       0.027528
                                                         0.047522       0.000294

                          1       8    5dx2              1.225726      -2.995584
                                                         0.420991       0.255705
                                                         0.169524      -0.031782
                                                         0.047522       0.000380
                          1       8    5dxy              1.225726      -5.188503
                                                         0.420991       0.442894
                                                         0.169524      -0.055048
                                                         0.047522       0.000659
                          1       8    5dxz              1.225726      -5.188503
                                                         0.420991       0.442894
                                                         0.169524      -0.055048
                                                         0.047522       0.000659
                          1       8    5dy2              1.225726      -2.995584
                                                         0.420991       0.255705
                                                         0.169524      -0.031782
                                                         0.047522       0.000380
                          1       8    5dyz              1.225726      -5.188503
                                                         0.420991       0.442894
                                                         0.169524      -0.055048
                                                         0.047522       0.000659
                          1       8    5dz2              1.225726      -2.995584
                                                         0.420991       0.255705
                                                         0.169524      -0.031782
                                                         0.047522       0.000380

                          1       9    5fx3              1.225726       0.367804
                                                         0.420991       0.134089
                                                         0.169524       0.010284
                                                         0.047522      -0.000037
                          1       9    5fx2y             1.225726       0.822434
                                                         0.420991       0.299833
                                                         0.169524       0.022995
                                                         0.047522      -0.000084
                          1       9    5fx2z             1.225726       0.822434
                                                         0.420991       0.299833
                                                         0.169524       0.022995
                                                         0.047522      -0.000084
                          1       9    5fxy2             1.225726       0.822434
                                                         0.420991       0.299833
                                                         0.169524       0.022995
                                                         0.047522      -0.000084
                          1       9    5fxyz             1.225726       1.424498
                                                         0.420991       0.519326
                                                         0.169524       0.039829
                                                         0.047522      -0.000145
                          1       9    5fxz2             1.225726       0.822434
                                                         0.420991       0.299833
                                                         0.169524       0.022995
                                                         0.047522      -0.000084
                          1       9    5fy3              1.225726       0.367804
                                                         0.420991       0.134089
                                                         0.169524       0.010284
                                                         0.047522      -0.000037
                          1       9    5fy2z             1.225726       0.822434
                                                         0.420991       0.299833
                                                         0.169524       0.022995
                                                         0.047522      -0.000084
                          1       9    5fyz2             1.225726       0.822434
                                                         0.420991       0.299833
                                                         0.169524       0.022995
                                                         0.047522      -0.000084
                          1       9    5fz3              1.225726       0.367804
                                                         0.420991       0.134089
                                                         0.169524       0.010284
                                                         0.047522      -0.000037

       Atomic covalent radius [Angstrom]:                                  1.110

       Atomic van der Waals radius [Angstrom]:                             2.100

     GTH Potential information for                                    GTH-PBE-q4

       Description:                       Goedecker-Teter-Hutter pseudopotential
                                           Goedecker et al., PRB 54, 1703 (1996)
                                          Hartwigsen et al., PRB 58, 3641 (1998)
                                                      Krack, TCA 114, 145 (2005)

       Gaussian exponent of the core charge distribution:               2.582849
       Electronic configuration (s p d ...):                       2   2   0   0

       Parameters of the local part of the GTH pseudopotential:

                          rloc        C1          C2          C3          C4
                        0.439983   -6.269270

       Parameters of the non-local part of the GTH pseudopotential:

                   l      r(l)      h(i,j,l)

                   0    0.435635    8.951852   -2.706271
                                   -2.706271    3.493787
                   1    0.497958    2.431277


 MOLECULE KIND INFORMATION


 All atoms are their own molecule, skipping detailed information


 TOTAL NUMBERS AND MAXIMUM NUMBERS

  Total number of            - Atomic kinds:                                   1
                             - Atoms:                                          8
                             - Shell sets:                                     8
                             - Shells:                                        72
                             - Primitive Cartesian functions:                 32
                             - Cartesian basis functions:                    272
                             - Spherical basis functions:                    232

  Maximum angular momentum of- Orbital basis functions:                        3
                             - Local part of the GTH pseudopotential:          0
                             - Non-local part of the GTH pseudopotential:      2


 MODULE QUICKSTEP: ATOMIC COORDINATES IN ANGSTROM

   Atom Kind Element         X             Y             Z       Z(eff)     Mass
      1    1 Si   14      0.000000      0.000000      0.000000   4.0000  28.0855
      2    1 Si   14      0.000000      2.680042      2.680042   4.0000  28.0855
      3    1 Si   14      2.680042      0.000000      2.680042   4.0000  28.0855
      4    1 Si   14      2.680042      2.680042      0.000000   4.0000  28.0855
      5    1 Si   14      1.340021      1.340021      1.340021   4.0000  28.0855
      6    1 Si   14      1.340021      4.020064      4.020064   4.0000  28.0855
      7    1 Si   14      4.020064      1.340021      4.020064   4.0000  28.0855
      8    1 Si   14      4.020064      4.020064      1.340021   4.0000  28.0855



 SCF PARAMETERS         Density guess:                                    ATOMIC
                        --------------------------------------------------------
                        max_scf:                                             200
                        max_scf_history:                                       0
                        max_diis:                                              4
                        --------------------------------------------------------
                        eps_scf:                                        5.00E-06
                        eps_scf_history:                                0.00E+00
                        eps_diis:                                       1.00E-01
                        eps_eigval:                                     1.00E-05
                        --------------------------------------------------------
                        level_shift [a.u.]:                             0.000000
                        --------------------------------------------------------
                        Mixing method:                           DIRECT_P_MIXING
                        --------------------------------------------------------
                        Outer loop SCF in use 
                        No variables optimised in outer loop
                        eps_scf                                         5.00E-06
                        max_scf                                                5
                        No outer loop optimization
                        step_size                                       5.00E-01

 PW_GRID| Information for grid number                                          1
 PW_GRID| Cutoff [a.u.]                                                    400.0
 PW_GRID| spherical cutoff:                                                   NO
 PW_GRID|   Bounds   1            -48      47                Points:          96
 PW_GRID|   Bounds   2            -48      47                Points:          96
 PW_GRID|   Bounds   3            -48      47                Points:          96
 PW_GRID| Volume element (a.u.^3)  0.1175E-02     Volume (a.u.^3)      1039.2298
 PW_GRID| Grid span                                                    FULLSPACE

 PW_GRID| Information for grid number                                          2
 PW_GRID| Number of the reference grid                                         1
 PW_GRID| Cutoff [a.u.]                                                    133.3
 PW_GRID| spherical cutoff:                                                   NO
 PW_GRID|   Bounds   1            -27      26                Points:          54
 PW_GRID|   Bounds   2            -27      26                Points:          54
 PW_GRID|   Bounds   3            -27      26                Points:          54
 PW_GRID| Volume element (a.u.^3)  0.6600E-02     Volume (a.u.^3)      1039.2298
 PW_GRID| Grid span                                                    FULLSPACE

 PW_GRID| Information for grid number                                          3
 PW_GRID| Number of the reference grid                                         1
 PW_GRID| Cutoff [a.u.]                                                     44.4
 PW_GRID| spherical cutoff:                                                   NO
 PW_GRID|   Bounds   1            -16      15                Points:          32
 PW_GRID|   Bounds   2            -16      15                Points:          32
 PW_GRID|   Bounds   3            -16      15                Points:          32
 PW_GRID| Volume element (a.u.^3)  0.3171E-01     Volume (a.u.^3)      1039.2298
 PW_GRID| Grid span                                                    FULLSPACE

 PW_GRID| Information for grid number                                          4
 PW_GRID| Number of the reference grid                                         1
 PW_GRID| Cutoff [a.u.]                                                     14.8
 PW_GRID| spherical cutoff:                                                   NO
 PW_GRID|   Bounds   1             -9       8                Points:          18
 PW_GRID|   Bounds   2             -9       8                Points:          18
 PW_GRID|   Bounds   3             -9       8                Points:          18
 PW_GRID| Volume element (a.u.^3)  0.1782         Volume (a.u.^3)      1039.2298
 PW_GRID| Grid span                                                    FULLSPACE

 PW_GRID| Information for grid number                                          5
 PW_GRID| Number of the reference grid                                         1
 PW_GRID| Cutoff [a.u.]                                                      4.9
 PW_GRID| spherical cutoff:                                                   NO
 PW_GRID|   Bounds   1             -6       5                Points:          12
 PW_GRID|   Bounds   2             -6       5                Points:          12
 PW_GRID|   Bounds   3             -6       5                Points:          12
 PW_GRID| Volume element (a.u.^3)  0.6014         Volume (a.u.^3)      1039.2298
 PW_GRID| Grid span                                                    FULLSPACE

 POISSON| Solver                                                        PERIODIC
 POISSON| Periodicity                                                        XYZ

 RS_GRID| Information for grid number                                          1
 RS_GRID|   Bounds   1            -48      47                Points:          96
 RS_GRID|   Bounds   2            -48      47                Points:          96
 RS_GRID|   Bounds   3            -48      47                Points:          96

 RS_GRID| Information for grid number                                          2
 RS_GRID|   Bounds   1            -27      26                Points:          54
 RS_GRID|   Bounds   2            -27      26                Points:          54
 RS_GRID|   Bounds   3            -27      26                Points:          54

 RS_GRID| Information for grid number                                          3
 RS_GRID|   Bounds   1            -16      15                Points:          32
 RS_GRID|   Bounds   2            -16      15                Points:          32
 RS_GRID|   Bounds   3            -16      15                Points:          32

 RS_GRID| Information for grid number                                          4
 RS_GRID|   Bounds   1             -9       8                Points:          18
 RS_GRID|   Bounds   2             -9       8                Points:          18
 RS_GRID|   Bounds   3             -9       8                Points:          18

 RS_GRID| Information for grid number                                          5
 RS_GRID|   Bounds   1             -6       5                Points:          12
 RS_GRID|   Bounds   2             -6       5                Points:          12
 RS_GRID|   Bounds   3             -6       5                Points:          12

 *******************************************************************************
                                    Kpoints
 *******************************************************************************
 BRILLOUIN| K-point scheme                                        Monkhorst-Pack
 BRILLOUIN| K-Point grid                                             4    4    4
 BRILLOUIN| Gamma-centered k-point mesh                                     ON
 BRILLOUIN| K-point symmetry accuracy                               0.100000E-07
 BRILLOUIN| K-Point point group symmetrization                                ON
 BRILLOUIN| Symmetry backend                                               K290
 BRILLOUIN| Symmetry reduction method                                      K290
 BRILLOUIN| Wavefunction type                                            COMPLEX
 BRILLOUIN| List of Kpoints [2 Pi/Bohr]                                       10
 BRILLOUIN| Number           Weight            X              Y              Z
 BRILLOUIN|     1           0.12500       -0.25000       -0.25000       -0.25000
 BRILLOUIN|     2           0.18750       -0.25000       -0.25000        0.00000
 BRILLOUIN|     3           0.18750       -0.25000       -0.25000        0.50000
 BRILLOUIN|     4           0.09375       -0.25000        0.00000        0.00000
 BRILLOUIN|     5           0.18750       -0.25000        0.00000        0.50000
 BRILLOUIN|     6           0.09375       -0.25000        0.50000        0.50000
 BRILLOUIN|     7           0.01562        0.00000        0.00000        0.00000
 BRILLOUIN|     8           0.04688        0.00000        0.00000        0.50000
 BRILLOUIN|     9           0.04688        0.00000        0.50000        0.50000
 BRILLOUIN|    10           0.01562        0.50000        0.50000        0.50000
 *******************************************************************************

 Extrapolation method: initial_guess

 Atomic guess: The first density matrix is obtained in terms of atomic orbitals
               and electronic configurations assigned to each atomic kind

 Guess for atomic kind: Si

 Electronic structure
    Total number of core electrons                                         10.00
    Total number of valence electrons                                       4.00
    Total number of electrons                                              14.00
    Multiplicity                                                   not specified
    S   [  2.00  2.00] 2.00
    P   [  6.00] 2.00


 *******************************************************************************
                  Iteration          Convergence                     Energy [au]
 *******************************************************************************
                          1        0.543323E-01                  -3.660143219958
                          2        0.234047E-01                  -3.663009798780
                          3        0.226205E-03                  -3.663777572878
                          4        0.558056E-06                  -3.663777636937

 Energy components [Hartree]           Total Energy ::           -3.663777636937
                                        Band Energy ::           -0.984334993298
                                     Kinetic Energy ::            1.376908294426
                                   Potential Energy ::           -5.040685931362
                                      Virial (-V/T) ::            3.660872660706
                                        Core Energy ::           -5.661357165131
                                          XC Energy ::           -0.978185127227
                                     Coulomb Energy ::            2.975764655422
                       Total Pseudopotential Energy ::           -7.083968923771
                       Local Pseudopotential Energy ::           -7.928832139320
                    Nonlocal Pseudopotential Energy ::            0.844863215548
                                        Confinement ::            0.457034642149

 Orbital energies  State     L     Occupation   Energy[a.u.]          Energy[eV]

                       1     0          2.000      -0.369997          -10.068127

                       1     1          2.000      -0.122171           -3.324432


 Total Electron Density at R=0:                                         0.000005
 Re-scaling the density matrix to get the right number of electrons
                  # Electrons              Trace(P)               Scaling factor
                           32                32.000                        1.000

 Number of electrons:                                                         32
 Number of occupied orbitals:                                                 16
 Number of molecular orbitals:                                                16

 Number of orbital functions:                                                232
 Number of independent orbital functions:                                    232


 SCF WAVEFUNCTION OPTIMIZATION

  Step     Update method      Time    Convergence         Total energy    Change
  ------------------------------------------------------------------------------

 *** WARNING in qs_ks_methods.F:773 :: Native SKALA grid evaluation with   ***
 *** k-points is using the CPU TorchScript path. Use a mutually compatible ***
 *** BLAS, ScaLAPACK, OpenMP, and LibTorch runtime stack, or select        ***
 *** NATIVE_GRID_USE_CUDA T.                                               ***

 SKALA_GPW| Atom-composite cross support/maxima   0.000000000000E+00   0.000000000000E+00   0.000000000000E+00   0.000000000000E+00
 SKALA_GPW| Active atom-composite XC energy  -9.3670697586350364E+00
 SKALA_GPW| Active atom-composite electrons   3.2049238343237072E+01
 SKALA_GPW| Active atom-composite density range   2.0676937217356064E-03   3.3667104731678367E-02
 SKALA_GPW| Active atom-composite tau range   1.0270871396282494E-03   2.8699804137295316E-02
 SKALA_GPW| Active atom-composite tau integral   1.1033074130285405E+01
 SKALA_GPW| Active atom-composite max gradient   4.0748481760304295E-02
     1 P_Mix/Diag. 0.10E+00   68.2     0.35298448       -32.1385886326 -3.21E+01
 SKALA_GPW| Atom-composite cross support/maxima   0.000000000000E+00   0.000000000000E+00   0.000000000000E+00   0.000000000000E+00
 SKALA_GPW| Active atom-composite XC energy  -9.3963662864051649E+00
 SKALA_GPW| Active atom-composite electrons   3.2047998029117053E+01
 SKALA_GPW| Active atom-composite density range   1.8825917209747804E-03   3.4714280638703646E-02
 SKALA_GPW| Active atom-composite tau range   1.0073201898609019E-03   2.9267102674622483E-02
 SKALA_GPW| Active atom-composite tau integral   1.1263805282994264E+01
 SKALA_GPW| Active atom-composite max gradient   4.0901414909907709E-02
     2 P_Mix/Diag. 0.10E+00   51.3     0.34721369       -32.0779869883  6.06E-02
 SKALA_GPW| Atom-composite cross support/maxima   0.000000000000E+00   0.000000000000E+00   0.000000000000E+00   0.000000000000E+00
 SKALA_GPW| Active atom-composite XC energy  -9.4304282442134806E+00
 SKALA_GPW| Active atom-composite electrons   3.2046860846496642E+01
 SKALA_GPW| Active atom-composite density range   1.7154022843668755E-03   3.5803920896578127E-02
 SKALA_GPW| Active atom-composite tau range   9.8799665976546567E-04   2.9809593757645202E-02
 SKALA_GPW| Active atom-composite tau integral   1.1477366678693162E+01
 SKALA_GPW| Active atom-composite max gradient   4.0988951857821317E-02
     3 P_Mix/Diag. 0.10E+00   52.9     0.33292169       -32.0283778541  4.96E-02
 SKALA_GPW| Atom-composite cross support/maxima   0.000000000000E+00   0.000000000000E+00   0.000000000000E+00   0.000000000000E+00
 SKALA_GPW| Active atom-composite XC energy  -9.4669454864286564E+00
 SKALA_GPW| Active atom-composite electrons   3.2045831041346815E+01
 SKALA_GPW| Active atom-composite density range   1.5652136490170803E-03   3.6899601138181803E-02
 SKALA_GPW| Active atom-composite tau range   9.6972683517493330E-04   3.0330692698081717E-02
 SKALA_GPW| Active atom-composite tau integral   1.1673894580831153E+01
 SKALA_GPW| Active atom-composite max gradient   4.1026549794456621E-02
     4 P_Mix/Diag. 0.10E+00   54.0     0.31448108       -31.9869507624  4.14E-02
 SKALA_GPW| Atom-composite cross support/maxima   0.000000000000E+00   0.000000000000E+00   0.000000000000E+00   0.000000000000E+00
 SKALA_GPW| Active atom-composite XC energy  -9.5049139731822692E+00
 SKALA_GPW| Active atom-composite electrons   3.2044904615483830E+01
 SKALA_GPW| Active atom-composite density range   1.4318550342119682E-03   3.7953637348702725E-02
 SKALA_GPW| Active atom-composite tau range   9.5280934736249228E-04   3.0825103350428353E-02
 SKALA_GPW| Active atom-composite tau integral   1.1854395145790500E+01
 SKALA_GPW| Active atom-composite max gradient   4.1031411270855390E-02
     5 P_Mix/Diag. 0.10E+00   50.4     0.29745795       -31.9523897901  3.46E-02
 SKALA_GPW| Atom-composite cross support/maxima   0.000000000000E+00   0.000000000000E+00   0.000000000000E+00   0.000000000000E+00
 SKALA_GPW| Active atom-composite XC energy  -9.5429512152953642E+00
 SKALA_GPW| Active atom-composite electrons   3.2044080472526829E+01
 SKALA_GPW| Active atom-composite density range   1.3156903097648175E-03   3.8982680052156181E-02
 SKALA_GPW| Active atom-composite tau range   9.3753597324842215E-04   3.1300941206459945E-02
 SKALA_GPW| Active atom-composite tau integral   1.2019899674545782E+01
 SKALA_GPW| Active atom-composite max gradient   4.1010465178715816E-02
     6 P_Mix/Diag. 0.10E+00   50.0     0.28106118       -31.9231858595  2.92E-02
 SKALA_GPW| Atom-composite cross support/maxima   0.000000000000E+00   0.000000000000E+00   0.000000000000E+00   0.000000000000E+00
 SKALA_GPW| Active atom-composite XC energy  -9.5780399924466977E+00
 SKALA_GPW| Active atom-composite electrons   3.2043370069737982E+01
 SKALA_GPW| Active atom-composite density range   1.2142928487763895E-03   3.9927002976423299E-02
 SKALA_GPW| Active atom-composite tau range   9.2473799350609610E-04   3.1728517120566423E-02
 SKALA_GPW| Active atom-composite tau integral   1.2167502229897455E+01
 SKALA_GPW| Active atom-composite max gradient   4.0964736653312198E-02
     7 P_Mix/Diag. 0.10E+00   53.6     0.26423481       -31.8972334577  2.60E-02
 SKALA_GPW| Atom-composite cross support/maxima   0.000000000000E+00   0.000000000000E+00   0.000000000000E+00   0.000000000000E+00
 SKALA_GPW| Active atom-composite XC energy  -9.6082105017183661E+00
 SKALA_GPW| Active atom-composite electrons   3.2042778413946614E+01
 SKALA_GPW| Active atom-composite density range   1.1236049304373414E-03   4.0745021940886951E-02
 SKALA_GPW| Active atom-composite tau range   9.1494769680399183E-04   3.2086014908871703E-02
 SKALA_GPW| Active atom-composite tau integral   1.2294621797140445E+01
 SKALA_GPW| Active atom-composite max gradient   4.0939295198954867E-02
     8 P_Mix/Diag. 0.10E+00   52.3     0.24689872       -31.8733817193  2.39E-02
 SKALA_GPW| Atom-composite cross support/maxima   0.000000000000E+00   0.000000000000E+00   0.000000000000E+00   0.000000000000E+00
 SKALA_GPW| Active atom-composite XC energy  -9.6334146558762193E+00
 SKALA_GPW| Active atom-composite electrons   3.2042293009150868E+01
 SKALA_GPW| Active atom-composite density range   1.0409128994080601E-03   4.1445478209853205E-02
 SKALA_GPW| Active atom-composite tau range   9.0792889692481720E-04   3.2369495596556511E-02
 SKALA_GPW| Active atom-composite tau integral   1.2402355966310225E+01
 SKALA_GPW| Active atom-composite max gradient   4.0897556327156782E-02
     9 P_Mix/Diag. 0.10E+00   53.9     0.22903747       -31.8513129669  2.21E-02
 SKALA_GPW| Atom-composite cross support/maxima   0.000000000000E+00   0.000000000000E+00   0.000000000000E+00   0.000000000000E+00
 SKALA_GPW| Active atom-composite XC energy  -9.6542053093513740E+00
 SKALA_GPW| Active atom-composite electrons   3.2041895361398034E+01
 SKALA_GPW| Active atom-composite density range   9.6458030428728887E-04   4.2034793166535425E-02
 SKALA_GPW| Active atom-composite tau range   9.0317549993757234E-04   3.2579429886064798E-02
 SKALA_GPW| Active atom-composite tau integral   1.2493175353427453E+01
 SKALA_GPW| Active atom-composite max gradient   4.0840624878642151E-02
    10 P_Mix/Diag. 0.10E+00   54.1     0.21123221       -31.8308628706  2.05E-02
 SKALA_GPW| Atom-composite cross support/maxima   0.000000000000E+00   0.000000000000E+00   0.000000000000E+00   0.000000000000E+00
 SKALA_GPW| Active atom-composite XC energy  -9.6711528532592261E+00
 SKALA_GPW| Active atom-composite electrons   3.2041568724530705E+01
 SKALA_GPW| Active atom-composite density range   8.9316704608285275E-04   4.2548445063287338E-02
 SKALA_GPW| Active atom-composite tau range   9.0023572557128544E-04   3.2723161196100081E-02
 SKALA_GPW| Active atom-composite tau integral   1.2569248261956380E+01
 SKALA_GPW| Active atom-composite max gradient   4.0773007162391968E-02
    11 P_Mix/Diag. 0.10E+00   54.9     0.19427807       -31.8119073333  1.90E-02
 SKALA_GPW| Atom-composite cross support/maxima   0.000000000000E+00   0.000000000000E+00   0.000000000000E+00   0.000000000000E+00
 SKALA_GPW| Active atom-composite XC energy  -9.6848226916100320E+00
 SKALA_GPW| Active atom-composite electrons   3.2041299320808079E+01
 SKALA_GPW| Active atom-composite density range   8.2551905313288680E-04   4.2981239211164909E-02
 SKALA_GPW| Active atom-composite tau range   8.9872900915924055E-04   3.2807110731139719E-02
 SKALA_GPW| Active atom-composite tau integral   1.2632440712085804E+01
 SKALA_GPW| Active atom-composite max gradient   4.0696910080308527E-02
    12 P_Mix/Diag. 0.10E+00   52.5     0.17852618       -31.7943661495  1.75E-02
 SKALA_GPW| Atom-composite cross support/maxima   0.000000000000E+00   0.000000000000E+00   0.000000000000E+00   0.000000000000E+00
 SKALA_GPW| Active atom-composite XC energy  -9.6957694062912267E+00
 SKALA_GPW| Active atom-composite electrons   3.2041075859958717E+01
 SKALA_GPW| Active atom-composite density range   7.6095233870892068E-04   4.3340548951660778E-02
 SKALA_GPW| Active atom-composite tau range   8.9833484297315892E-04   3.2838417698775997E-02
 SKALA_GPW| Active atom-composite tau integral   1.2684452340206674E+01
 SKALA_GPW| Active atom-composite max gradient   4.0613506175227132E-02
    13 P_Mix/Diag. 0.10E+00   52.2     0.16394898       -31.7781907459  1.62E-02
 SKALA_GPW| Atom-composite cross support/maxima   0.000000000000E+00   0.000000000000E+00   0.000000000000E+00   0.000000000000E+00
 SKALA_GPW| Active atom-composite XC energy  -9.7044703125626217E+00
 SKALA_GPW| Active atom-composite electrons   3.2040889431752461E+01
 SKALA_GPW| Active atom-composite density range   6.9922540915815499E-04   4.3637287655523709E-02
 SKALA_GPW| Active atom-composite tau range   8.9879343106370757E-04   3.2827672465153945E-02
 SKALA_GPW| Active atom-composite tau integral   1.2726816662998862E+01
 SKALA_GPW| Active atom-composite max gradient   4.0523780980181855E-02
    14 P_Mix/Diag. 0.10E+00   55.6     0.15042989       -31.7633185624  1.49E-02
 SKALA_GPW| Atom-composite cross support/maxima   0.000000000000E+00   0.000000000000E+00   0.000000000000E+00   0.000000000000E+00
 SKALA_GPW| Active atom-composite XC energy  -9.7112898133407484E+00
 SKALA_GPW| Active atom-composite electrons   3.2040733607985764E+01
 SKALA_GPW| Active atom-composite density range   6.4020502767642238E-04   4.3885797844129000E-02
 SKALA_GPW| Active atom-composite tau range   8.9991972384184703E-04   3.2778505885217565E-02
 SKALA_GPW| Active atom-composite tau integral   1.2760697126629612E+01
 SKALA_GPW| Active atom-composite max gradient   4.0428033292703530E-02
    15 P_Mix/Diag. 0.10E+00   57.6     0.13785045       -31.7496797951  1.36E-02
 SKALA_GPW| Atom-composite cross support/maxima   0.000000000000E+00   0.000000000000E+00   0.000000000000E+00   0.000000000000E+00
 SKALA_GPW| Active atom-composite XC energy  -9.7165771853240130E+00
 SKALA_GPW| Active atom-composite electrons   3.2040603277648728E+01
 SKALA_GPW| Active atom-composite density range   5.8403576780959813E-04   4.4096492733781023E-02
 SKALA_GPW| Active atom-composite tau range   9.0155544499279658E-04   3.2695710342631593E-02
 SKALA_GPW| Active atom-composite tau integral   1.2787193990727438E+01
 SKALA_GPW| Active atom-composite max gradient   4.0326796685193289E-02
    16 P_Mix/Diag. 0.10E+00   53.2     0.12613041       -31.7372269988  1.25E-02
 SKALA_GPW| Atom-composite cross support/maxima   0.000000000000E+00   0.000000000000E+00   0.000000000000E+00   0.000000000000E+00
 SKALA_GPW| Active atom-composite XC energy  -9.7206934813270287E+00
 SKALA_GPW| Active atom-composite electrons   3.2040493834245524E+01
 SKALA_GPW| Active atom-composite density range   5.3117994704704062E-04   4.4266951795911565E-02
 SKALA_GPW| Active atom-composite tau range   9.0353753600943491E-04   3.2588026116064948E-02
 SKALA_GPW| Active atom-composite tau integral   1.2807606650745743E+01
 SKALA_GPW| Active atom-composite max gradient   4.0221884076247175E-02
    17 P_Mix/Diag. 0.10E+00   58.0     0.12336332       -31.7259187363  1.13E-02
 SKALA_GPW| Atom-composite cross support/maxima   0.000000000000E+00   0.000000000000E+00   0.000000000000E+00   0.000000000000E+00
 SKALA_GPW| Active atom-composite XC energy  -9.7239558224415656E+00
 SKALA_GPW| Active atom-composite electrons   3.2040401247187923E+01
 SKALA_GPW| Active atom-composite density range   4.8208954918029103E-04   4.4405648639612480E-02
 SKALA_GPW| Active atom-composite tau range   9.0571344455301847E-04   3.2465214801187331E-02
 SKALA_GPW| Active atom-composite tau integral   1.2823297605257766E+01
 SKALA_GPW| Active atom-composite max gradient   4.0116055432011230E-02
    18 P_Mix/Diag. 0.10E+00   50.1     0.12185219       -31.7156958937  1.02E-02
 SKALA_GPW| Atom-composite cross support/maxima   0.000000000000E+00   0.000000000000E+00   0.000000000000E+00   0.000000000000E+00
 SKALA_GPW| Active atom-composite XC energy  -9.7266017256315820E+00
 SKALA_GPW| Active atom-composite electrons   3.2040322258893916E+01
 SKALA_GPW| Active atom-composite density range   4.3698054892496354E-04   4.4521517365486034E-02
 SKALA_GPW| Active atom-composite tau range   9.0796222405883215E-04   3.2335759199428854E-02
 SKALA_GPW| Active atom-composite tau integral   1.2835460049595179E+01
 SKALA_GPW| Active atom-composite max gradient   4.0012053532117828E-02
    19 P_Mix/Diag. 0.10E+00   53.3     0.11733686       -31.7064805234  9.22E-03
 SKALA_GPW| Atom-composite cross support/maxima   0.000000000000E+00   0.000000000000E+00   0.000000000000E+00   0.000000000000E+00
 SKALA_GPW| Active atom-composite XC energy  -9.7287947617823196E+00
 SKALA_GPW| Active atom-composite electrons   3.2040254351309521E+01
 SKALA_GPW| Active atom-composite density range   3.9583056456605456E-04   4.4621248107703571E-02
 SKALA_GPW| Active atom-composite tau range   9.1019907244833703E-04   3.2205880846426879E-02
 SKALA_GPW| Active atom-composite tau integral   1.2845020107559462E+01
 SKALA_GPW| Active atom-composite max gradient   3.9912002944658076E-02
    20 P_Mix/Diag. 0.10E+00   53.0     0.11093823       -31.6981858913  8.29E-03
 SKALA_GPW| Atom-composite cross support/maxima   0.000000000000E+00   0.000000000000E+00   0.000000000000E+00   0.000000000000E+00
 SKALA_GPW| Active atom-composite XC energy  -9.7306451461591763E+00
 SKALA_GPW| Active atom-composite electrons   3.2040195592484920E+01
 SKALA_GPW| Active atom-composite density range   3.5846438608625993E-04   4.4706052193509448E-02
 SKALA_GPW| Active atom-composite tau range   9.1236925793505104E-04   3.2079658919839625E-02
 SKALA_GPW| Active atom-composite tau integral   1.2852653197175419E+01
 SKALA_GPW| Active atom-composite max gradient   3.9817286765452140E-02
    21 P_Mix/Diag. 0.10E+00   55.3     0.10354939       -31.6907252977  7.46E-03
 SKALA_GPW| Atom-composite cross support/maxima   0.000000000000E+00   0.000000000000E+00   0.000000000000E+00   0.000000000000E+00
 SKALA_GPW| Active atom-composite XC energy  -9.7322280668115528E+00
 SKALA_GPW| Active atom-composite electrons   3.2040144483768437E+01
 SKALA_GPW| Active atom-composite density range   3.2463061936542452E-04   4.4778992975621573E-02
 SKALA_GPW| Active atom-composite tau range   9.1443985196417354E-04   3.1959536604816631E-02
 SKALA_GPW| Active atom-composite tau integral   1.2858839860320789E+01
 SKALA_GPW| Active atom-composite max gradient   3.9728662752165154E-02
    22 P_Mix/Diag. 0.10E+00   65.7     0.09578776       -31.6840167688  6.71E-03
 SKALA_GPW| Atom-composite cross support/maxima   0.000000000000E+00   0.000000000000E+00   0.000000000000E+00   0.000000000000E+00
 SKALA_GPW| Active atom-composite XC energy  -9.7335963457248464E+00
 SKALA_GPW| Active atom-composite electrons   3.2040099842073730E+01
 SKALA_GPW| Active atom-composite density range   2.9405003359420567E-04   4.4842307454673394E-02
 SKALA_GPW| Active atom-composite tau range   9.1639274760718723E-04   3.1846829245275751E-02
 SKALA_GPW| Active atom-composite tau integral   1.2863921516907840E+01
 SKALA_GPW| Active atom-composite max gradient   3.9646436310395682E-02
    23 DIIS/Diag.  0.20E-03   52.3     0.09229080       -31.6779849238  6.03E-03
 SKALA_GPW| Atom-composite cross support/maxima   0.000000000000E+00   0.000000000000E+00   0.000000000000E+00   0.000000000000E+00
 SKALA_GPW| Active atom-composite XC energy  -9.7448507289230157E+00
 SKALA_GPW| Active atom-composite electrons   3.2039734193425780E+01
 SKALA_GPW| Active atom-composite density range   1.6178918905567187E-05   4.5424482181458670E-02
 SKALA_GPW| Active atom-composite tau range   9.3634447768280301E-04   3.0724120039190058E-02
 SKALA_GPW| Active atom-composite tau integral   1.2897962008067015E+01
 SKALA_GPW| Active atom-composite max gradient   3.8845129707384962E-02
    24 DIIS/Diag.  0.83E-03   53.1     0.00056984       -31.6239924905  5.40E-02
 SKALA_GPW| Atom-composite cross support/maxima   0.000000000000E+00   0.000000000000E+00   0.000000000000E+00   0.000000000000E+00
 SKALA_GPW| Active atom-composite XC energy  -9.7450203033512501E+00
 SKALA_GPW| Active atom-composite electrons   3.2039729043986483E+01
 SKALA_GPW| Active atom-composite density range   1.6389712048489746E-05   4.5428136001450951E-02
 SKALA_GPW| Active atom-composite tau range   9.3598090958604851E-04   3.0734974822957190E-02
 SKALA_GPW| Active atom-composite tau integral   1.2899206573441312E+01
 SKALA_GPW| Active atom-composite max gradient   3.8852747668985256E-02
    25 DIIS/Diag.  0.12E-02   55.2     0.00020299       -31.6239869054  5.59E-06
 SKALA_GPW| Atom-composite cross support/maxima   0.000000000000E+00   0.000000000000E+00   0.000000000000E+00   0.000000000000E+00
 SKALA_GPW| Active atom-composite XC energy  -9.7450897660633160E+00
 SKALA_GPW| Active atom-composite electrons   3.2039726849653064E+01
 SKALA_GPW| Active atom-composite density range   1.6462797988365673E-05   4.5429548919095654E-02
 SKALA_GPW| Active atom-composite tau range   9.3583812413812386E-04   3.0738789275625414E-02
 SKALA_GPW| Active atom-composite tau integral   1.2899671716679013E+01
 SKALA_GPW| Active atom-composite max gradient   3.8855513744841613E-02
    26 DIIS/Diag.  0.14E-02   53.7     0.00400798       -31.6239845365  2.37E-06
 SKALA_GPW| Atom-composite cross support/maxima   0.000000000000E+00   0.000000000000E+00   0.000000000000E+00   0.000000000000E+00
 SKALA_GPW| Active atom-composite XC energy  -9.7461334501112553E+00
 SKALA_GPW| Active atom-composite electrons   3.2039706416657850E+01
 SKALA_GPW| Active atom-composite density range   1.8186923134250141E-05   4.5464904342299300E-02
 SKALA_GPW| Active atom-composite tau range   9.3450871181273703E-04   3.0808257380773797E-02
 SKALA_GPW| Active atom-composite tau integral   1.2907042382428216E+01
 SKALA_GPW| Active atom-composite max gradient   3.8892856177560463E-02
    27 DIIS/Diag.  0.11E-01   57.0     0.00652376       -31.6239466051  3.79E-05
 SKALA_GPW| Atom-composite cross support/maxima   0.000000000000E+00   0.000000000000E+00   0.000000000000E+00   0.000000000000E+00
 SKALA_GPW| Active atom-composite XC energy  -9.7442402614000336E+00
 SKALA_GPW| Active atom-composite electrons   3.2039761945526799E+01
 SKALA_GPW| Active atom-composite density range   1.5628124280146064E-05   4.5421519325388765E-02
 SKALA_GPW| Active atom-composite tau range   9.3844352747778168E-04   3.0684148154003207E-02
 SKALA_GPW| Active atom-composite tau integral   1.2893029830901050E+01
 SKALA_GPW| Active atom-composite max gradient   3.8808083246183539E-02
    28 DIIS/Diag.  0.48E-04   53.9     0.00027179       -31.6240112878 -6.47E-05
 SKALA_GPW| Atom-composite cross support/maxima   0.000000000000E+00   0.000000000000E+00   0.000000000000E+00   0.000000000000E+00
 SKALA_GPW| Active atom-composite XC energy  -9.7445079529457459E+00
 SKALA_GPW| Active atom-composite electrons   3.2039757026017085E+01
 SKALA_GPW| Active atom-composite density range   1.5605720641456635E-05   4.5429453638256019E-02
 SKALA_GPW| Active atom-composite tau range   9.3830779840706766E-04   3.0687729785803610E-02
 SKALA_GPW| Active atom-composite tau integral   1.2893689463047917E+01
 SKALA_GPW| Active atom-composite max gradient   3.8809830649533757E-02
    29 DIIS/Diag.  0.26E-04   56.1     0.00009409       -31.6240115604 -2.73E-07
 SKALA_GPW| Atom-composite cross support/maxima   0.000000000000E+00   0.000000000000E+00   0.000000000000E+00   0.000000000000E+00
 SKALA_GPW| Active atom-composite XC energy  -9.7444785616173206E+00
 SKALA_GPW| Active atom-composite electrons   3.2039757931128456E+01
 SKALA_GPW| Active atom-composite density range   1.5587893624477633E-05   4.5428557048448663E-02
 SKALA_GPW| Active atom-composite tau range   9.3834203810053238E-04   3.0686463692251947E-02
 SKALA_GPW| Active atom-composite tau integral   1.2893536042488304E+01
 SKALA_GPW| Active atom-composite max gradient   3.8808903473670345E-02
    30 DIIS/Diag.  0.21E-05   52.5     0.00007089       -31.6240116812 -1.21E-07
 SKALA_GPW| Atom-composite cross support/maxima   0.000000000000E+00   0.000000000000E+00   0.000000000000E+00   0.000000000000E+00
 SKALA_GPW| Active atom-composite XC energy  -9.7444523125389004E+00
 SKALA_GPW| Active atom-composite electrons   3.2039758554627120E+01
 SKALA_GPW| Active atom-composite density range   1.5571816072824358E-05   4.5428043168272834E-02
 SKALA_GPW| Active atom-composite tau range   9.3837303088231639E-04   3.0685548220232832E-02
 SKALA_GPW| Active atom-composite tau integral   1.2893411940246938E+01
 SKALA_GPW| Active atom-composite max gradient   3.8808487411109933E-02
    31 DIIS/Diag.  0.96E-06   52.3     0.00002734       -31.6240116750  6.28E-09
 SKALA_GPW| Atom-composite cross support/maxima   0.000000000000E+00   0.000000000000E+00   0.000000000000E+00   0.000000000000E+00
 SKALA_GPW| Active atom-composite XC energy  -9.7444462372953815E+00
 SKALA_GPW| Active atom-composite electrons   3.2039758691379213E+01
 SKALA_GPW| Active atom-composite density range   1.5565191113390285E-05   4.5427712324681603E-02
 SKALA_GPW| Active atom-composite tau range   9.3837419803638315E-04   3.0684796065663225E-02
 SKALA_GPW| Active atom-composite tau integral   1.2893374377435626E+01
 SKALA_GPW| Active atom-composite max gradient   3.8808247303220376E-02
    32 DIIS/Diag.  0.55E-06   50.8     0.00003013       -31.6240116800 -5.00E-09
 SKALA_GPW| Atom-composite cross support/maxima   0.000000000000E+00   0.000000000000E+00   0.000000000000E+00   0.000000000000E+00
 SKALA_GPW| Active atom-composite XC energy  -9.7444519164130234E+00
 SKALA_GPW| Active atom-composite electrons   3.2039758606103838E+01
 SKALA_GPW| Active atom-composite density range   1.5573984645168157E-05   4.5427971590760549E-02
 SKALA_GPW| Active atom-composite tau range   9.3837089405338873E-04   3.0685372354354607E-02
 SKALA_GPW| Active atom-composite tau integral   1.2893415740778165E+01
 SKALA_GPW| Active atom-composite max gradient   3.8808463765101615E-02
    33 DIIS/Diag.  0.16E-08   55.6     0.00000285       -31.6240116817 -1.79E-09

  *** SCF run converged in    33 steps ***


  Electronic density on regular grids:        -32.0000000000       -0.0000000000
  Core density on regular grids:               31.9999999999       -0.0000000001
  Hard and soft densities (Lebedev):           -0.0000000000       -0.0000000000
  Total Rho_soft + Rho1_hard - Rho1_soft      -32.0000000000
  Total charge density (r-space):              -0.0000000001
  Total Rho_soft + Rho0_soft (g-space):        -0.0000000001

  Overlap energy of the core charge distribution:               0.00000000010527
  Self energy of the core charge distribution:                -82.06718048728062
  Core Hamiltonian energy:                                     17.75812078281068
  Hartree energy:                                              42.61038700359865
  Exchange-correlation energy:                                  0.00000000000000
  Dispersion energy:                                           -0.18088706456221

  GAPW| Exc from hard and soft atomic rho1:                    -9.74445191641302
  GAPW| local Eh = 1 center integrals:                          0.00000000000000

  Total energy:                                               -31.62401168174126

  outer SCF iter =    1 RMS gradient =   0.00E+00 energy =        -31.6240116817
  outer SCF loop converged in   1 iterations or   33 steps


 !-----------------------------------------------------------------------------!
                     Mulliken Population Analysis

 #  Atom  Element  Kind  Atomic population                           Net charge
       1     Si       1          4.002683                             -0.002683
       2     Si       1          3.999105                              0.000895
       3     Si       1          3.999105                              0.000895
       4     Si       1          3.999106                              0.000894
       5     Si       1          3.998402                              0.001598
       6     Si       1          4.000236                             -0.000236
       7     Si       1          4.000536                             -0.000536
       8     Si       1          4.000827                             -0.000827
 # Total charge                             32.000000                 -0.000000

 !-----------------------------------------------------------------------------!

 !-----------------------------------------------------------------------------!
                           Hirshfeld Charges

  #Atom  Element  Kind  Ref Charge     Population                    Net charge
      1       Si     1       4.000          4.000                        -0.000
      2       Si     1       4.000          4.000                         0.000
      3       Si     1       4.000          4.000                         0.000
      4       Si     1       4.000          4.000                         0.000
      5       Si     1       4.000          4.000                         0.000
      6       Si     1       4.000          4.000                        -0.000
      7       Si     1       4.000          4.000                        -0.000
      8       Si     1       4.000          4.000                        -0.000

  Total Charge                                                           -0.000
 !-----------------------------------------------------------------------------!

 ENERGY| Total FORCE_EVAL ( QS ) energy [hartree]            -31.624011681741262

 -------------------------------------------------------------------------------
 -                                                                             -
 -                                DBCSR STATISTICS                             -
 -                                                                             -
 -------------------------------------------------------------------------------
 COUNTER                                    TOTAL       BLAS       SMM       ACC
 flops inhomo. stacks                           0       0.0%      0.0%      0.0%
 flops total                         0.000000E+00       0.0%      0.0%      0.0%
 flops max/rank                      0.000000E+00       0.0%      0.0%      0.0%
 matmuls inhomo. stacks                         0       0.0%      0.0%      0.0%
 matmuls total                                  0       0.0%      0.0%      0.0%
 number of processed stacks                     0       0.0%      0.0%      0.0%
 average stack size                                     0.0       0.0       0.0
 marketing flops                     0.000000E+00
 -------------------------------------------------------------------------------
 -                                                                             -
 -                      DBCSR MESSAGE PASSING PERFORMANCE                      -
 -                                                                             -
 -------------------------------------------------------------------------------
 ROUTINE             CALLS      AVE VOLUME [Bytes]
 MP_Bcast                1                     12.
 MP_Allreduce           19                     21.
 MP_Alltoall         34480                 279354.
 -------------------------------------------------------------------------------

 -------------------------------------------------------------------------------
 -                                                                             -
 -                                GRID STATISTICS                              -
 -                                                                             -
 -------------------------------------------------------------------------------
 LP    KERNEL             BACKEND                              COUNT     PERCENT
 6     collocate ortho    CPU                                 767040      25.37%
 8     collocate ortho    CPU                                 767040      25.37%
 6     integrate ortho    CPU                                 744480      24.63%
 8     integrate ortho    CPU                                 744480      24.63%
 0     collocate general  CPU                                     16       0.00%
 0     integrate general  CPU                                      8       0.00%
 -------------------------------------------------------------------------------

 -------------------------------------------------------------------------------
 -                                                                             -
 -                          OFFLOAD MEMPOOL STATISTICS                         -
 -                                                                             -
 -------------------------------------------------------------------------------
 Memory consumption                Number of allocations  Used [MiB]  Size [MiB]
 Host                                                  8          90    90454029
 -------------------------------------------------------------------------------

 MEMORY| Estimated peak process memory [MiB]                                2244

 -------------------------------------------------------------------------------
 ----                             MULTIGRID INFO                            ----
 -------------------------------------------------------------------------------
 count for grid        1:              3          cutoff [a.u.]          400.00
 count for grid        2:           1623          cutoff [a.u.]          133.33
 count for grid        3:           8040          cutoff [a.u.]           44.44
 count for grid        4:          13259          cutoff [a.u.]           14.81
 count for grid        5:           6298          cutoff [a.u.]            4.94
 total gridlevel count  :          29223

 -------------------------------------------------------------------------------
 -                                                                             -
 -                         MESSAGE PASSING PERFORMANCE                         -
 -                                                                             -
 -------------------------------------------------------------------------------

 ROUTINE             CALLS      AVE VOLUME [Bytes]
 MP_Group                5
 MP_Bcast            12036                    197.
 MP_Allreduce        32487                  71906.
 MP_Sync                 5
 MP_Wait             10000
 MP_ISend            14000                  61519.
 MP_IRecv            14000                  61519.
 -------------------------------------------------------------------------------


 -------------------------------------------------------------------------------
 -                                                                             -
 -                           R E F E R E N C E S                               -
 -                                                                             -
 -------------------------------------------------------------------------------
 
 CP2K version 2026.2 (Development Version), the CP2K developers group (2026).
 CP2K is freely available from https://www.cp2k.org/ .
 
 M. Iannuzzi, J. Wilhelm, F. Stein, A. Bussy, H. Elgabarty, D. Golze, A. Hehn, 
 M. Graml, S. Marek, B. Sertcan Gökmen, C. Schran, H. Forbert, R. Z. 
 Khaliullin, A. Kozhevnikov, M. Taillefumier, R. Meli, V. V. Rybkin, M. Brehm, 
 R. Schade, O. Schütt, J. V. Pototschnig, H. Mirhosseini, A. Knüpfer, D. Marx, 
 M. Krack, J. Hutter, T. D. Kühne.
 J. Phys. Chem. B 130, 1237-1310 (2026).
 The CP2K Program Package Made Simple.
 https://doi.org/10.1021/acs.jpcb.5c05851

 L. Wittmann, I. Gordiy, M. Friede, B. Helmich-Paris, S. Grimme, A. Hansen, M. 
 Bursch.
 Phys. Chem. Chem. Phys. 26, 21379-21394 (2024).
 Extension of the D3 and D4 London dispersion corrections to the full actinides 
 series.
 https://doi.org/10.1039/d4cp01514b

 T. D. Kühne, M. Iannuzzi, M. Del Ben, V. V. Rybkin, P. Seewald, F. Stein, T. 
 Laino, R. Z. Khaliullin, O. Schütt, F. Schiffmann, D. Golze, J. Wilhelm, S. 
 Chulkov, M. H. Bani-Hashemian, V. Weber, U. Borstnik, M. Taillefumier, A. S. 
 Jakobovits, A. Lazzaro, H. Pabst, T. Müller, R. Schade, M. Guidon, S. 
 Andermatt, N. Holmberg, G. K. Schenter, A. Hehn, A. Bussy, F. Belleflamme, G. 
 Tabacchi, A. Glöß, M. Lass, I. Bethune, C. J. Mundy, C. Plessl, M. Watkins, 
 J. VandeVondele, M. Krack, J. Hutter.
 J. Chem. Phys. 152, 194103 (2020).
 CP2K: An electronic structure and molecular dynamics software package - 
 Quickstep: Efficient and accurate electronic structure calculations.
 https://doi.org/10.1063/5.0007045

 L. Goerigk, A. Hansen, C. Bauer, S. Ehrlich, A. Najibi, S. Grimme.
 Phys. Chem. Chem. Phys. 19, 32184-32215 (2017).
 A look at the density functional theory zoo with the advanced GMTKN55 database 
 for general main group thermochemistry, kinetics and noncovalent interactions.
 https://doi.org/10.1039/C7CP04913G

 O. Schuett, P. Messmer, J. Hutter, J. VandeVondele.
 Electronic Structure Calculations on Graphics Processing Units, 173-190 (2016).
 GPU-Accelerated Sparse Matrix-Matrix Multiplication for Linear Scaling Density 
 Functional Theory.
 https://doi.org/10.1002/9781118670712.ch8

 U. Borstnik, J. VandeVondele, V. Weber, J. Hutter.
 Parallel Comput. 40, 47-58 (2014).
 Sparse matrix multiplication: The distributed block-compressed sparse row 
 library.
 https://doi.org/10.1016/j.parco.2014.03.012

 S. Grimme, S. Ehrlich, L. Goerigk.
 J. Comput. Chem. 32, 1456 (2011).
 Effect of the damping function in dispersion corrected density functional 
 theory.
 https://doi.org/10.1002/jcc.21759

 S. Grimme, J. Antony, S. Ehrlich, H. Krieg.
 J. Chem. Phys. 132, 154104 (2010).
 A consistent and accurate ab initio parametrization of density functional 
 dispersion correction (DFT-D) for the 94 elements H-Pu.
 https://doi.org/10.1063/1.3382344

 J. VandeVondele, J. Hutter.
 J. Chem. Phys. 127, 114105 (2007).
 Gaussian basis sets for accurate calculations on molecular systems in gas and 
 condensed phases.
 https://doi.org/10.1063/1.2770708

 M. Krack.
 Theor. Chem. Acc. 114, 145-152 (2005).
 Pseudopotentials for H to Kr optimized for gradient-corrected 
 exchange-correlation functionals.
 https://doi.org/10.1007/s00214-005-0655-y

 M. Frigo, S. G. Johnson.
 Proc. IEEE 93, 216-231 (2005).
 The design and implementation of FFTW3.
 https://doi.org/10.1109/JPROC.2004.840301

 M. Krack, M. Parrinello.
 Phys. Chem. Chem. Phys. 2, 2105-2112 (2000).
 All-electron ab-initio molecular dynamics.
 https://doi.org/10.1039/b001167n

 G. Lippert, J. Hutter, M. Parrinello.
 Theor. Chem. Acc. 103, 124-140 (1999).
 The Gaussian and augmented-plane-wave density functional method for ab initio 
 molecular dynamics simulations.
 https://doi.org/10.1007/s002140050523

 C. Hartwigsen, S. Goedecker, J. Hutter.
 Phys. Rev. B 58, 3641-3662 (1998).
 Relativistic separable dual-space Gaussian pseudopotentials from H to Rn.
 https://doi.org/10.1103/PhysRevB.58.3641

 S. Goedecker, M. Teter, J. Hutter.
 Phys. Rev. B 54, 1703-1710 (1996).
 Separable dual-space Gaussian pseudopotentials.
 https://doi.org/10.1103/PhysRevB.54.1703

 C.-L. Fu, K.-M. Ho.
 Phys. Rev. B 28, 5480-5486 (1983).
 First-principles calculation of the equilibrium ground-state properties of 
 transition metals: Applications to Nb and Mo.
 https://doi.org/10.1103/PhysRevB.28.5480

 T. G. Worlton, J. L. Warren.
 Comput. Phys. Commun. 3, 88-117 (1972).
 Group-theoretical analysis of lattice vibrations.
 https://doi.org/10.1016/0010-4655(72)90058-6


 -------------------------------------------------------------------------------
 -                                                                             -
 -                                T I M I N G                                  -
 -                                                                             -
 -------------------------------------------------------------------------------
 SUBROUTINE                       CALLS  ASD         SELF TIME        TOTAL TIME
                                MAXIMUM       AVERAGE  MAXIMUM  AVERAGE  MAXIMUM
 CP2K                                 1  1.0    0.011    0.011 1800.674 1800.674
 qs_energies                          1  2.0    0.001    0.001 1800.372 1800.372
 scf_env_do_scf                       1  3.0    0.000    0.000 1797.257 1797.257
 scf_env_do_scf_inner_loop           33  4.0    0.012    0.012 1797.257 1797.257
 qs_ks_update_qs_env                 33  5.0    0.001    0.001 1702.821 1702.821
 rebuild_ks_matrix                   33  6.0    0.000    0.000 1701.627 1701.627
 qs_ks_build_kohn_sham_matrix        33  7.0    0.021    0.021 1701.627 1701.627
 calculate_vxc_atom                  33  8.0  511.210  511.210 1672.668 1672.668
 skala_atom_torch_backward           99  9.0  688.410  688.410  688.410  688.410
 skala_atom_torch_forward            99  9.0    0.121    0.121  466.267  466.267
 torch_model_forward_mol_tensor      99 10.0  466.146  466.146  466.146  466.146
 qs_scf_new_mos_kp                   33  5.0    0.001    0.001   74.343   74.343
 do_general_diag_kp                  33  6.0    0.052    0.052   74.343   74.343
 kpoint_density_transform            33  7.0    0.029    0.029   50.160   50.160
 -------------------------------------------------------------------------------

 The number of warnings for this run is : 2
 
 -------------------------------------------------------------------------------
  **** **** ******  **  PROGRAM ENDED AT                 2026-08-31 23:03:13.231
 ***** ** ***  *** **   PROGRAM RAN ON                                     terok
 **    ****   ******    PROGRAM RAN BY                                  kuehne88
 ***** **    ** ** **   PROGRAM PROCESS ID                                454817
  **** **  *******  **  PROGRAM STOPPED IN /home/kuehne88/work/native-skala-tero
                                           k/goldzak12/runs/production/hybrid-di
                                           rect/Si/v04
