 DBCSR| CPU Multiplication driver                                           XSMM (U)
 DBCSR| Multrec recursion limit                                              512 (U)
 DBCSR| Multiplication stack size                                           1000 (D)
 DBCSR| Maximum elements for images                                    UNLIMITED (U)
 DBCSR| Multiplicative factor virtual images                                   1 (U)
 DBCSR| Use multiplication densification                                       T (D)
 DBCSR| Multiplication size stacks                                             3 (U)
 DBCSR| Use memory pool for CPU allocation                                     F (U)
 DBCSR| Number of 3D layers                                               SINGLE (U)
 DBCSR| Use MPI memory allocation                                              F (U)
 DBCSR| Use RMA algorithm                                                      F (U)
 DBCSR| Use Communication thread                                               T (U)
 DBCSR| Communication thread load                                             15 (D)
 DBCSR| MPI: My process id                                                     0
 DBCSR| MPI: Number of processes                                               1
 DBCSR| OMP: Current number of threads                                        20
 DBCSR| OMP: Max number of threads                                            20
 DBCSR| Split modifier for TAS multiplication algorithm                  1.0E+00 (U)


  **** **** ******  **  PROGRAM STARTED AT               2026-09-03 03:05:42.709
 ***** ** ***  *** **   PROGRAM STARTED ON                            spark-c86c
 **    ****   ******    PROGRAM STARTED BY                              kuehne88
 ***** **    ** ** **   PROGRAM PROCESS ID                                751981
  **** **  *******  **  PROGRAM STARTED IN /home/kuehne88/work/native-skala-spar
                                           k/goldzak12/runs/production-ot-invers
                                           ion-adjacent-v08-p25-20260903/product
                                           ion/hybrid-direct/AlP/v08

 CP2K| version string:                 CP2K version 2026.2 (Development Version)
 CP2K| source code revision number:                                   246ece5193
 CP2K| cp2kflags: omp parallel scalapack spglib openblas libtorch libtorch_cuda 
 CP2K| is freely available from                            https://www.cp2k.org/
 CP2K| Program compiled at                                   2026-09-02 16:08:48
 CP2K| Program compiled on                                            spark-c86c
 CP2K| Program compiled for                                              aarch64
 CP2K| Data directory path      /home/kuehne88/work/native-skala-spark/cp2k/data
 CP2K| Input file name                                          actual-input.inp

 GLOBAL| Force Environment number                                              1
 GLOBAL| Basis set file name                             BASIS_MOLOPT_UZH_2026.2
 GLOBAL| Potential file name                                POTENTIAL_UZH_2026.2
 GLOBAL| MM Potential file name                                     MM_POTENTIAL
 GLOBAL| Coordinate file name                                      __STD_INPUT__
 GLOBAL| Method name                                                        CP2K
 GLOBAL| Project name                   G12_AlP_hybrid-direct_v1p0555555556_k444
 GLOBAL| Run type                                                         ENERGY
 GLOBAL| FFT library                                                       FFTW3
 GLOBAL| Diagonalization library                                       ScaLAPACK
 GLOBAL| Cholesky decomposition library                                ScaLAPACK
 GLOBAL| DGEMM library                                                      BLAS
 GLOBAL| Direct generalized diagonalization requested                          F
 GLOBAL| Orthonormality check for eigenvectors                          DISABLED
 GLOBAL| Matrix multiplication library                                 ScaLAPACK
 GLOBAL| All-to-all communication in single precision                          F
 GLOBAL| FFTs using library dependent lengths                                  F
 GLOBAL| Grid backend                                                       AUTO
 GLOBAL| Global print level                                               MEDIUM
 GLOBAL| MPI I/O enabled                                                       T
 GLOBAL| Total number of message passing processes                             1
 GLOBAL| Number of distributed systems (nodes)                                 1
 GLOBAL| Number of threads for this process                                   20
 GLOBAL| This output is from process                                           0
 GLOBAL| OpenMP stack size per thread (OMP_STACKSIZE)                       512M
 GLOBAL| CPU model name                                                  UNKNOWN
 GLOBAL| CPUID                                                              2000

 MEMORY| system memory details [Kb]
 MEMORY|                        rank 0           min           max       average
 MEMORY| MemTotal            125507828     125507828     125507828     125507828
 MEMORY| MemFree              14947416      14947416      14947416      14947416
 MEMORY| Buffers               4143640       4143640       4143640       4143640
 MEMORY| Cached               95920420      95920420      95920420      95920420
 MEMORY| Slab                  8142276       8142276       8142276       8142276
 MEMORY| SReclaimable          7041724       7041724       7041724       7041724
 MEMORY| MemLikelyFree       122053200     122053200     122053200     122053200


 *** WARNING in environment.F:1107 :: FFT library FFTW3 is not available. ***
 *** Trying FFT library FFTSG.                                            ***


 *** Fundamental physical constants (SI units) ***

 *** Literature: B. J. Mohr and B. N. Taylor,
 ***             CODATA recommended values of the fundamental physical
 ***             constants: 2006, Web Version 5.1
 ***             http://physics.nist.gov/constants

 Speed of light in vacuum [m/s]                             2.99792458000000E+08
 Magnetic constant or permeability of vacuum [N/A**2]       1.25663706143592E-06
 Electric constant or permittivity of vacuum [F/m]          8.85418781762039E-12
 Planck constant (h) [J*s]                                  6.62606896000000E-34
 Planck constant (h-bar) [J*s]                              1.05457162825177E-34
 Elementary charge [C]                                      1.60217648700000E-19
 Electron mass [kg]                                         9.10938215000000E-31
 Electron g factor [ ]                                     -2.00231930436220E+00
 Proton mass [kg]                                           1.67262163700000E-27
 Fine-structure constant                                    7.29735253760000E-03
 Rydberg constant [1/m]                                     1.09737315685270E+07
 Avogadro constant [1/mol]                                  6.02214179000000E+23
 Boltzmann constant [J/K]                                   1.38065040000000E-23
 Atomic mass unit [kg]                                      1.66053878200000E-27
 Bohr radius [m]                                            5.29177208590000E-11

 *** Conversion factors ***

 [u] -> [a.u.]                                              1.82288848426455E+03
 [Angstrom] -> [Bohr] = [a.u.]                              1.88972613288564E+00
 [a.u.] = [Bohr] -> [Angstrom]                              5.29177208590000E-01
 [a.u.] -> [s]                                              2.41888432650478E-17
 [a.u.] -> [fs]                                             2.41888432650478E-02
 [a.u.] -> [J]                                              4.35974393937059E-18
 [a.u.] -> [N]                                              8.23872205491840E-08
 [a.u.] -> [K]                                              3.15774647902944E+05
 [a.u.] -> [kJ/mol]                                         2.62549961709828E+03
 [a.u.] -> [kcal/mol]                                       6.27509468713739E+02
 [a.u.] -> [Pa]                                             2.94210107994716E+13
 [a.u.] -> [bar]                                            2.94210107994716E+08
 [a.u.] -> [atm]                                            2.90362800883016E+08
 [a.u.] -> [eV]                                             2.72113838565563E+01
 [a.u.] -> [Hz]                                             6.57968392072181E+15
 [a.u.] -> [1/cm] (wave numbers)                            2.19474631370540E+05
 [a.u./Bohr**2] -> [1/cm]                                   5.14048714338585E+03
 

 CELL| Volume [angstrom^3]:                                           170.683835
 CELL| Vector a [angstrom]:       5.547     0.000     0.000   |a| =     5.547076
 CELL| Vector b [angstrom]:       0.000     5.547     0.000   |b| =     5.547076
 CELL| Vector c [angstrom]:       0.000     0.000     5.547   |c| =     5.547076
 CELL| Angle (b,c), alpha [degree]:                                    90.000000
 CELL| Angle (a,c), beta  [degree]:                                    90.000000
 CELL| Angle (a,b), gamma [degree]:                                    90.000000
 CELL| Numerically orthorhombic:                                             YES
 CELL| Periodicity                                                           XYZ

 CELL_REF| Volume [angstrom^3]:                                       170.683835
 CELL_REF| Vector a [angstrom     5.547     0.000     0.000   |a| =     5.547076
 CELL_REF| Vector b [angstrom     0.000     5.547     0.000   |b| =     5.547076
 CELL_REF| Vector c [angstrom     0.000     0.000     5.547   |c| =     5.547076
 CELL_REF| Angle (b,c), alpha [degree]:                                90.000000
 CELL_REF| Angle (a,c), beta  [degree]:                                90.000000
 CELL_REF| Angle (a,b), gamma [degree]:                                90.000000
 CELL_REF| Numerically orthorhombic:                                         YES
 CELL_REF| Periodicity                                                       XYZ

 GENERATE|  Preliminary Number of Bonds generated:                             0
 GENERATE|  Achieved consistency in connectivity generation.

 *******************************************************************************
 *******************************************************************************
 **                                                                           **
 **     #####                         ##              ##                      **
 **    ##   ##            ##          ##              ##                      **
 **   ##     ##                       ##            ######                    **
 **   ##     ##  ##   ##  ##   #####  ##  ##   ####   ##    #####    #####    **
 **   ##     ##  ##   ##  ##  ##      ## ##   ##      ##   ##   ##  ##   ##   **
 **   ##  ## ##  ##   ##  ##  ##      ####     ###    ##   ######   ######    **
 **    ##  ###   ##   ##  ##  ##      ## ##      ##   ##   ##       ##        **
 **     #######   #####   ##   #####  ##  ##  ####    ##    #####   ##        **
 **           ##                                                    ##        **
 **                                                                           **
 **                                                ... make the atoms dance   **
 **                                                                           **
 **            Copyright (C) by CP2K developers group (2000-2026)             **
 **                      J. Chem. Phys. 152, 194103 (2020)                    **
 **                                                                           **
 *******************************************************************************

 DFT| Spin restricted Kohn-Sham (RKS) calculation                            RKS
 DFT| Multiplicity                                                             1
 DFT| Number of spin states                                                    1
 DFT| Charge                                                                   0
 DFT| Self-interaction correction (SIC)                                       NO
 DFT| Cutoffs: density                                              1.000000E-10
 DFT|          gradient                                             1.000000E-10
 DFT|          tau                                                  1.000000E-10
 DFT|          cutoff_smoothing_range                               0.000000E+00
 DFT| XC density smoothing                                                  NONE
 DFT| XC derivatives                                                          PW

 FUNCTIONAL| GAUXC:
 FUNCTIONAL| Functional computed by GauXC Skala model SKALA                     

 vdW POTENTIAL|                                                   Pair Potential
 vdW POTENTIAL|          DFT-D3 (Version 3.1)
 vdW POTENTIAL|          Potential Form: S. Grimme et al, JCP 132: 154104 (2010)
 vdW POTENTIAL|          BJ Damping: S. Grimme et al, JCC 32: 1456 (2011)
 vdW POTENTIAL|          Cutoff Radius [Bohr]:                             37.79
 vdW POTENTIAL|          s6 Scaling Factor:                               1.0000
 vdW POTENTIAL|          a1 Damping Factor:                               0.3981
 vdW POTENTIAL|          s8 Scaling Factor:                               1.9889
 vdW POTENTIAL|          a2 Damping Factor:                               4.4211
 vdW POTENTIAL|          Cutoff for CN calculation:                   0.1000E-05

 QS| Method:                                                                GAPW
 QS| Density plane wave grid type                        NON-SPHERICAL FULLSPACE
 QS| Number of grid levels:                                                    5
 QS| Density cutoff [a.u.]:                                                400.0
 QS| Multi grid cutoff [a.u.]: 1) grid level                               400.0
 QS|                           2) grid level                               133.3
 QS|                           3) grid level                                44.4
 QS|                           4) grid level                                14.8
 QS|                           5) grid level                                 4.9
 QS| Grid level progression factor:                                          3.0
 QS| Relative density cutoff [a.u.]:                                        30.0
 QS| Interaction thresholds: eps_pgf_orb:                                1.0E-06
 QS|                         eps_filter_matrix:                          0.0E+00
 QS|                         eps_core_charge:                            1.0E-14
 QS|                         eps_rho_gspace:                             1.0E-12
 QS|                         eps_rho_rspace:                             1.0E-12
 QS|                         eps_gvg_rspace:                             1.0E-06
 QS|                         eps_ppl:                                    1.0E-02
 QS|                         eps_ppnl:                                   1.0E-08
 QS| GAPW|      XC integration using accurate scheme: Ref. exponent     6.000000
 QS| GAPW|      One center basis extended with primitives (small:s)
 QS| GAPW|                   eps_fit:                                    1.0E-04
 QS| GAPW|                   eps_iso:                                    1.0E-12
 QS| GAPW|                   eps_svd:                                    1.0E-08
 QS| GAPW|                   eps_cpc:                                    1.0E-12
 QS| GAPW|   atom-r-grid: quadrature:                                     GC_LOG
 QS| GAPW|      atom-s-grid:  max l :                                          6
 QS| GAPW|      max_l_rho0 :                                                   4
 QS| GAPW|      At least one kind is NOT PAW, i.e. it has only soft AO 
 QS| GAPW|      The NOT PAW atoms are treated fully GPW


 ATOMIC KIND INFORMATION

  1. Atomic kind: Al                                    Number of atoms:       4

     Orbital Basis Set                                   TZV2P-MOLOPT-PBE-GTH-q3

       Number of orbital shell sets:                                           1
       Number of orbital shells:                                               9
       Number of primitive Cartesian functions:                                4
       Number of Cartesian basis functions:                                   34
       Number of spherical basis functions:                                   29
       Norm type:                                                              2

       Normalised Cartesian orbitals:

                        Set   Shell   Orbital            Exponent    Coefficient

                          1       1    2s                0.932557       0.083073
                                                         0.319866       0.005280
                                                         0.138316      -0.124729
                                                         0.047186      -0.024582

                          1       2    3s                0.932557      -1.003094
                                                         0.319866       0.522344
                                                         0.138316       0.044175
                                                         0.047186      -0.076887

                          1       3    4s                0.932557      -0.514791
                                                         0.319866      -0.029539
                                                         0.138316      -0.075728
                                                         0.047186       0.056402

                          1       4    3px               0.932557       0.068696
                                                         0.319866      -0.093391
                                                         0.138316      -0.065498
                                                         0.047186      -0.010400
                          1       4    3py               0.932557       0.068696
                                                         0.319866      -0.093391
                                                         0.138316      -0.065498
                                                         0.047186      -0.010400
                          1       4    3pz               0.932557       0.068696
                                                         0.319866      -0.093391
                                                         0.138316      -0.065498
                                                         0.047186      -0.010400

                          1       5    4px               0.932557      -0.246289
                                                         0.319866       0.398702
                                                         0.138316      -0.014422
                                                         0.047186      -0.024688
                          1       5    4py               0.932557      -0.246289
                                                         0.319866       0.398702
                                                         0.138316      -0.014422
                                                         0.047186      -0.024688
                          1       5    4pz               0.932557      -0.246289
                                                         0.319866       0.398702
                                                         0.138316      -0.014422
                                                         0.047186      -0.024688

                          1       6    5px               0.932557      -1.119223
                                                         0.319866       0.162694
                                                         0.138316      -0.115503
                                                         0.047186       0.032978
                          1       6    5py               0.932557      -1.119223
                                                         0.319866       0.162694
                                                         0.138316      -0.115503
                                                         0.047186       0.032978
                          1       6    5pz               0.932557      -1.119223
                                                         0.319866       0.162694
                                                         0.138316      -0.115503
                                                         0.047186       0.032978

                          1       7    4dx2              0.932557       0.314587
                                                         0.319866       0.129094
                                                         0.138316       0.015385
                                                         0.047186       0.000911
                          1       7    4dxy              0.932557       0.544880
                                                         0.319866       0.223598
                                                         0.138316       0.026648
                                                         0.047186       0.001577
                          1       7    4dxz              0.932557       0.544880
                                                         0.319866       0.223598
                                                         0.138316       0.026648
                                                         0.047186       0.001577
                          1       7    4dy2              0.932557       0.314587
                                                         0.319866       0.129094
                                                         0.138316       0.015385
                                                         0.047186       0.000911
                          1       7    4dyz              0.932557       0.544880
                                                         0.319866       0.223598
                                                         0.138316       0.026648
                                                         0.047186       0.001577
                          1       7    4dz2              0.932557       0.314587
                                                         0.319866       0.129094
                                                         0.138316       0.015385
                                                         0.047186       0.000911

                          1       8    5dx2              0.932557      -1.719432
                                                         0.319866       0.207166
                                                         0.138316      -0.050169
                                                         0.047186       0.000753
                          1       8    5dxy              0.932557      -2.978144
                                                         0.319866       0.358822
                                                         0.138316      -0.086895
                                                         0.047186       0.001305
                          1       8    5dxz              0.932557      -2.978144
                                                         0.319866       0.358822
                                                         0.138316      -0.086895
                                                         0.047186       0.001305
                          1       8    5dy2              0.932557      -1.719432
                                                         0.319866       0.207166
                                                         0.138316      -0.050169
                                                         0.047186       0.000753
                          1       8    5dyz              0.932557      -2.978144
                                                         0.319866       0.358822
                                                         0.138316      -0.086895
                                                         0.047186       0.001305
                          1       8    5dz2              0.932557      -1.719432
                                                         0.319866       0.207166
                                                         0.138316      -0.050169
                                                         0.047186       0.000753

                          1       9    5fx3              0.932557       0.230253
                                                         0.319866       0.076507
                                                         0.138316       0.004727
                                                         0.047186       0.000082
                          1       9    5fx2y             0.932557       0.514860
                                                         0.319866       0.171074
                                                         0.138316       0.010571
                                                         0.047186       0.000183
                          1       9    5fx2z             0.932557       0.514860
                                                         0.319866       0.171074
                                                         0.138316       0.010571
                                                         0.047186       0.000183
                          1       9    5fxy2             0.932557       0.514860
                                                         0.319866       0.171074
                                                         0.138316       0.010571
                                                         0.047186       0.000183
                          1       9    5fxyz             0.932557       0.891765
                                                         0.319866       0.296309
                                                         0.138316       0.018310
                                                         0.047186       0.000318
                          1       9    5fxz2             0.932557       0.514860
                                                         0.319866       0.171074
                                                         0.138316       0.010571
                                                         0.047186       0.000183
                          1       9    5fy3              0.932557       0.230253
                                                         0.319866       0.076507
                                                         0.138316       0.004727
                                                         0.047186       0.000082
                          1       9    5fy2z             0.932557       0.514860
                                                         0.319866       0.171074
                                                         0.138316       0.010571
                                                         0.047186       0.000183
                          1       9    5fyz2             0.932557       0.514860
                                                         0.319866       0.171074
                                                         0.138316       0.010571
                                                         0.047186       0.000183
                          1       9    5fz3              0.932557       0.230253
                                                         0.319866       0.076507
                                                         0.138316       0.004727
                                                         0.047186       0.000082

       Atomic covalent radius [Angstrom]:                                  1.180

       Atomic van der Waals radius [Angstrom]:                             1.840

     GTH Potential information for                                    GTH-PBE-q3

       Description:                       Goedecker-Teter-Hutter pseudopotential
                                           Goedecker et al., PRB 54, 1703 (1996)
                                          Hartwigsen et al., PRB 58, 3641 (1998)
                                                      Krack, TCA 114, 145 (2005)

       Gaussian exponent of the core charge distribution:               2.469029
       Electronic configuration (s p d ...):                       2   1   0   0

       Parameters of the local part of the GTH pseudopotential:

                          rloc        C1          C2          C3          C4
                        0.450010   -7.556450

       Parameters of the non-local part of the GTH pseudopotential:

                   l      r(l)      h(i,j,l)

                   0    0.487441    6.960085   -1.888835
                                   -1.888835    2.438483
                   1    0.562274    1.865363

  2. Atomic kind: P                                     Number of atoms:       4

     Orbital Basis Set                                   TZV2P-MOLOPT-PBE-GTH-q5

       Number of orbital shell sets:                                           1
       Number of orbital shells:                                               9
       Number of primitive Cartesian functions:                                4
       Number of Cartesian basis functions:                                   34
       Number of spherical basis functions:                                   29
       Norm type:                                                              2

       Normalised Cartesian orbitals:

                        Set   Shell   Orbital            Exponent    Coefficient

                          1       1    2s                1.529974       0.330831
                                                         0.572156      -0.121865
                                                         0.221473      -0.178453
                                                         0.075885      -0.020408

                          1       2    3s                1.529974       0.353664
                                                         0.572156      -0.203423
                                                         0.221473       0.005821
                                                         0.075885       0.111796

                          1       3    4s                1.529974      -1.067157
                                                         0.572156       0.214068
                                                         0.221473      -0.177211
                                                         0.075885       0.057956

                          1       4    3px               1.529974       0.268378
                                                         0.572156      -0.381409
                                                         0.221473      -0.118831
                                                         0.075885      -0.003877
                          1       4    3py               1.529974       0.268378
                                                         0.572156      -0.381409
                                                         0.221473      -0.118831
                                                         0.075885      -0.003877
                          1       4    3pz               1.529974       0.268378
                                                         0.572156      -0.381409
                                                         0.221473      -0.118831
                                                         0.075885      -0.003877

                          1       5    4px               1.529974       0.260904
                                                         0.572156      -0.330883
                                                         0.221473       0.080611
                                                         0.075885       0.048633
                          1       5    4py               1.529974       0.260904
                                                         0.572156      -0.330883
                                                         0.221473       0.080611
                                                         0.075885       0.048633
                          1       5    4pz               1.529974       0.260904
                                                         0.572156      -0.330883
                                                         0.221473       0.080611
                                                         0.075885       0.048633

                          1       6    5px               1.529974       0.623329
                                                         0.572156       0.730611
                                                         0.221473      -0.234303
                                                         0.075885       0.056701
                          1       6    5py               1.529974       0.623329
                                                         0.572156       0.730611
                                                         0.221473      -0.234303
                                                         0.075885       0.056701
                          1       6    5pz               1.529974       0.623329
                                                         0.572156       0.730611
                                                         0.221473      -0.234303
                                                         0.075885       0.056701

                          1       7    4dx2              1.529974       0.641565
                                                         0.572156       0.349115
                                                         0.221473       0.047365
                                                         0.075885       0.000033
                          1       7    4dxy              1.529974       1.111223
                                                         0.572156       0.604685
                                                         0.221473       0.082039
                                                         0.075885       0.000058
                          1       7    4dxz              1.529974       1.111223
                                                         0.572156       0.604685
                                                         0.221473       0.082039
                                                         0.075885       0.000058
                          1       7    4dy2              1.529974       0.641565
                                                         0.572156       0.349115
                                                         0.221473       0.047365
                                                         0.075885       0.000033
                          1       7    4dyz              1.529974       1.111223
                                                         0.572156       0.604685
                                                         0.221473       0.082039
                                                         0.075885       0.000058
                          1       7    4dz2              1.529974       0.641565
                                                         0.572156       0.349115
                                                         0.221473       0.047365
                                                         0.075885       0.000033

                          1       8    5dx2              1.529974      -0.416790
                                                         0.572156       0.702038
                                                         0.221473      -0.180280
                                                         0.075885       0.002500
                          1       8    5dxy              1.529974      -0.721901
                                                         0.572156       1.215965
                                                         0.221473      -0.312254
                                                         0.075885       0.004331
                          1       8    5dxz              1.529974      -0.721901
                                                         0.572156       1.215965
                                                         0.221473      -0.312254
                                                         0.075885       0.004331
                          1       8    5dy2              1.529974      -0.416790
                                                         0.572156       0.702038
                                                         0.221473      -0.180280
                                                         0.075885       0.002500
                          1       8    5dyz              1.529974      -0.721901
                                                         0.572156       1.215965
                                                         0.221473      -0.312254
                                                         0.075885       0.004331
                          1       8    5dz2              1.529974      -0.416790
                                                         0.572156       0.702038
                                                         0.221473      -0.180280
                                                         0.075885       0.002500

                          1       9    5fx3              1.529974       0.452264
                                                         0.572156       0.259688
                                                         0.221473       0.022786
                                                         0.075885      -0.000501
                          1       9    5fx2y             1.529974       1.011293
                                                         0.572156       0.580680
                                                         0.221473       0.050951
                                                         0.075885      -0.001120
                          1       9    5fx2z             1.529974       1.011293
                                                         0.572156       0.580680
                                                         0.221473       0.050951
                                                         0.075885      -0.001120
                          1       9    5fxy2             1.529974       1.011293
                                                         0.572156       0.580680
                                                         0.221473       0.050951
                                                         0.075885      -0.001120
                          1       9    5fxyz             1.529974       1.751610
                                                         0.572156       1.005767
                                                         0.221473       0.088251
                                                         0.075885      -0.001939
                          1       9    5fxz2             1.529974       1.011293
                                                         0.572156       0.580680
                                                         0.221473       0.050951
                                                         0.075885      -0.001120
                          1       9    5fy3              1.529974       0.452264
                                                         0.572156       0.259688
                                                         0.221473       0.022786
                                                         0.075885      -0.000501
                          1       9    5fy2z             1.529974       1.011293
                                                         0.572156       0.580680
                                                         0.221473       0.050951
                                                         0.075885      -0.001120
                          1       9    5fyz2             1.529974       1.011293
                                                         0.572156       0.580680
                                                         0.221473       0.050951
                                                         0.075885      -0.001120
                          1       9    5fz3              1.529974       0.452264
                                                         0.572156       0.259688
                                                         0.221473       0.022786
                                                         0.075885      -0.000501

       Atomic covalent radius [Angstrom]:                                  1.060

       Atomic van der Waals radius [Angstrom]:                             1.800

     GTH Potential information for                                    GTH-PBE-q5

       Description:                       Goedecker-Teter-Hutter pseudopotential
                                           Goedecker et al., PRB 54, 1703 (1996)
                                          Hartwigsen et al., PRB 58, 3641 (1998)
                                                      Krack, TCA 114, 145 (2005)

       Gaussian exponent of the core charge distribution:               2.702572
       Electronic configuration (s p d ...):                       2   3   0   0

       Parameters of the local part of the GTH pseudopotential:

                          rloc        C1          C2          C3          C4
                        0.430127   -5.862875

       Parameters of the non-local part of the GTH pseudopotential:

                   l      r(l)      h(i,j,l)

                   0    0.396379   11.009068   -3.470357
                                   -3.470357    4.480230
                   1    0.448294    3.056058


 MOLECULE KIND INFORMATION


 All atoms are their own molecule, skipping detailed information


 TOTAL NUMBERS AND MAXIMUM NUMBERS

  Total number of            - Atomic kinds:                                   2
                             - Atoms:                                          8
                             - Shell sets:                                     8
                             - Shells:                                        72
                             - Primitive Cartesian functions:                 32
                             - Cartesian basis functions:                    272
                             - Spherical basis functions:                    232

  Maximum angular momentum of- Orbital basis functions:                        3
                             - Local part of the GTH pseudopotential:          0
                             - Non-local part of the GTH pseudopotential:      2


 MODULE QUICKSTEP: ATOMIC COORDINATES IN ANGSTROM

   Atom Kind Element         X             Y             Z       Z(eff)     Mass
      1    1 Al   13      0.000000      0.000000      0.000000   3.0000  26.9815
      2    1 Al   13      0.000000      2.773538      2.773538   3.0000  26.9815
      3    1 Al   13      2.773538      0.000000      2.773538   3.0000  26.9815
      4    1 Al   13      2.773538      2.773538      0.000000   3.0000  26.9815
      5    2 P    15      1.386769      1.386769      1.386769   5.0000  30.9738
      6    2 P    15      1.386769      4.160307      4.160307   5.0000  30.9738
      7    2 P    15      4.160307      1.386769      4.160307   5.0000  30.9738
      8    2 P    15      4.160307      4.160307      1.386769   5.0000  30.9738



 SCF PARAMETERS         Density guess:                                   RESTART
                        --------------------------------------------------------
                        max_scf:                                             300
                        max_scf_history:                                       0
                        max_diis:                                              4
                        --------------------------------------------------------
                        eps_scf:                                        5.00E-07
                        eps_scf_history:                                0.00E+00
                        eps_diis:                                       0.00E+00
                        eps_eigval:                                     1.00E-05
                        --------------------------------------------------------
                        level_shift [a.u.]:                             0.000000
                        --------------------------------------------------------
                        No outer SCF

 PW_GRID| Information for grid number                                          1
 PW_GRID| Cutoff [a.u.]                                                    400.0
 PW_GRID| spherical cutoff:                                                   NO
 PW_GRID|   Bounds   1            -48      47                Points:          96
 PW_GRID|   Bounds   2            -48      47                Points:          96
 PW_GRID|   Bounds   3            -48      47                Points:          96
 PW_GRID| Volume element (a.u.^3)  0.1302E-02     Volume (a.u.^3)      1151.8316
 PW_GRID| Grid span                                                    FULLSPACE

 PW_GRID| Information for grid number                                          2
 PW_GRID| Number of the reference grid                                         1
 PW_GRID| Cutoff [a.u.]                                                    133.3
 PW_GRID| spherical cutoff:                                                   NO
 PW_GRID|   Bounds   1            -30      29                Points:          60
 PW_GRID|   Bounds   2            -30      29                Points:          60
 PW_GRID|   Bounds   3            -30      29                Points:          60
 PW_GRID| Volume element (a.u.^3)  0.5333E-02     Volume (a.u.^3)      1151.8316
 PW_GRID| Grid span                                                    FULLSPACE

 PW_GRID| Information for grid number                                          3
 PW_GRID| Number of the reference grid                                         1
 PW_GRID| Cutoff [a.u.]                                                     44.4
 PW_GRID| spherical cutoff:                                                   NO
 PW_GRID|   Bounds   1            -16      15                Points:          32
 PW_GRID|   Bounds   2            -16      15                Points:          32
 PW_GRID|   Bounds   3            -16      15                Points:          32
 PW_GRID| Volume element (a.u.^3)  0.3515E-01     Volume (a.u.^3)      1151.8316
 PW_GRID| Grid span                                                    FULLSPACE

 PW_GRID| Information for grid number                                          4
 PW_GRID| Number of the reference grid                                         1
 PW_GRID| Cutoff [a.u.]                                                     14.8
 PW_GRID| spherical cutoff:                                                   NO
 PW_GRID|   Bounds   1            -10       9                Points:          20
 PW_GRID|   Bounds   2            -10       9                Points:          20
 PW_GRID|   Bounds   3            -10       9                Points:          20
 PW_GRID| Volume element (a.u.^3)  0.1440         Volume (a.u.^3)      1151.8316
 PW_GRID| Grid span                                                    FULLSPACE

 PW_GRID| Information for grid number                                          5
 PW_GRID| Number of the reference grid                                         1
 PW_GRID| Cutoff [a.u.]                                                      4.9
 PW_GRID| spherical cutoff:                                                   NO
 PW_GRID|   Bounds   1             -6       5                Points:          12
 PW_GRID|   Bounds   2             -6       5                Points:          12
 PW_GRID|   Bounds   3             -6       5                Points:          12
 PW_GRID| Volume element (a.u.^3)  0.6666         Volume (a.u.^3)      1151.8316
 PW_GRID| Grid span                                                    FULLSPACE

 POISSON| Solver                                                        PERIODIC
 POISSON| Periodicity                                                        XYZ

 RS_GRID| Information for grid number                                          1
 RS_GRID|   Bounds   1            -48      47                Points:          96
 RS_GRID|   Bounds   2            -48      47                Points:          96
 RS_GRID|   Bounds   3            -48      47                Points:          96

 RS_GRID| Information for grid number                                          2
 RS_GRID|   Bounds   1            -30      29                Points:          60
 RS_GRID|   Bounds   2            -30      29                Points:          60
 RS_GRID|   Bounds   3            -30      29                Points:          60

 RS_GRID| Information for grid number                                          3
 RS_GRID|   Bounds   1            -16      15                Points:          32
 RS_GRID|   Bounds   2            -16      15                Points:          32
 RS_GRID|   Bounds   3            -16      15                Points:          32

 RS_GRID| Information for grid number                                          4
 RS_GRID|   Bounds   1            -10       9                Points:          20
 RS_GRID|   Bounds   2            -10       9                Points:          20
 RS_GRID|   Bounds   3            -10       9                Points:          20

 RS_GRID| Information for grid number                                          5
 RS_GRID|   Bounds   1             -6       5                Points:          12
 RS_GRID|   Bounds   2             -6       5                Points:          12
 RS_GRID|   Bounds   3             -6       5                Points:          12

 *******************************************************************************
                                    Kpoints
 *******************************************************************************
 BRILLOUIN| K-point scheme                                        Monkhorst-Pack
 BRILLOUIN| K-Point grid                                             4    4    4
 BRILLOUIN| Gamma-centered k-point mesh                                     ON
 BRILLOUIN| K-point symmetry accuracy                               0.100000E-07
 BRILLOUIN| K-Point point group symmetrization                                ON
 BRILLOUIN| Restrict symmetry to inversion                                    ON
 BRILLOUIN| Wavefunction type                                            COMPLEX
 BRILLOUIN| List of Kpoints [2 Pi/Bohr]                                       36
 BRILLOUIN| Number           Weight            X              Y              Z
 BRILLOUIN|     1           0.03125       -0.25000       -0.25000       -0.25000
 BRILLOUIN|     2           0.03125       -0.25000       -0.25000        0.00000
 BRILLOUIN|     3           0.03125       -0.25000       -0.25000        0.25000
 BRILLOUIN|     4           0.03125       -0.25000       -0.25000        0.50000
 BRILLOUIN|     5           0.03125       -0.25000        0.00000       -0.25000
 BRILLOUIN|     6           0.03125       -0.25000        0.00000        0.00000
 BRILLOUIN|     7           0.03125       -0.25000        0.00000        0.25000
 BRILLOUIN|     8           0.03125       -0.25000        0.00000        0.50000
 BRILLOUIN|     9           0.03125       -0.25000        0.25000       -0.25000
 BRILLOUIN|    10           0.03125       -0.25000        0.25000        0.00000
 BRILLOUIN|    11           0.03125       -0.25000        0.25000        0.25000
 BRILLOUIN|    12           0.03125       -0.25000        0.25000        0.50000
 BRILLOUIN|    13           0.03125       -0.25000        0.50000       -0.25000
 BRILLOUIN|    14           0.03125       -0.25000        0.50000        0.00000
 BRILLOUIN|    15           0.03125       -0.25000        0.50000        0.25000
 BRILLOUIN|    16           0.03125       -0.25000        0.50000        0.50000
 BRILLOUIN|    17           0.03125        0.00000       -0.25000       -0.25000
 BRILLOUIN|    18           0.03125        0.00000       -0.25000        0.00000
 BRILLOUIN|    19           0.03125        0.00000       -0.25000        0.25000
 BRILLOUIN|    20           0.03125        0.00000       -0.25000        0.50000
 BRILLOUIN|    21           0.03125        0.00000        0.00000       -0.25000
 BRILLOUIN|    22           0.01562        0.00000        0.00000        0.00000
 BRILLOUIN|    23           0.01562        0.00000        0.00000        0.50000
 BRILLOUIN|    24           0.03125        0.00000        0.50000       -0.25000
 BRILLOUIN|    25           0.01562        0.00000        0.50000        0.00000
 BRILLOUIN|    26           0.01562        0.00000        0.50000        0.50000
 BRILLOUIN|    27           0.03125        0.50000       -0.25000       -0.25000
 BRILLOUIN|    28           0.03125        0.50000       -0.25000        0.00000
 BRILLOUIN|    29           0.03125        0.50000       -0.25000        0.25000
 BRILLOUIN|    30           0.03125        0.50000       -0.25000        0.50000
 BRILLOUIN|    31           0.03125        0.50000        0.00000       -0.25000
 BRILLOUIN|    32           0.01562        0.50000        0.00000        0.00000
 BRILLOUIN|    33           0.01562        0.50000        0.00000        0.50000
 BRILLOUIN|    34           0.03125        0.50000        0.50000       -0.25000
 BRILLOUIN|    35           0.01562        0.50000        0.50000        0.00000
 BRILLOUIN|    36           0.01562        0.50000        0.50000        0.50000
 *******************************************************************************

 *** WARNING in qs_scf_initialization.F:718 :: MO derivative methods flag ***
 *** has been switched off for kpoint calculation                         ***


 Extrapolation method: initial_guess

 Number of electrons:                                                         32
 Number of occupied orbitals:                                                 16
 Number of molecular orbitals:                                                16

 Number of orbital functions:                                                232
 Number of independent orbital functions:                                    232


 SCF WAVEFUNCTION OPTIMIZATION

  ----------------------------------- OT ---------------------------------------
  Minimizer      : DIIS                : direct inversion
                                         in the iterative subspace
                                         using   7 DIIS vectors
                                         safer DIIS on
  Preconditioner : FULL_ALL            : diagonalization, state selective
  Precond_solver : DEFAULT
  stepsize       :    0.05000000                  energy_gap     :    0.00100000
  ortho_irac     : CHOL                           irac_degree    :             4
  max_irac       :            50                  eps_irac       :   0.10000E-09
  eps_irac_switch:   0.10000E-01                  eps_irac_quick_exit: 0.100E-04
  on_the_fly_loc : F
  ----------------------------------- OT ---------------------------------------

  Step     Update method      Time    Convergence         Total energy    Change
  ------------------------------------------------------------------------------
 SKALA_GPW| Atom-composite cross support/maxima   0.000000000000E+00   0.000000000000E+00   0.000000000000E+00   0.000000000000E+00

 SKALA_GPW| Native grid Torch CUDA device 0 of 1 requested -1
 SKALA_GPW| Native grid Torch CUDA rank devices 0:0
 SKALA_GPW| Active atom-composite XC energy  -9.9797372705910075E+00
 SKALA_GPW| Active atom-composite electrons   3.2036013056076435E+01
 SKALA_GPW| Active atom-composite density range   2.3103175860580651E-05   6.5154737894846146E-02
 SKALA_GPW| Active atom-composite tau range   5.8501756458523833E-04   7.2440902954391873E-02
 SKALA_GPW| Active atom-composite tau integral   1.3850189549576786E+01
 SKALA_GPW| Active atom-composite max gradient   8.0470714572365903E-02
     1 OT DIIS     0.50E-01   29.3     0.00093011       -34.9733194763 -3.50E+01
 SKALA_GPW| Atom-composite cross support/maxima   0.000000000000E+00   0.000000000000E+00   0.000000000000E+00   0.000000000000E+00
 SKALA_GPW| Active atom-composite XC energy  -9.9679881350057045E+00
 SKALA_GPW| Active atom-composite electrons   3.2035894476924952E+01
 SKALA_GPW| Active atom-composite density range   2.6400176341983860E-05   6.5301769086521813E-02
 SKALA_GPW| Active atom-composite tau range   5.7920801200170107E-04   7.2556984940511354E-02
 SKALA_GPW| Active atom-composite tau integral   1.3871440853206842E+01
 SKALA_GPW| Active atom-composite max gradient   8.0490054401734984E-02
     2 OT DIIS     0.50E-01   15.3     0.00859498       -34.9604419846  1.29E-02
 SKALA_GPW| Atom-composite cross support/maxima   0.000000000000E+00   0.000000000000E+00   0.000000000000E+00   0.000000000000E+00
 SKALA_GPW| Active atom-composite XC energy  -9.9851866561020781E+00
 SKALA_GPW| Active atom-composite electrons   3.2035925694103504E+01
 SKALA_GPW| Active atom-composite density range   1.9593221855651411E-05   6.5263813343791388E-02
 SKALA_GPW| Active atom-composite tau range   5.8307874578113574E-04   7.2513433291760881E-02
 SKALA_GPW| Active atom-composite tau integral   1.3852947305008719E+01
 SKALA_GPW| Active atom-composite max gradient   8.0497869481427828E-02
     3 OT DIIS     0.50E-01   12.4     0.00071544       -34.9812839823 -2.08E-02
 SKALA_GPW| Atom-composite cross support/maxima   0.000000000000E+00   0.000000000000E+00   0.000000000000E+00   0.000000000000E+00
 SKALA_GPW| Active atom-composite XC energy  -9.9992226077253754E+00
 SKALA_GPW| Active atom-composite electrons   3.2035662541392369E+01
 SKALA_GPW| Active atom-composite density range   1.1017661645325913E-05   6.5558812197903923E-02
 SKALA_GPW| Active atom-composite tau range   5.7865280268502286E-04   7.2691711020249378E-02
 SKALA_GPW| Active atom-composite tau integral   1.3866706486808701E+01
 SKALA_GPW| Active atom-composite max gradient   8.0487084640328749E-02
     4 OT DIIS     0.50E-01   12.4     0.00018921       -34.9945210331 -1.32E-02
 SKALA_GPW| Atom-composite cross support/maxima   0.000000000000E+00   0.000000000000E+00   0.000000000000E+00   0.000000000000E+00
 SKALA_GPW| Active atom-composite XC energy  -9.9983838211137623E+00
 SKALA_GPW| Active atom-composite electrons   3.2035664559098159E+01
 SKALA_GPW| Active atom-composite density range   1.0494379142305064E-05   6.5538571860096137E-02
 SKALA_GPW| Active atom-composite tau range   5.7894244410200413E-04   7.2658875102024220E-02
 SKALA_GPW| Active atom-composite tau integral   1.3864402214116867E+01
 SKALA_GPW| Active atom-composite max gradient   8.0454113709519423E-02
     5 OT DIIS     0.50E-01   15.6     0.00061262       -34.9942840146  2.37E-04
 SKALA_GPW| Atom-composite cross support/maxima   0.000000000000E+00   0.000000000000E+00   0.000000000000E+00   0.000000000000E+00
 SKALA_GPW| Active atom-composite XC energy  -9.9982457742876285E+00
 SKALA_GPW| Active atom-composite electrons   3.2035669820462651E+01
 SKALA_GPW| Active atom-composite density range   1.0115296391032267E-05   6.5526491648813523E-02
 SKALA_GPW| Active atom-composite tau range   5.7914511827748458E-04   7.2634242205739330E-02
 SKALA_GPW| Active atom-composite tau integral   1.3862709295598917E+01
 SKALA_GPW| Active atom-composite max gradient   8.0423312509082120E-02
     6 OT DIIS     0.50E-01   12.3     0.00009860       -34.9946050343 -3.21E-04
 SKALA_GPW| Atom-composite cross support/maxima   0.000000000000E+00   0.000000000000E+00   0.000000000000E+00   0.000000000000E+00
 SKALA_GPW| Active atom-composite XC energy  -9.9963188372699641E+00
 SKALA_GPW| Active atom-composite electrons   3.2035696583589719E+01
 SKALA_GPW| Active atom-composite density range   8.9436955780653972E-06   6.5469672835957268E-02
 SKALA_GPW| Active atom-composite tau range   5.7988864753400946E-04   7.2547637842677815E-02
 SKALA_GPW| Active atom-composite tau integral   1.3856131712410908E+01
 SKALA_GPW| Active atom-composite max gradient   8.0344473462023738E-02
     7 OT DIIS     0.50E-01   15.1     0.00011422       -34.9946319938 -2.70E-05
 SKALA_GPW| Atom-composite cross support/maxima   0.000000000000E+00   0.000000000000E+00   0.000000000000E+00   0.000000000000E+00
 SKALA_GPW| Active atom-composite XC energy  -9.9959381964281491E+00
 SKALA_GPW| Active atom-composite electrons   3.2035702157028204E+01
 SKALA_GPW| Active atom-composite density range   8.7384209057598478E-06   6.5458046690830038E-02
 SKALA_GPW| Active atom-composite tau range   5.8003501601487976E-04   7.2530043908940162E-02
 SKALA_GPW| Active atom-composite tau integral   1.3854774349907524E+01
 SKALA_GPW| Active atom-composite max gradient   8.0327577579309320E-02
     8 OT DIIS     0.50E-01   15.2     0.00003941       -34.9946447224 -1.27E-05
 SKALA_GPW| Atom-composite cross support/maxima   0.000000000000E+00   0.000000000000E+00   0.000000000000E+00   0.000000000000E+00
 SKALA_GPW| Active atom-composite XC energy  -9.9957412632854066E+00
 SKALA_GPW| Active atom-composite electrons   3.2035706859993823E+01
 SKALA_GPW| Active atom-composite density range   8.2187341602340742E-06   6.5450456723376335E-02
 SKALA_GPW| Active atom-composite tau range   5.8006592918758630E-04   7.2519054937308106E-02
 SKALA_GPW| Active atom-composite tau integral   1.3853755794459383E+01
 SKALA_GPW| Active atom-composite max gradient   8.0318771587330473E-02
     9 OT DIIS     0.50E-01   15.1     0.00003540       -34.9946542142 -9.49E-06
 SKALA_GPW| Atom-composite cross support/maxima   0.000000000000E+00   0.000000000000E+00   0.000000000000E+00   0.000000000000E+00
 SKALA_GPW| Active atom-composite XC energy  -9.9950780454972872E+00
 SKALA_GPW| Active atom-composite electrons   3.2035721097308837E+01
 SKALA_GPW| Active atom-composite density range   6.9112016317116751E-06   6.5426282011869383E-02
 SKALA_GPW| Active atom-composite tau range   5.8015349803783236E-04   7.2482717049383416E-02
 SKALA_GPW| Active atom-composite tau integral   1.3850636316715299E+01
 SKALA_GPW| Active atom-composite max gradient   8.0287150824100220E-02
    10 OT DIIS     0.50E-01   15.1     0.00005248       -34.9946691430 -1.49E-05
 SKALA_GPW| Atom-composite cross support/maxima   0.000000000000E+00   0.000000000000E+00   0.000000000000E+00   0.000000000000E+00
 SKALA_GPW| Active atom-composite XC energy  -9.9947595621031304E+00
 SKALA_GPW| Active atom-composite electrons   3.2035724665783064E+01
 SKALA_GPW| Active atom-composite density range   7.0162080683339765E-06   6.5417999907684335E-02
 SKALA_GPW| Active atom-composite tau range   5.8029914871298414E-04   7.2470733355238195E-02
 SKALA_GPW| Active atom-composite tau integral   1.3849830554915524E+01
 SKALA_GPW| Active atom-composite max gradient   8.0276171318093212E-02
    11 OT DIIS     0.50E-01   15.1     0.00002104       -34.9946692917 -1.49E-07
 SKALA_GPW| Atom-composite cross support/maxima   0.000000000000E+00   0.000000000000E+00   0.000000000000E+00   0.000000000000E+00
 SKALA_GPW| Active atom-composite XC energy  -9.9952515199350476E+00
 SKALA_GPW| Active atom-composite electrons   3.2035721011375685E+01
 SKALA_GPW| Active atom-composite density range   6.4466567483304545E-06   6.5429412744368864E-02
 SKALA_GPW| Active atom-composite tau range   5.7994165066875330E-04   7.2488023090458278E-02
 SKALA_GPW| Active atom-composite tau integral   1.3850868310249115E+01
 SKALA_GPW| Active atom-composite max gradient   8.0291049435941064E-02
    12 OT DIIS     0.50E-01   15.1     0.00000697       -34.9946734353 -4.14E-06
 SKALA_GPW| Atom-composite cross support/maxima   0.000000000000E+00   0.000000000000E+00   0.000000000000E+00   0.000000000000E+00
 SKALA_GPW| Active atom-composite XC energy  -9.9954242157730171E+00
 SKALA_GPW| Active atom-composite electrons   3.2035718045062019E+01
 SKALA_GPW| Active atom-composite density range   6.4232207191143410E-06   6.5435065790229285E-02
 SKALA_GPW| Active atom-composite tau range   5.7986713653871444E-04   7.2495838147637631E-02
 SKALA_GPW| Active atom-composite tau integral   1.3851415086550555E+01
 SKALA_GPW| Active atom-composite max gradient   8.0296740552789028E-02
    13 OT DIIS     0.50E-01   15.0     0.00000602       -34.9946737220 -2.87E-07
 SKALA_GPW| Atom-composite cross support/maxima   0.000000000000E+00   0.000000000000E+00   0.000000000000E+00   0.000000000000E+00
 SKALA_GPW| Active atom-composite XC energy  -9.9954315295337341E+00
 SKALA_GPW| Active atom-composite electrons   3.2035717774147756E+01
 SKALA_GPW| Active atom-composite density range   6.3444042869011146E-06   6.5435271778858828E-02
 SKALA_GPW| Active atom-composite tau range   5.7984605632121773E-04   7.2495699829570867E-02
 SKALA_GPW| Active atom-composite tau integral   1.3851383334571008E+01
 SKALA_GPW| Active atom-composite max gradient   8.0295635165658297E-02
    14 OT DIIS     0.50E-01   15.2     0.00000583       -34.9946739846 -2.63E-07
 SKALA_GPW| Atom-composite cross support/maxima   0.000000000000E+00   0.000000000000E+00   0.000000000000E+00   0.000000000000E+00
 SKALA_GPW| Active atom-composite XC energy  -9.9955610365271603E+00
 SKALA_GPW| Active atom-composite electrons   3.2035713793524842E+01
 SKALA_GPW| Active atom-composite density range   6.2620357013063508E-06   6.5440951303550460E-02
 SKALA_GPW| Active atom-composite tau range   5.7978947563148042E-04   7.2502150432516038E-02
 SKALA_GPW| Active atom-composite tau integral   1.3851798657731612E+01
 SKALA_GPW| Active atom-composite max gradient   8.0297639724713460E-02
    15 OT DIIS     0.50E-01   12.6     0.00001074       -34.9946743859 -4.01E-07
 SKALA_GPW| Atom-composite cross support/maxima   0.000000000000E+00   0.000000000000E+00   0.000000000000E+00   0.000000000000E+00
 SKALA_GPW| Active atom-composite XC energy  -9.9956023689865390E+00
 SKALA_GPW| Active atom-composite electrons   3.2035713542981703E+01
 SKALA_GPW| Active atom-composite density range   6.3651541850016151E-06   6.5441994142022217E-02
 SKALA_GPW| Active atom-composite tau range   5.7979026520172175E-04   7.2504458800271648E-02
 SKALA_GPW| Active atom-composite tau integral   1.3852006903199609E+01
 SKALA_GPW| Active atom-composite max gradient   8.0301023309492112E-02
    16 OT DIIS     0.50E-01   15.2     0.00001131       -34.9946742079  1.78E-07
 SKALA_GPW| Atom-composite cross support/maxima   0.000000000000E+00   0.000000000000E+00   0.000000000000E+00   0.000000000000E+00
 SKALA_GPW| Active atom-composite XC energy  -9.9956324471288802E+00
 SKALA_GPW| Active atom-composite electrons   3.2035712478922342E+01
 SKALA_GPW| Active atom-composite density range   6.2884717666759936E-06   6.5443389428984297E-02
 SKALA_GPW| Active atom-composite tau range   5.7976052510936356E-04   7.2505724633287222E-02
 SKALA_GPW| Active atom-composite tau integral   1.3852069032597427E+01
 SKALA_GPW| Active atom-composite max gradient   8.0300517811968813E-02
    17 OT DIIS     0.50E-01   15.2     0.00000186       -34.9946744500 -2.42E-07
 SKALA_GPW| Atom-composite cross support/maxima   0.000000000000E+00   0.000000000000E+00   0.000000000000E+00   0.000000000000E+00
 SKALA_GPW| Active atom-composite XC energy  -9.9956069667171636E+00
 SKALA_GPW| Active atom-composite electrons   3.2035712762070624E+01
 SKALA_GPW| Active atom-composite density range   6.2774862134105504E-06   6.5442775362132319E-02
 SKALA_GPW| Active atom-composite tau range   5.7976403826223136E-04   7.2504915391060576E-02
 SKALA_GPW| Active atom-composite tau integral   1.3851989565504896E+01
 SKALA_GPW| Active atom-composite max gradient   8.0299835226974106E-02
    18 OT DIIS     0.50E-01   15.2     0.00000171       -34.9946744929 -4.29E-08
 SKALA_GPW| Atom-composite cross support/maxima   0.000000000000E+00   0.000000000000E+00   0.000000000000E+00   0.000000000000E+00
 SKALA_GPW| Active atom-composite XC energy  -9.9956026200010761E+00
 SKALA_GPW| Active atom-composite electrons   3.2035712829002755E+01
 SKALA_GPW| Active atom-composite density range   6.2731638466789577E-06   6.5442674135207518E-02
 SKALA_GPW| Active atom-composite tau range   5.7976315637873717E-04   7.2504825723442246E-02
 SKALA_GPW| Active atom-composite tau integral   1.3851973968831453E+01
 SKALA_GPW| Active atom-composite max gradient   8.0299795671144161E-02
    19 OT SD       0.50E-01   15.2     0.00000171       -34.9946745009 -7.97E-09
 SKALA_GPW| Atom-composite cross support/maxima   0.000000000000E+00   0.000000000000E+00   0.000000000000E+00   0.000000000000E+00
 SKALA_GPW| Active atom-composite XC energy  -9.9955910008920945E+00
 SKALA_GPW| Active atom-composite electrons   3.2035712957603280E+01
 SKALA_GPW| Active atom-composite density range   6.2668297244834700E-06   6.5442452482668764E-02
 SKALA_GPW| Active atom-composite tau range   5.7976120136337620E-04   7.2504707527634438E-02
 SKALA_GPW| Active atom-composite tau integral   1.3851941895643435E+01
 SKALA_GPW| Active atom-composite max gradient   8.0299813299447506E-02
    20 OT SD       0.50E-01   15.1     0.00000572       -34.9946745205 -1.97E-08
 SKALA_GPW| Atom-composite cross support/maxima   0.000000000000E+00   0.000000000000E+00   0.000000000000E+00   0.000000000000E+00
 SKALA_GPW| Active atom-composite XC energy  -9.9955736249747034E+00
 SKALA_GPW| Active atom-composite electrons   3.2035713175784814E+01
 SKALA_GPW| Active atom-composite density range   6.2472257795396105E-06   6.5442369560002309E-02
 SKALA_GPW| Active atom-composite tau range   5.7976682816263635E-04   7.2504735559652284E-02
 SKALA_GPW| Active atom-composite tau integral   1.3851875931432287E+01
 SKALA_GPW| Active atom-composite max gradient   8.0300148741437510E-02
    21 OT DIIS     0.50E-01   15.0     0.00005120       -34.9946728970  1.62E-06
 SKALA_GPW| Atom-composite cross support/maxima   0.000000000000E+00   0.000000000000E+00   0.000000000000E+00   0.000000000000E+00
 SKALA_GPW| Active atom-composite XC energy  -9.9956037036547816E+00
 SKALA_GPW| Active atom-composite electrons   3.2035712972385966E+01
 SKALA_GPW| Active atom-composite density range   6.2460671744011420E-06   6.5442170318375792E-02
 SKALA_GPW| Active atom-composite tau range   5.7977003681545407E-04   7.2503298296769034E-02
 SKALA_GPW| Active atom-composite tau integral   1.3851942522842446E+01
 SKALA_GPW| Active atom-composite max gradient   8.0297742803791441E-02
    22 OT DIIS     0.50E-01   15.2     0.00000196       -34.9946744194 -1.52E-06
 SKALA_GPW| Atom-composite cross support/maxima   0.000000000000E+00   0.000000000000E+00   0.000000000000E+00   0.000000000000E+00
 SKALA_GPW| Active atom-composite XC energy  -9.9956036553098961E+00
 SKALA_GPW| Active atom-composite electrons   3.2035712959146451E+01
 SKALA_GPW| Active atom-composite density range   6.2527255256108730E-06   6.5442159404376546E-02
 SKALA_GPW| Active atom-composite tau range   5.7976845067329896E-04   7.2503326532102175E-02
 SKALA_GPW| Active atom-composite tau integral   1.3851956142424280E+01
 SKALA_GPW| Active atom-composite max gradient   8.0297799146526669E-02
    23 OT DIIS     0.50E-01   15.2     0.00000429       -34.9946744285 -9.15E-09
 SKALA_GPW| Atom-composite cross support/maxima   0.000000000000E+00   0.000000000000E+00   0.000000000000E+00   0.000000000000E+00
 SKALA_GPW| Active atom-composite XC energy  -9.9955918529531580E+00
 SKALA_GPW| Active atom-composite electrons   3.2035713130156388E+01
 SKALA_GPW| Active atom-composite density range   6.2415183221135927E-06   6.5441762899638878E-02
 SKALA_GPW| Active atom-composite tau range   5.7977337113481213E-04   7.2502524713265945E-02
 SKALA_GPW| Active atom-composite tau integral   1.3851909201966746E+01
 SKALA_GPW| Active atom-composite max gradient   8.0296901252818575E-02
    24 OT DIIS     0.50E-01   15.2     0.00000313       -34.9946744317 -3.21E-09
 SKALA_GPW| Atom-composite cross support/maxima   0.000000000000E+00   0.000000000000E+00   0.000000000000E+00   0.000000000000E+00
 SKALA_GPW| Active atom-composite XC energy  -9.9956067486281697E+00
 SKALA_GPW| Active atom-composite electrons   3.2035712958199653E+01
 SKALA_GPW| Active atom-composite density range   6.2538701817284235E-06   6.5442251076812549E-02
 SKALA_GPW| Active atom-composite tau range   5.7976841052837240E-04   7.2503536243128344E-02
 SKALA_GPW| Active atom-composite tau integral   1.3851959689757248E+01
 SKALA_GPW| Active atom-composite max gradient   8.0298122372529479E-02
    25 OT DIIS     0.50E-01   15.1     0.00000285       -34.9946744324 -7.01E-10
 SKALA_GPW| Atom-composite cross support/maxima   0.000000000000E+00   0.000000000000E+00   0.000000000000E+00   0.000000000000E+00
 SKALA_GPW| Active atom-composite XC energy  -9.9955836211254248E+00
 SKALA_GPW| Active atom-composite electrons   3.2035713254346824E+01
 SKALA_GPW| Active atom-composite density range   6.2323419836934684E-06   6.5441475486865713E-02
 SKALA_GPW| Active atom-composite tau range   5.7977574737414265E-04   7.2502125138779766E-02
 SKALA_GPW| Active atom-composite tau integral   1.3851877733535554E+01
 SKALA_GPW| Active atom-composite max gradient   8.0296380420931152E-02
    26 OT DIIS     0.50E-01   15.1     0.00000100       -34.9946744385 -6.04E-09
 SKALA_GPW| Atom-composite cross support/maxima   0.000000000000E+00   0.000000000000E+00   0.000000000000E+00   0.000000000000E+00
 SKALA_GPW| Active atom-composite XC energy  -9.9955604631428123E+00
 SKALA_GPW| Active atom-composite electrons   3.2035713485072286E+01
 SKALA_GPW| Active atom-composite density range   6.2208676607807010E-06   6.5440947911345249E-02
 SKALA_GPW| Active atom-composite tau range   5.7977751132675195E-04   7.2501466071476520E-02
 SKALA_GPW| Active atom-composite tau integral   1.3851812881357533E+01
 SKALA_GPW| Active atom-composite max gradient   8.0295805837895348E-02
    27 OT DIIS     0.50E-01   15.1     0.00000095       -34.9946744646 -2.61E-08
 SKALA_GPW| Atom-composite cross support/maxima   0.000000000000E+00   0.000000000000E+00   0.000000000000E+00   0.000000000000E+00
 SKALA_GPW| Active atom-composite XC energy  -9.9955607381451586E+00
 SKALA_GPW| Active atom-composite electrons   3.2035713444797274E+01
 SKALA_GPW| Active atom-composite density range   6.2223693220584057E-06   6.5441059273228172E-02
 SKALA_GPW| Active atom-composite tau range   5.7977430894286827E-04   7.2501668125616758E-02
 SKALA_GPW| Active atom-composite tau integral   1.3851819098916538E+01
 SKALA_GPW| Active atom-composite max gradient   8.0296054598143249E-02
    28 OT SD       0.50E-01   15.2     0.00000095       -34.9946744555  9.08E-09
 SKALA_GPW| Atom-composite cross support/maxima   0.000000000000E+00   0.000000000000E+00   0.000000000000E+00   0.000000000000E+00
 SKALA_GPW| Active atom-composite XC energy  -9.9955605798128921E+00
 SKALA_GPW| Active atom-composite electrons   3.2035713408676493E+01
 SKALA_GPW| Active atom-composite density range   6.2235344199354007E-06   6.5441176153855918E-02
 SKALA_GPW| Active atom-composite tau range   5.7977007698943193E-04   7.2501877369851128E-02
 SKALA_GPW| Active atom-composite tau integral   1.3851824056903157E+01
 SKALA_GPW| Active atom-composite max gradient   8.0296321653368502E-02
    29 OT SD       0.50E-01   15.4     0.00000103       -34.9946744725 -1.70E-08
 SKALA_GPW| Atom-composite cross support/maxima   0.000000000000E+00   0.000000000000E+00   0.000000000000E+00   0.000000000000E+00
 SKALA_GPW| Active atom-composite XC energy  -9.9955586611700671E+00
 SKALA_GPW| Active atom-composite electrons   3.2035713398510616E+01
 SKALA_GPW| Active atom-composite density range   6.2230316143786967E-06   6.5441290311654701E-02
 SKALA_GPW| Active atom-composite tau range   5.7976773188218107E-04   7.2502080559921453E-02
 SKALA_GPW| Active atom-composite tau integral   1.3851817691692847E+01
 SKALA_GPW| Active atom-composite max gradient   8.0296606772302020E-02
    30 OT SD       0.50E-01   15.1     0.00000305       -34.9946744763 -3.78E-09
 SKALA_GPW| Atom-composite cross support/maxima   0.000000000000E+00   0.000000000000E+00   0.000000000000E+00   0.000000000000E+00
 SKALA_GPW| Active atom-composite XC energy  -9.9955761183253884E+00
 SKALA_GPW| Active atom-composite electrons   3.2035713138227933E+01
 SKALA_GPW| Active atom-composite density range   6.2314629777988463E-06   6.5441578752822555E-02
 SKALA_GPW| Active atom-composite tau range   5.7974277789210561E-04   7.2502546517116503E-02
 SKALA_GPW| Active atom-composite tau integral   1.3851918439677618E+01
 SKALA_GPW| Active atom-composite max gradient   8.0296951585072870E-02
    31 OT DIIS     0.50E-01   15.1     0.00002728       -34.9946740272  4.49E-07
 SKALA_GPW| Atom-composite cross support/maxima   0.000000000000E+00   0.000000000000E+00   0.000000000000E+00   0.000000000000E+00
 SKALA_GPW| Active atom-composite XC energy  -9.9955505466684151E+00
 SKALA_GPW| Active atom-composite electrons   3.2035713526169225E+01
 SKALA_GPW| Active atom-composite density range   6.2221235468384260E-06   6.5440445650635684E-02
 SKALA_GPW| Active atom-composite tau range   5.7979005729205820E-04   7.2500961207621811E-02
 SKALA_GPW| Active atom-composite tau integral   1.3851810356259529E+01
 SKALA_GPW| Active atom-composite max gradient   8.0295324120423325E-02
    32 OT DIIS     0.50E-01   15.6     0.00000117       -34.9946744529 -4.26E-07
 SKALA_GPW| Atom-composite cross support/maxima   0.000000000000E+00   0.000000000000E+00   0.000000000000E+00   0.000000000000E+00
 SKALA_GPW| Active atom-composite XC energy  -9.9955548080511694E+00
 SKALA_GPW| Active atom-composite electrons   3.2035713459624631E+01
 SKALA_GPW| Active atom-composite density range   6.2260662272084751E-06   6.5440585458738890E-02
 SKALA_GPW| Active atom-composite tau range   5.7978861193660461E-04   7.2501158979830269E-02
 SKALA_GPW| Active atom-composite tau integral   1.3851826362699772E+01
 SKALA_GPW| Active atom-composite max gradient   8.0295545753543640E-02
    33 OT DIIS     0.50E-01   15.1     0.00000090       -34.9946744374  1.55E-08
 SKALA_GPW| Atom-composite cross support/maxima   0.000000000000E+00   0.000000000000E+00   0.000000000000E+00   0.000000000000E+00
 SKALA_GPW| Active atom-composite XC energy  -9.9955578680330586E+00
 SKALA_GPW| Active atom-composite electrons   3.2035713373758213E+01
 SKALA_GPW| Active atom-composite density range   6.2278981353548058E-06   6.5440765510610482E-02
 SKALA_GPW| Active atom-composite tau range   5.7978060713370974E-04   7.2501306264220647E-02
 SKALA_GPW| Active atom-composite tau integral   1.3851842176417549E+01
 SKALA_GPW| Active atom-composite max gradient   8.0295980727303762E-02
    34 OT DIIS     0.50E-01   15.2     0.00000087       -34.9946744392 -1.72E-09
 SKALA_GPW| Atom-composite cross support/maxima   0.000000000000E+00   0.000000000000E+00   0.000000000000E+00   0.000000000000E+00
 SKALA_GPW| Active atom-composite XC energy  -9.9955649045980568E+00
 SKALA_GPW| Active atom-composite electrons   3.2035713238994532E+01
 SKALA_GPW| Active atom-composite density range   6.2287804612721150E-06   6.5441200663119967E-02
 SKALA_GPW| Active atom-composite tau range   5.7975883933144960E-04   7.2501535556452154E-02
 SKALA_GPW| Active atom-composite tau integral   1.3851863770936315E+01
 SKALA_GPW| Active atom-composite max gradient   8.0296518725621865E-02
    35 OT DIIS     0.50E-01   15.2     0.00000181       -34.9946744840 -4.48E-08
 SKALA_GPW| Atom-composite cross support/maxima   0.000000000000E+00   0.000000000000E+00   0.000000000000E+00   0.000000000000E+00
 SKALA_GPW| Active atom-composite XC energy  -9.9955620325348686E+00
 SKALA_GPW| Active atom-composite electrons   3.2035713268208120E+01
 SKALA_GPW| Active atom-composite density range   6.2295432313441038E-06   6.5441094718504275E-02
 SKALA_GPW| Active atom-composite tau range   5.7976370905997378E-04   7.2501496047345071E-02
 SKALA_GPW| Active atom-composite tau integral   1.3851857221093558E+01
 SKALA_GPW| Active atom-composite max gradient   8.0296470592979050E-02
    36 OT DIIS     0.50E-01   15.1     0.00000065       -34.9946744867 -2.76E-09
 SKALA_GPW| Atom-composite cross support/maxima   0.000000000000E+00   0.000000000000E+00   0.000000000000E+00   0.000000000000E+00
 SKALA_GPW| Active atom-composite XC energy  -9.9955612077888425E+00
 SKALA_GPW| Active atom-composite electrons   3.2035713277396603E+01
 SKALA_GPW| Active atom-composite density range   6.2291437602255214E-06   6.5441085985766562E-02
 SKALA_GPW| Active atom-composite tau range   5.7976313310198187E-04   7.2501462479477002E-02
 SKALA_GPW| Active atom-composite tau integral   1.3851854001010205E+01
 SKALA_GPW| Active atom-composite max gradient   8.0296445703765873E-02
    37 OT DIIS     0.50E-01   12.6     0.00000077       -34.9946744747  1.20E-08
 SKALA_GPW| Atom-composite cross support/maxima   0.000000000000E+00   0.000000000000E+00   0.000000000000E+00   0.000000000000E+00
 SKALA_GPW| Active atom-composite XC energy  -9.9955702096343479E+00
 SKALA_GPW| Active atom-composite electrons   3.2035712972137880E+01
 SKALA_GPW| Active atom-composite density range   6.2330342057929869E-06   6.5442133839075517E-02
 SKALA_GPW| Active atom-composite tau range   5.7970346372485028E-04   7.2501829619048927E-02
 SKALA_GPW| Active atom-composite tau integral   1.3851879787266906E+01
 SKALA_GPW| Active atom-composite max gradient   8.0297788967023206E-02
    38 OT DIIS     0.50E-01   12.5     0.00000058       -34.9946745112 -3.65E-08
 SKALA_GPW| Atom-composite cross support/maxima   0.000000000000E+00   0.000000000000E+00   0.000000000000E+00   0.000000000000E+00
 SKALA_GPW| Active atom-composite XC energy  -9.9955725644483451E+00
 SKALA_GPW| Active atom-composite electrons   3.2035712801951405E+01
 SKALA_GPW| Active atom-composite density range   6.2340667354506295E-06   6.5442684334536566E-02
 SKALA_GPW| Active atom-composite tau range   5.7966674250817393E-04   7.2501915457148056E-02
 SKALA_GPW| Active atom-composite tau integral   1.3851883773720632E+01
 SKALA_GPW| Active atom-composite max gradient   8.0298512233220570E-02
    39 OT SD       0.50E-01   15.1     0.00000054       -34.9946745496 -3.84E-08
 SKALA_GPW| Atom-composite cross support/maxima   0.000000000000E+00   0.000000000000E+00   0.000000000000E+00   0.000000000000E+00
 SKALA_GPW| Active atom-composite XC energy  -9.9955703046530608E+00
 SKALA_GPW| Active atom-composite electrons   3.2035712798574956E+01
 SKALA_GPW| Active atom-composite density range   6.2326703544406353E-06   6.5442685096546341E-02
 SKALA_GPW| Active atom-composite tau range   5.7966464160014055E-04   7.2501817705011781E-02
 SKALA_GPW| Active atom-composite tau integral   1.3851871146359750E+01
 SKALA_GPW| Active atom-composite max gradient   8.0298512568481584E-02
    40 OT SD       0.50E-01   15.5     0.00000197       -34.9946745340  1.56E-08
 SKALA_GPW| Atom-composite cross support/maxima   0.000000000000E+00   0.000000000000E+00   0.000000000000E+00   0.000000000000E+00
 SKALA_GPW| Active atom-composite XC energy  -9.9955827965794022E+00
 SKALA_GPW| Active atom-composite electrons   3.2035712621637956E+01
 SKALA_GPW| Active atom-composite density range   6.2364382715950624E-06   6.5442838837880268E-02
 SKALA_GPW| Active atom-composite tau range   5.7964621849768496E-04   7.2501908274182764E-02
 SKALA_GPW| Active atom-composite tau integral   1.3851939549984834E+01
 SKALA_GPW| Active atom-composite max gradient   8.0298521497762301E-02
    41 OT DIIS     0.50E-01   15.1     0.00001813       -34.9946743287  2.05E-07
 SKALA_GPW| Atom-composite cross support/maxima   0.000000000000E+00   0.000000000000E+00   0.000000000000E+00   0.000000000000E+00
 SKALA_GPW| Active atom-composite XC energy  -9.9955707691697384E+00
 SKALA_GPW| Active atom-composite electrons   3.2035712843756862E+01
 SKALA_GPW| Active atom-composite density range   6.2334423246993122E-06   6.5442521800999159E-02
 SKALA_GPW| Active atom-composite tau range   5.7967444182927593E-04   7.2501842787709811E-02
 SKALA_GPW| Active atom-composite tau integral   1.3851878476869375E+01
 SKALA_GPW| Active atom-composite max gradient   8.0298339160388962E-02
    42 OT DIIS     0.50E-01   15.1     0.00000105       -34.9946745376 -2.09E-07
 SKALA_GPW| Atom-composite cross support/maxima   0.000000000000E+00   0.000000000000E+00   0.000000000000E+00   0.000000000000E+00
 SKALA_GPW| Active atom-composite XC energy  -9.9955720736234994E+00
 SKALA_GPW| Active atom-composite electrons   3.2035712809185306E+01
 SKALA_GPW| Active atom-composite density range   6.2340161577108572E-06   6.5442662831238479E-02
 SKALA_GPW| Active atom-composite tau range   5.7966698676573830E-04   7.2501913952158270E-02
 SKALA_GPW| Active atom-composite tau integral   1.3851882894336875E+01
 SKALA_GPW| Active atom-composite max gradient   8.0298495343564161E-02
    43 OT DIIS     0.50E-01   15.2     0.00000083       -34.9946745356  1.91E-09
 SKALA_GPW| Atom-composite cross support/maxima   0.000000000000E+00   0.000000000000E+00   0.000000000000E+00   0.000000000000E+00
 SKALA_GPW| Active atom-composite XC energy  -9.9955731659619929E+00
 SKALA_GPW| Active atom-composite electrons   3.2035712761584456E+01
 SKALA_GPW| Active atom-composite density range   6.2344437747533991E-06   6.5442827642381074E-02
 SKALA_GPW| Active atom-composite tau range   5.7965701893746664E-04   7.2501976560901085E-02
 SKALA_GPW| Active atom-composite tau integral   1.3851885642083694E+01
 SKALA_GPW| Active atom-composite max gradient   8.0298721378980073E-02
    44 OT DIIS     0.50E-01   15.1     0.00000073       -34.9946745407 -5.05E-09
 SKALA_GPW| Atom-composite cross support/maxima   0.000000000000E+00   0.000000000000E+00   0.000000000000E+00   0.000000000000E+00
 SKALA_GPW| Active atom-composite XC energy  -9.9955743945604656E+00
 SKALA_GPW| Active atom-composite electrons   3.2035712706930859E+01
 SKALA_GPW| Active atom-composite density range   6.2349985618647603E-06   6.5442997947202527E-02
 SKALA_GPW| Active atom-composite tau range   5.7964583479526010E-04   7.2502028555996426E-02
 SKALA_GPW| Active atom-composite tau integral   1.3851889352151700E+01
 SKALA_GPW| Active atom-composite max gradient   8.0298939696536217E-02
    45 OT DIIS     0.50E-01   15.3     0.00000066       -34.9946745552 -1.45E-08
 SKALA_GPW| Atom-composite cross support/maxima   0.000000000000E+00   0.000000000000E+00   0.000000000000E+00   0.000000000000E+00
 SKALA_GPW| Active atom-composite XC energy  -9.9955766399010670E+00
 SKALA_GPW| Active atom-composite electrons   3.2035712492296248E+01
 SKALA_GPW| Active atom-composite density range   6.2366892399614455E-06   6.5443449865583272E-02
 SKALA_GPW| Active atom-composite tau range   5.7960270958940332E-04   7.2502097094584841E-02
 SKALA_GPW| Active atom-composite tau integral   1.3851894642011182E+01
 SKALA_GPW| Active atom-composite max gradient   8.0299621540453989E-02
    46 OT DIIS     0.50E-01   15.1     0.00000036       -34.9946745594 -4.25E-09

  *** SCF run converged in    46 steps ***


  Electronic density on regular grids:        -32.0000000000        0.0000000000
  Core density on regular grids:               31.9999999999       -0.0000000001
  Hard and soft densities (Lebedev):           -0.0000000000       -0.0000000000
  Total Rho_soft + Rho1_hard - Rho1_soft      -32.0000000000
  Total charge density (r-space):              -0.0000000001
  Total Rho_soft + Rho0_soft (g-space):        -0.0000000001

  Overlap energy of the core charge distribution:               0.00000000001621
  Self energy of the core charge distribution:                -88.15121238703466
  Core Hamiltonian energy:                                     18.75069445051435
  Hartree energy:                                              44.56234805843047
  Exchange-correlation energy:                                  0.00000000000000
  Dispersion energy:                                           -0.16092804143019

  GAPW| Exc from hard and soft atomic rho1:                    -9.99557663990107
  GAPW| local Eh = 1 center integrals:                          0.00000000000000

  Total energy:                                               -34.99467455940490

 !-----------------------------------------------------------------------------!
                     Mulliken Population Analysis

 #  Atom  Element  Kind  Atomic population                           Net charge
       1     Al       1          2.411199                              0.588801
       2     Al       1          2.415743                              0.584257
       3     Al       1          2.415743                              0.584257
       4     Al       1          2.415743                              0.584257
       5     P        2          5.585466                             -0.585466
       6     P        2          5.585391                             -0.585391
       7     P        2          5.585362                             -0.585362
       8     P        2          5.585353                             -0.585353
 # Total charge                             32.000000                 -0.000000

 !-----------------------------------------------------------------------------!

 !-----------------------------------------------------------------------------!
                           Hirshfeld Charges

  #Atom  Element  Kind  Ref Charge     Population                    Net charge
      1       Al     1       3.000          2.696                         0.304
      2       Al     1       3.000          2.697                         0.303
      3       Al     1       3.000          2.697                         0.303
      4       Al     1       3.000          2.697                         0.303
      5       P      2       5.000          5.303                        -0.303
      6       P      2       5.000          5.304                        -0.304
      7       P      2       5.000          5.304                        -0.304
      8       P      2       5.000          5.304                        -0.304

  Total Charge                                                           -0.000
 !-----------------------------------------------------------------------------!

 ENERGY| Total FORCE_EVAL ( QS ) energy [hartree]            -34.994674559404899

 -------------------------------------------------------------------------------
 -                                                                             -
 -                                DBCSR STATISTICS                             -
 -                                                                             -
 -------------------------------------------------------------------------------
 COUNTER                                    TOTAL       BLAS       SMM       ACC
 flops    16 x    16 x    16             55443456       0.0%    100.0%      0.0%     
 flops    16 x    16 x   232           1590755328       0.0%    100.0%      0.0%     
 flops    29 x    16 x    16           3951230976       0.0%    100.0%      0.0%     
 flops    29 x    16 x    29          34970959872       0.0%    100.0%      0.0%     
 flops inhomo. stacks                           0       0.0%      0.0%      0.0%
 flops total                        40.568390E+09       0.0%    100.0%      0.0%
 flops max/rank                     40.568390E+09       0.0%    100.0%      0.0%
 matmuls inhomo. stacks                         0       0.0%      0.0%      0.0%
 matmuls total                            1585728       0.0%    100.0%      0.0%
 number of processed stacks                448704       0.0%    100.0%      0.0%
 average stack size                                     0.0       3.5       0.0
 marketing flops                    40.562024E+09
 -------------------------------------------------------------------------------
 # multiplications                          73728
 max memory usage/rank             336.559342E+09
 # max total images/rank                        1
 # max 3D layers                                1
 # MPI messages exchanged                       0
 -------------------------------------------------------------------------------
 -                                                                             -
 -                      DBCSR MESSAGE PASSING PERFORMANCE                      -
 -                                                                             -
 -------------------------------------------------------------------------------
 ROUTINE             CALLS      AVE VOLUME [Bytes]
 MP_Bcast                5                     12.
 MP_Allreduce       328059                      8.
 MP_Alltoall        507826                  21331.
 MP_ISend           294912                    270.
 MP_IRecv           294912                    270.
 -------------------------------------------------------------------------------

 -------------------------------------------------------------------------------
 -                                                                             -
 -                                GRID STATISTICS                              -
 -                                                                             -
 -------------------------------------------------------------------------------
 LP    KERNEL             BACKEND                              COUNT     PERCENT
 6     collocate ortho    CPU                                 878592      25.53%
 8     collocate ortho    CPU                                 878592      25.53%
 6     integrate ortho    CPU                                 841984      24.47%
 8     integrate ortho    CPU                                 841984      24.47%
 0     collocate general  CPU                                     16       0.00%
 0     integrate general  CPU                                      8       0.00%
 -------------------------------------------------------------------------------

 -------------------------------------------------------------------------------
 -                                                                             -
 -                          OFFLOAD MEMPOOL STATISTICS                         -
 -                                                                             -
 -------------------------------------------------------------------------------
 Memory consumption                Number of allocations  Used [MiB]  Size [MiB]
 Host                                                  8          72   268435304
 -------------------------------------------------------------------------------

 MEMORY| Estimated peak process memory [MiB]                                3056

 -------------------------------------------------------------------------------
 ----                             MULTIGRID INFO                            ----
 -------------------------------------------------------------------------------
 count for grid        1:              3          cutoff [a.u.]          400.00
 count for grid        2:           8799          cutoff [a.u.]          133.33
 count for grid        3:          13954          cutoff [a.u.]           44.44
 count for grid        4:          15644          cutoff [a.u.]           14.81
 count for grid        5:           6187          cutoff [a.u.]            4.94
 total gridlevel count  :          44587

 -------------------------------------------------------------------------------
 -                                                                             -
 -                         MESSAGE PASSING PERFORMANCE                         -
 -                                                                             -
 -------------------------------------------------------------------------------

 ROUTINE             CALLS      AVE VOLUME [Bytes]
 MP_Group                5
 MP_Bcast             4142                  29122.
 MP_Allreduce        84361                  38601.
 MP_Sync                 5
 MP_Wait              2160
 MP_ISend             3024                  61519.
 MP_IRecv             3024                  61519.
 -------------------------------------------------------------------------------


 -------------------------------------------------------------------------------
 -                                                                             -
 -                           R E F E R E N C E S                               -
 -                                                                             -
 -------------------------------------------------------------------------------
 
 CP2K version 2026.2 (Development Version), the CP2K developers group (2026).
 CP2K is freely available from https://www.cp2k.org/ .
 
 M. Iannuzzi, J. Wilhelm, F. Stein, A. Bussy, H. Elgabarty, D. Golze, A. Hehn, 
 M. Graml, S. Marek, B. Sertcan Gökmen, C. Schran, H. Forbert, R. Z. 
 Khaliullin, A. Kozhevnikov, M. Taillefumier, R. Meli, V. V. Rybkin, M. Brehm, 
 R. Schade, O. Schütt, J. V. Pototschnig, H. Mirhosseini, A. Knüpfer, D. Marx, 
 M. Krack, J. Hutter, T. D. Kühne.
 J. Phys. Chem. B 130, 1237-1310 (2026).
 The CP2K Program Package Made Simple.
 https://doi.org/10.1021/acs.jpcb.5c05851

 L. Wittmann, I. Gordiy, M. Friede, B. Helmich-Paris, S. Grimme, A. Hansen, M. 
 Bursch.
 Phys. Chem. Chem. Phys. 26, 21379-21394 (2024).
 Extension of the D3 and D4 London dispersion corrections to the full actinides 
 series.
 https://doi.org/10.1039/d4cp01514b

 T. D. Kühne, M. Iannuzzi, M. Del Ben, V. V. Rybkin, P. Seewald, F. Stein, T. 
 Laino, R. Z. Khaliullin, O. Schütt, F. Schiffmann, D. Golze, J. Wilhelm, S. 
 Chulkov, M. H. Bani-Hashemian, V. Weber, U. Borstnik, M. Taillefumier, A. S. 
 Jakobovits, A. Lazzaro, H. Pabst, T. Müller, R. Schade, M. Guidon, S. 
 Andermatt, N. Holmberg, G. K. Schenter, A. Hehn, A. Bussy, F. Belleflamme, G. 
 Tabacchi, A. Glöß, M. Lass, I. Bethune, C. J. Mundy, C. Plessl, M. Watkins, 
 J. VandeVondele, M. Krack, J. Hutter.
 J. Chem. Phys. 152, 194103 (2020).
 CP2K: An electronic structure and molecular dynamics software package - 
 Quickstep: Efficient and accurate electronic structure calculations.
 https://doi.org/10.1063/5.0007045

 A. Togo, I. Tanaka.
 arXiv, 1808.01590 (2018).
 Spglib : a software library for crystal symmetry search.

 L. Goerigk, A. Hansen, C. Bauer, S. Ehrlich, A. Najibi, S. Grimme.
 Phys. Chem. Chem. Phys. 19, 32184-32215 (2017).
 A look at the density functional theory zoo with the advanced GMTKN55 database 
 for general main group thermochemistry, kinetics and noncovalent interactions.
 https://doi.org/10.1039/C7CP04913G

 O. Schuett, P. Messmer, J. Hutter, J. VandeVondele.
 Electronic Structure Calculations on Graphics Processing Units, 173-190 (2016).
 GPU-Accelerated Sparse Matrix-Matrix Multiplication for Linear Scaling Density 
 Functional Theory.
 https://doi.org/10.1002/9781118670712.ch8

 U. Borstnik, J. VandeVondele, V. Weber, J. Hutter.
 Parallel Comput. 40, 47-58 (2014).
 Sparse matrix multiplication: The distributed block-compressed sparse row 
 library.
 https://doi.org/10.1016/j.parco.2014.03.012

 S. Grimme, S. Ehrlich, L. Goerigk.
 J. Comput. Chem. 32, 1456 (2011).
 Effect of the damping function in dispersion corrected density functional 
 theory.
 https://doi.org/10.1002/jcc.21759

 S. Grimme, J. Antony, S. Ehrlich, H. Krieg.
 J. Chem. Phys. 132, 154104 (2010).
 A consistent and accurate ab initio parametrization of density functional 
 dispersion correction (DFT-D) for the 94 elements H-Pu.
 https://doi.org/10.1063/1.3382344

 V. Weber, J. VandeVondele, J. Hutter, A. M. N. Niklasson.
 J. Chem. Phys. 128, 084113 (2008).
 Direct energy functional minimization under orthogonality constraints.
 https://doi.org/10.1063/1.2841077

 J. VandeVondele, J. Hutter.
 J. Chem. Phys. 127, 114105 (2007).
 Gaussian basis sets for accurate calculations on molecular systems in gas and 
 condensed phases.
 https://doi.org/10.1063/1.2770708

 M. Krack.
 Theor. Chem. Acc. 114, 145-152 (2005).
 Pseudopotentials for H to Kr optimized for gradient-corrected 
 exchange-correlation functionals.
 https://doi.org/10.1007/s00214-005-0655-y

 M. Frigo, S. G. Johnson.
 Proc. IEEE 93, 216-231 (2005).
 The design and implementation of FFTW3.
 https://doi.org/10.1109/JPROC.2004.840301

 J. VandeVondele, J. Hutter.
 J. Chem. Phys. 118, 4365-4369 (2003).
 An efficient orbital transformation method for electronic structure 
 calculations.
 https://doi.org/10.1063/1.1543154

 M. Krack, M. Parrinello.
 Phys. Chem. Chem. Phys. 2, 2105-2112 (2000).
 All-electron ab-initio molecular dynamics.
 https://doi.org/10.1039/b001167n

 G. Lippert, J. Hutter, M. Parrinello.
 Theor. Chem. Acc. 103, 124-140 (1999).
 The Gaussian and augmented-plane-wave density functional method for ab initio 
 molecular dynamics simulations.
 https://doi.org/10.1007/s002140050523

 C. Hartwigsen, S. Goedecker, J. Hutter.
 Phys. Rev. B 58, 3641-3662 (1998).
 Relativistic separable dual-space Gaussian pseudopotentials from H to Rn.
 https://doi.org/10.1103/PhysRevB.58.3641

 S. Goedecker, M. Teter, J. Hutter.
 Phys. Rev. B 54, 1703-1710 (1996).
 Separable dual-space Gaussian pseudopotentials.
 https://doi.org/10.1103/PhysRevB.54.1703

 C.-L. Fu, K.-M. Ho.
 Phys. Rev. B 28, 5480-5486 (1983).
 First-principles calculation of the equilibrium ground-state properties of 
 transition metals: Applications to Nb and Mo.
 https://doi.org/10.1103/PhysRevB.28.5480


 -------------------------------------------------------------------------------
 -                                                                             -
 -                                T I M I N G                                  -
 -                                                                             -
 -------------------------------------------------------------------------------
 SUBROUTINE                       CALLS  ASD         SELF TIME        TOTAL TIME
                                MAXIMUM       AVERAGE  MAXIMUM  AVERAGE  MAXIMUM
 CP2K                                 1  1.0    0.012    0.012  702.548  702.548
 qs_energies                          1  2.0    0.001    0.001  702.233  702.233
 scf_env_do_scf                       1  3.0    0.000    0.000  700.000  700.000
 scf_env_do_scf_inner_loop           46  4.0    0.004    0.004  674.106  674.106
 qs_ks_update_qs_env                 47  5.0    0.000    0.000  506.483  506.483
 rebuild_ks_matrix                   46  6.0    0.000    0.000  505.795  505.795
 qs_ks_build_kohn_sham_matrix        46  7.0    0.020    0.020  505.795  505.795
 calculate_vxc_atom                  46  8.0  441.809  441.809  488.136  488.136
 qs_scf_new_mos_kp                   46  5.0    0.001    0.001  164.115  164.115
 qs_scf_loop_do_ot_kp                46  6.0    0.106    0.106  164.114  164.114
 dbcsr_multiply_generic           73728  8.5    3.897    3.897   81.540   81.540
 qs_ot_get_orbitals_ref_complex    1692  7.0    0.090    0.090   51.240   51.240
 make_m2s                        147456  9.5    0.864    0.864   43.773   43.773
 ot_mini                             46  7.0    0.004    0.004   41.786   41.786
 dbcsr_finalize                  228756 10.0    4.968    4.968   36.136   36.136
 rskp_transform                    3636  6.9   36.039   36.039   36.039   36.039
 skala_atom_torch_forward           138  9.0   29.698   29.698   34.708   34.708
 cp_dbcsr_sm_fm_multiply           6624  7.0    0.087    0.087   31.839   31.839
 qs_ot_get_derivative_ref_compl    1656  8.0    0.068    0.068   31.271   31.271
 make_images                     147456 10.5   16.596   16.596   29.643   29.643
 dbcsr_merge_all                 193239 11.2   24.410   24.410   27.190   27.190
 dbcsr_complete_redistribute      38295  9.3    1.463    1.463   26.093   26.093
 init_scf_loop                        1  4.0    0.007    0.007   25.889   25.889
 copy_dbcsr_to_fm                 18029  8.2    0.171    0.171   20.282   20.282
 dbcsr_iterator_start            902050 11.4   15.917   15.917   16.190   16.190
 qs_rho_update_rho_low               48  5.0    0.001    0.001   16.094   16.094
 calculate_rho_elec                  96  6.0    0.317    0.317   15.644   15.644
 sum_up_and_integrate                46  8.0    0.002    0.002   15.462   15.462
 integrate_v_rspace                  92  9.0    0.537    0.537   15.425   15.425
 copy_fm_to_dbcsr                 20266  8.3    0.059    0.059   14.773   14.773
 -------------------------------------------------------------------------------

 The number of warnings for this run is : 2
 
 -------------------------------------------------------------------------------
  **** **** ******  **  PROGRAM ENDED AT                 2026-09-03 03:17:25.432
 ***** ** ***  *** **   PROGRAM RAN ON                                spark-c86c
 **    ****   ******    PROGRAM RAN BY                                  kuehne88
 ***** **    ** ** **   PROGRAM PROCESS ID                                751981
  **** **  *******  **  PROGRAM STOPPED IN /home/kuehne88/work/native-skala-spar
                                           k/goldzak12/runs/production-ot-invers
                                           ion-adjacent-v08-p25-20260903/product
                                           ion/hybrid-direct/AlP/v08
