 DBCSR| CPU Multiplication driver                                           BLAS (U)
 DBCSR| Multrec recursion limit                                              512 (U)
 DBCSR| Multiplication stack size                                           1000 (D)
 DBCSR| Maximum elements for images                                    UNLIMITED (U)
 DBCSR| Multiplicative factor virtual images                                   1 (U)
 DBCSR| Use multiplication densification                                       T (D)
 DBCSR| Multiplication size stacks                                             3 (U)
 DBCSR| Use memory pool for CPU allocation                                     F (U)
 DBCSR| Number of 3D layers                                               SINGLE (U)
 DBCSR| Use MPI memory allocation                                              F (U)
 DBCSR| Use RMA algorithm                                                      F (U)
 DBCSR| Use Communication thread                                               T (U)
 DBCSR| Communication thread load                                             15 (D)
 DBCSR| MPI: My process id                                                     0
 DBCSR| MPI: Number of processes                                               1
 DBCSR| OMP: Current number of threads                                        20
 DBCSR| OMP: Max number of threads                                            20
 DBCSR| Split modifier for TAS multiplication algorithm                  1.0E+00 (U)


  **** **** ******  **  PROGRAM STARTED AT               2026-09-01 02:12:15.220
 ***** ** ***  *** **   PROGRAM STARTED ON                                 terok
 **    ****   ******    PROGRAM STARTED BY                              kuehne88
 ***** **    ** ** **   PROGRAM PROCESS ID                                460518
  **** **  *******  **  PROGRAM STARTED IN /home/kuehne88/work/native-skala-tero
                                           k/goldzak12/runs/production/hybrid-on
                                           e-center/MgO/v01

 CP2K| version string:                 CP2K version 2026.2 (Development Version)
 CP2K| source code revision number:                                   c1bff3eeb8
 CP2K| cp2kflags: omp fftw3 gauxc gauxc_mpi gauxc_onedft gauxc_host parallel sca
 CP2K|            lapack mpi_f08 openblas libtorch libtorch_cuda
 CP2K| is freely available from                            https://www.cp2k.org/
 CP2K| Program compiled at                                   2026-08-24 23:53:18
 CP2K| Program compiled on                                                 terok
 CP2K| Program compiled for                                               x86_64
 CP2K| Data directory path      /home/kuehne88/work/native-skala-terok/cp2k/data
 CP2K| Input file name                                          actual-input.inp

 GLOBAL| Force Environment number                                              1
 GLOBAL| Basis set file name                             BASIS_MOLOPT_UZH_2026.2
 GLOBAL| Potential file name                                POTENTIAL_UZH_2026.2
 GLOBAL| MM Potential file name                                     MM_POTENTIAL
 GLOBAL| Coordinate file name                                      __STD_INPUT__
 GLOBAL| Method name                                                        CP2K
 GLOBAL| Project name                   G12_MgO_hybrid-one-center_v0p9000000000_
 GLOBAL| Run type                                                         ENERGY
 GLOBAL| FFT library                                                       FFTW3
 GLOBAL| Diagonalization library                                       ScaLAPACK
 GLOBAL| Cholesky decomposition library                                ScaLAPACK
 GLOBAL| DGEMM library                                                      BLAS
 GLOBAL| Direct generalized diagonalization requested                          F
 GLOBAL| Orthonormality check for eigenvectors                          DISABLED
 GLOBAL| Matrix multiplication library                                 ScaLAPACK
 GLOBAL| All-to-all communication in single precision                          F
 GLOBAL| FFTs using library dependent lengths                                  F
 GLOBAL| Grid backend                                                       AUTO
 GLOBAL| Global print level                                               MEDIUM
 GLOBAL| MPI I/O enabled                                                       T
 GLOBAL| Total number of message passing processes                             1
 GLOBAL| Number of distributed systems (nodes)                                 1
 GLOBAL| Number of threads for this process                                   20
 GLOBAL| This output is from process                                           0
 GLOBAL| OpenMP stack size per thread (OMP_STACKSIZE)                       512M
 GLOBAL| CPU model name                                       AMD EPYC Processor

 MEMORY| system memory details [Kb]
 MEMORY|                        rank 0           min           max       average
 MEMORY| MemTotal            528104844     528104844     528104844     528104844
 MEMORY| MemFree             321834664     321834664     321834664     321834664
 MEMORY| Buffers                   664           664           664           664
 MEMORY| Cached              148332068     148332068     148332068     148332068
 MEMORY| Slab                 26806312      26806312      26806312      26806312
 MEMORY| SReclaimable         22335056      22335056      22335056      22335056
 MEMORY| MemLikelyFree       492502452     492502452     492502452     492502452


 *** Fundamental physical constants (SI units) ***

 *** Literature: B. J. Mohr and B. N. Taylor,
 ***             CODATA recommended values of the fundamental physical
 ***             constants: 2006, Web Version 5.1
 ***             http://physics.nist.gov/constants

 Speed of light in vacuum [m/s]                             2.99792458000000E+08
 Magnetic constant or permeability of vacuum [N/A**2]       1.25663706143592E-06
 Electric constant or permittivity of vacuum [F/m]          8.85418781762039E-12
 Planck constant (h) [J*s]                                  6.62606896000000E-34
 Planck constant (h-bar) [J*s]                              1.05457162825177E-34
 Elementary charge [C]                                      1.60217648700000E-19
 Electron mass [kg]                                         9.10938215000000E-31
 Electron g factor [ ]                                     -2.00231930436220E+00
 Proton mass [kg]                                           1.67262163700000E-27
 Fine-structure constant                                    7.29735253760000E-03
 Rydberg constant [1/m]                                     1.09737315685270E+07
 Avogadro constant [1/mol]                                  6.02214179000000E+23
 Boltzmann constant [J/K]                                   1.38065040000000E-23
 Atomic mass unit [kg]                                      1.66053878200000E-27
 Bohr radius [m]                                            5.29177208590000E-11

 *** Conversion factors ***

 [u] -> [a.u.]                                              1.82288848426455E+03
 [Angstrom] -> [Bohr] = [a.u.]                              1.88972613288564E+00
 [a.u.] = [Bohr] -> [Angstrom]                              5.29177208590000E-01
 [a.u.] -> [s]                                              2.41888432650478E-17
 [a.u.] -> [fs]                                             2.41888432650478E-02
 [a.u.] -> [J]                                              4.35974393937059E-18
 [a.u.] -> [N]                                              8.23872205491840E-08
 [a.u.] -> [K]                                              3.15774647902944E+05
 [a.u.] -> [kJ/mol]                                         2.62549961709828E+03
 [a.u.] -> [kcal/mol]                                       6.27509468713739E+02
 [a.u.] -> [Pa]                                             2.94210107994716E+13
 [a.u.] -> [bar]                                            2.94210107994716E+08
 [a.u.] -> [atm]                                            2.90362800883016E+08
 [a.u.] -> [eV]                                             2.72113838565563E+01
 [a.u.] -> [Hz]                                             6.57968392072181E+15
 [a.u.] -> [1/cm] (wave numbers)                            2.19474631370540E+05
 [a.u./Bohr**2] -> [1/cm]                                   5.14048714338585E+03
 

 CELL| Volume [angstrom^3]:                                            66.156663
 CELL| Vector a [angstrom]:       4.044     0.000     0.000   |a| =     4.044435
 CELL| Vector b [angstrom]:       0.000     4.044     0.000   |b| =     4.044435
 CELL| Vector c [angstrom]:       0.000     0.000     4.044   |c| =     4.044435
 CELL| Angle (b,c), alpha [degree]:                                    90.000000
 CELL| Angle (a,c), beta  [degree]:                                    90.000000
 CELL| Angle (a,b), gamma [degree]:                                    90.000000
 CELL| Numerically orthorhombic:                                             YES
 CELL| Periodicity                                                           XYZ

 CELL_REF| Volume [angstrom^3]:                                        66.156663
 CELL_REF| Vector a [angstrom     4.044     0.000     0.000   |a| =     4.044435
 CELL_REF| Vector b [angstrom     0.000     4.044     0.000   |b| =     4.044435
 CELL_REF| Vector c [angstrom     0.000     0.000     4.044   |c| =     4.044435
 CELL_REF| Angle (b,c), alpha [degree]:                                90.000000
 CELL_REF| Angle (a,c), beta  [degree]:                                90.000000
 CELL_REF| Angle (a,b), gamma [degree]:                                90.000000
 CELL_REF| Numerically orthorhombic:                                         YES
 CELL_REF| Periodicity                                                       XYZ

 GENERATE|  Preliminary Number of Bonds generated:                             0
 GENERATE|  Achieved consistency in connectivity generation.

 *** WARNING in cryssym.F:203 :: Symmetry library SPGLIB not available ***


 *******************************************************************************
 *******************************************************************************
 **                                                                           **
 **     #####                         ##              ##                      **
 **    ##   ##            ##          ##              ##                      **
 **   ##     ##                       ##            ######                    **
 **   ##     ##  ##   ##  ##   #####  ##  ##   ####   ##    #####    #####    **
 **   ##     ##  ##   ##  ##  ##      ## ##   ##      ##   ##   ##  ##   ##   **
 **   ##  ## ##  ##   ##  ##  ##      ####     ###    ##   ######   ######    **
 **    ##  ###   ##   ##  ##  ##      ## ##      ##   ##   ##       ##        **
 **     #######   #####   ##   #####  ##  ##  ####    ##    #####   ##        **
 **           ##                                                    ##        **
 **                                                                           **
 **                                                ... make the atoms dance   **
 **                                                                           **
 **            Copyright (C) by CP2K developers group (2000-2026)             **
 **                      J. Chem. Phys. 152, 194103 (2020)                    **
 **                                                                           **
 *******************************************************************************

 DFT| Spin restricted Kohn-Sham (RKS) calculation                            RKS
 DFT| Multiplicity                                                             1
 DFT| Number of spin states                                                    1
 DFT| Charge                                                                   0
 DFT| Self-interaction correction (SIC)                                       NO
 DFT| Cutoffs: density                                              1.000000E-10
 DFT|          gradient                                             1.000000E-10
 DFT|          tau                                                  1.000000E-10
 DFT|          cutoff_smoothing_range                               0.000000E+00
 DFT| XC density smoothing                                                  NONE
 DFT| XC derivatives                                                          PW

 FUNCTIONAL| GAUXC:
 FUNCTIONAL| Functional computed by GauXC Skala model SKALA                     

 vdW POTENTIAL|                                                   Pair Potential
 vdW POTENTIAL|          DFT-D3 (Version 3.1)
 vdW POTENTIAL|          Potential Form: S. Grimme et al, JCP 132: 154104 (2010)
 vdW POTENTIAL|          BJ Damping: S. Grimme et al, JCC 32: 1456 (2011)
 vdW POTENTIAL|          Cutoff Radius [Bohr]:                             37.79
 vdW POTENTIAL|          s6 Scaling Factor:                               1.0000
 vdW POTENTIAL|          a1 Damping Factor:                               0.3981
 vdW POTENTIAL|          s8 Scaling Factor:                               1.9889
 vdW POTENTIAL|          a2 Damping Factor:                               4.4211
 vdW POTENTIAL|          Cutoff for CN calculation:                   0.1000E-05

 QS| Method:                                                                GAPW
 QS| Density plane wave grid type                        NON-SPHERICAL FULLSPACE
 QS| Number of grid levels:                                                    5
 QS| Density cutoff [a.u.]:                                                400.0
 QS| Multi grid cutoff [a.u.]: 1) grid level                               400.0
 QS|                           2) grid level                               133.3
 QS|                           3) grid level                                44.4
 QS|                           4) grid level                                14.8
 QS|                           5) grid level                                 4.9
 QS| Grid level progression factor:                                          3.0
 QS| Relative density cutoff [a.u.]:                                        30.0
 QS| Interaction thresholds: eps_pgf_orb:                                1.0E-06
 QS|                         eps_filter_matrix:                          0.0E+00
 QS|                         eps_core_charge:                            1.0E-14
 QS|                         eps_rho_gspace:                             1.0E-12
 QS|                         eps_rho_rspace:                             1.0E-12
 QS|                         eps_gvg_rspace:                             1.0E-06
 QS|                         eps_ppl:                                    1.0E-02
 QS|                         eps_ppnl:                                   1.0E-08
 QS| GAPW|      XC integration using accurate scheme: Ref. exponent     6.000000
 QS| GAPW|      One center basis extended with primitives (small:s)
 QS| GAPW|                   eps_fit:                                    1.0E-04
 QS| GAPW|                   eps_iso:                                    1.0E-12
 QS| GAPW|                   eps_svd:                                    1.0E-08
 QS| GAPW|                   eps_cpc:                                    1.0E-12
 QS| GAPW|   atom-r-grid: quadrature:                                     GC_LOG
 QS| GAPW|      atom-s-grid:  max l :                                          6
 QS| GAPW|      max_l_rho0 :                                                   4


 ATOMIC KIND INFORMATION

  1. Atomic kind: Mg                                    Number of atoms:       4

     Orbital Basis Set                                  TZV2P-MOLOPT-PBE-GTH-q10

       Number of orbital shell sets:                                           1
       Number of orbital shells:                                               8
       Number of primitive Cartesian functions:                                7
       Number of Cartesian basis functions:                                   19
       Number of spherical basis functions:                                   18
       Norm type:                                                              2

       Normalised Cartesian orbitals:

                        Set   Shell   Orbital            Exponent    Coefficient

                          1       1    2s               30.665113       0.451447
                                                        12.275859       0.726075
                                                         4.272010      -0.526256
                                                         1.495769      -0.610303
                                                         0.537465      -0.133706
                                                         0.150468       0.056297
                                                         0.053463       0.038886

                          1       2    3s               30.665113       0.334492
                                                        12.275859       0.526478
                                                         4.272010      -0.362593
                                                         1.495769      -0.325293
                                                         0.537465      -0.035503
                                                         0.150468      -0.067140
                                                         0.053463      -0.027721

                          1       3    4s               30.665113      -0.099998
                                                        12.275859      -0.274466
                                                         4.272010       0.175263
                                                         1.495769      -0.432909
                                                         0.537465       0.026355
                                                         0.150468       0.323066
                                                         0.053463      -0.137249

                          1       4    5s               30.665113      -0.186629
                                                        12.275859      -0.607745
                                                         4.272010       0.356895
                                                         1.495769      -0.575877
                                                         0.537465       0.591349
                                                         0.150468      -0.004891
                                                         0.053463       0.014396

                          1       5    3px              30.665113       3.733874
                                                        12.275859       5.044435
                                                         4.272010       3.057335
                                                         1.495769       0.909074
                                                         0.537465       0.129687
                                                         0.150468       0.022899
                                                         0.053463       0.004096
                          1       5    3py              30.665113       3.733874
                                                        12.275859       5.044435
                                                         4.272010       3.057335
                                                         1.495769       0.909074
                                                         0.537465       0.129687
                                                         0.150468       0.022899
                                                         0.053463       0.004096
                          1       5    3pz              30.665113       3.733874
                                                        12.275859       5.044435
                                                         4.272010       3.057335
                                                         1.495769       0.909074
                                                         0.537465       0.129687
                                                         0.150468       0.022899
                                                         0.053463       0.004096

                          1       6    4px              30.665113       1.755132
                                                        12.275859       2.473459
                                                         4.272010       1.516219
                                                         1.495769       0.501872
                                                         0.537465      -0.010970
                                                         0.150468      -0.080635
                                                         0.053463      -0.015741
                          1       6    4py              30.665113       1.755132
                                                        12.275859       2.473459
                                                         4.272010       1.516219
                                                         1.495769       0.501872
                                                         0.537465      -0.010970
                                                         0.150468      -0.080635
                                                         0.053463      -0.015741
                          1       6    4pz              30.665113       1.755132
                                                        12.275859       2.473459
                                                         4.272010       1.516219
                                                         1.495769       0.501872
                                                         0.537465      -0.010970
                                                         0.150468      -0.080635
                                                         0.053463      -0.015741

                          1       7    5px              30.665113      -0.708806
                                                        12.275859      -1.489042
                                                         4.272010      -0.885332
                                                         1.495769      -0.583098
                                                         0.537465       0.505452
                                                         0.150468       0.075488
                                                         0.053463      -0.036487
                          1       7    5py              30.665113      -0.708806
                                                        12.275859      -1.489042
                                                         4.272010      -0.885332
                                                         1.495769      -0.583098
                                                         0.537465       0.505452
                                                         0.150468       0.075488
                                                         0.053463      -0.036487
                          1       7    5pz              30.665113      -0.708806
                                                        12.275859      -1.489042
                                                         4.272010      -0.885332
                                                         1.495769      -0.583098
                                                         0.537465       0.505452
                                                         0.150468       0.075488
                                                         0.053463      -0.036487

                          1       8    4dx2             30.665113      14.879881
                                                        12.275859      -1.842904
                                                         4.272010       0.638933
                                                         1.495769       0.185250
                                                         0.537465       0.191459
                                                         0.150468       0.039970
                                                         0.053463       0.001356
                          1       8    4dxy             30.665113      25.772709
                                                        12.275859      -3.192003
                                                         4.272010       1.106664
                                                         1.495769       0.320863
                                                         0.537465       0.331617
                                                         0.150468       0.069229
                                                         0.053463       0.002348
                          1       8    4dxz             30.665113      25.772709
                                                        12.275859      -3.192003
                                                         4.272010       1.106664
                                                         1.495769       0.320863
                                                         0.537465       0.331617
                                                         0.150468       0.069229
                                                         0.053463       0.002348
                          1       8    4dy2             30.665113      14.879881
                                                        12.275859      -1.842904
                                                         4.272010       0.638933
                                                         1.495769       0.185250
                                                         0.537465       0.191459
                                                         0.150468       0.039970
                                                         0.053463       0.001356
                          1       8    4dyz             30.665113      25.772709
                                                        12.275859      -3.192003
                                                         4.272010       1.106664
                                                         1.495769       0.320863
                                                         0.537465       0.331617
                                                         0.150468       0.069229
                                                         0.053463       0.002348
                          1       8    4dz2             30.665113      14.879881
                                                        12.275859      -1.842904
                                                         4.272010       0.638933
                                                         1.495769       0.185250
                                                         0.537465       0.191459
                                                         0.150468       0.039970
                                                         0.053463       0.001356

       Atomic covalent radius [Angstrom]:                                  1.360

       Atomic van der Waals radius [Angstrom]:                             1.730

     The atoms of this atomic kind are PAW atoms (GAPW):
       Hard Gaussian function radius:                                      1.900
       Rho0 radius:                                                        1.900
       Maximum GTO radius used for PAW projector construction:            24.566

     GAPW Soft Basis Set                           TZV2P-MOLOPT-PBE-GTH-q10_soft

       Number of orbital shell sets:                                           1
       Number of orbital shells:                                               8
       Number of primitive Cartesian functions:                                4
       Number of Cartesian basis functions:                                   19
       Number of spherical basis functions:                                   18
       Norm type:                                                              2

       Normalised Cartesian orbitals:

                        Set   Shell   Orbital            Exponent    Coefficient

                          1       1    2s                1.495769      -0.610303
                                                         0.537465      -0.133706
                                                         0.150468       0.056297
                                                         0.053463       0.038886

                          1       2    3s                1.495769      -0.325293
                                                         0.537465      -0.035503
                                                         0.150468      -0.067140
                                                         0.053463      -0.027721

                          1       3    4s                1.495769      -0.432909
                                                         0.537465       0.026355
                                                         0.150468       0.323066
                                                         0.053463      -0.137249

                          1       4    5s                1.495769      -0.575877
                                                         0.537465       0.591349
                                                         0.150468      -0.004891
                                                         0.053463       0.014396

                          1       5    3px               1.495769       0.909074
                                                         0.537465       0.129687
                                                         0.150468       0.022899
                                                         0.053463       0.004096
                          1       5    3py               1.495769       0.909074
                                                         0.537465       0.129687
                                                         0.150468       0.022899
                                                         0.053463       0.004096
                          1       5    3pz               1.495769       0.909074
                                                         0.537465       0.129687
                                                         0.150468       0.022899
                                                         0.053463       0.004096

                          1       6    4px               1.495769       0.501872
                                                         0.537465      -0.010970
                                                         0.150468      -0.080635
                                                         0.053463      -0.015741
                          1       6    4py               1.495769       0.501872
                                                         0.537465      -0.010970
                                                         0.150468      -0.080635
                                                         0.053463      -0.015741
                          1       6    4pz               1.495769       0.501872
                                                         0.537465      -0.010970
                                                         0.150468      -0.080635
                                                         0.053463      -0.015741

                          1       7    5px               1.495769      -0.583098
                                                         0.537465       0.505452
                                                         0.150468       0.075488
                                                         0.053463      -0.036487
                          1       7    5py               1.495769      -0.583098
                                                         0.537465       0.505452
                                                         0.150468       0.075488
                                                         0.053463      -0.036487
                          1       7    5pz               1.495769      -0.583098
                                                         0.537465       0.505452
                                                         0.150468       0.075488
                                                         0.053463      -0.036487

                          1       8    4dx2              1.495769       0.185250
                                                         0.537465       0.191459
                                                         0.150468       0.039970
                                                         0.053463       0.001356
                          1       8    4dxy              1.495769       0.320863
                                                         0.537465       0.331617
                                                         0.150468       0.069229
                                                         0.053463       0.002348
                          1       8    4dxz              1.495769       0.320863
                                                         0.537465       0.331617
                                                         0.150468       0.069229
                                                         0.053463       0.002348
                          1       8    4dy2              1.495769       0.185250
                                                         0.537465       0.191459
                                                         0.150468       0.039970
                                                         0.053463       0.001356
                          1       8    4dyz              1.495769       0.320863
                                                         0.537465       0.331617
                                                         0.150468       0.069229
                                                         0.053463       0.002348
                          1       8    4dz2              1.495769       0.185250
                                                         0.537465       0.191459
                                                         0.150468       0.039970
                                                         0.053463       0.001356

     GTH Potential information for                                   GTH-PBE-q10

       Description:                       Goedecker-Teter-Hutter pseudopotential
                                           Goedecker et al., PRB 54, 1703 (1996)
                                          Hartwigsen et al., PRB 58, 3641 (1998)
                                                      Krack, TCA 114, 145 (2005)

       Gaussian exponent of the core charge distribution:              13.466850
       Electronic configuration (s p d ...):                       4   6   0   0

       Parameters of the local part of the GTH pseudopotential:

                          rloc        C1          C2          C3          C4
                        0.192687  -20.567356    3.014683

       Parameters of the non-local part of the GTH pseudopotential:

                   l      r(l)      h(i,j,l)

                   0    0.141434   41.044219
                   1    0.102998   -9.980682

  2. Atomic kind: O                                     Number of atoms:       4

     Orbital Basis Set                                       TZVPP-MOLOPT-PBE-ae

       Number of orbital shell sets:                                           2
       Number of orbital shells:                                              11
       Number of primitive Cartesian functions:                               12
       Number of Cartesian basis functions:                                   36
       Number of spherical basis functions:                                   31
       Norm type:                                                              2

       Normalised Cartesian orbitals:

                        Set   Shell   Orbital            Exponent    Coefficient

                          1       1    1s            27032.341107       0.827485
                                                      4052.439160       2.350354
                                                       922.349653       2.989583
                                                       261.277359       5.859993
                                                        85.309424       4.920023
                                                        31.080802       6.525964

                          2       1    1s               62.914956       1.320675
                                                        12.309450       2.903007
                                                         4.395399       0.718493
                                                         1.335408       0.005818
                                                         0.454433       0.026241
                                                         0.148931       0.008771

                          2       2    2s               62.914956      -0.747743
                                                        12.309450      -0.053902
                                                         4.395399      -0.111917
                                                         1.335408       0.667362
                                                         0.454433       0.073646
                                                         0.148931       0.036066

                          2       3    3s               62.914956       0.182030
                                                        12.309450      -0.509964
                                                         4.395399      -0.066370
                                                         1.335408      -0.296204
                                                         0.454433       0.339134
                                                         0.148931       0.072341

                          2       4    4s               62.914956       1.590188
                                                        12.309450      -0.201401
                                                         4.395399      -0.014958
                                                         1.335408      -0.186757
                                                         0.454433      -0.327789
                                                         0.148931       0.257390

                          2       5    2px              62.914956     -23.794765
                                                        12.309450       3.872733
                                                         4.395399       2.867225
                                                         1.335408       1.487193
                                                         0.454433      -0.015509
                                                         0.148931       0.002211
                          2       5    2py              62.914956     -23.794765
                                                        12.309450       3.872733
                                                         4.395399       2.867225
                                                         1.335408       1.487193
                                                         0.454433      -0.015509
                                                         0.148931       0.002211
                          2       5    2pz              62.914956     -23.794765
                                                        12.309450       3.872733
                                                         4.395399       2.867225
                                                         1.335408       1.487193
                                                         0.454433      -0.015509
                                                         0.148931       0.002211

                          2       6    3px              62.914956      36.698597
                                                        12.309450      -1.837950
                                                         4.395399       0.441215
                                                         1.335408       0.085170
                                                         0.454433       0.481961
                                                         0.148931       0.008518
                          2       6    3py              62.914956      36.698597
                                                        12.309450      -1.837950
                                                         4.395399       0.441215
                                                         1.335408       0.085170
                                                         0.454433       0.481961
                                                         0.148931       0.008518
                          2       6    3pz              62.914956      36.698597
                                                        12.309450      -1.837950
                                                         4.395399       0.441215
                                                         1.335408       0.085170
                                                         0.454433       0.481961
                                                         0.148931       0.008518

                          2       7    4px              62.914956     -10.152534
                                                        12.309450       0.600610
                                                         4.395399      -0.295522
                                                         1.335408      -0.042535
                                                         0.454433      -0.034294
                                                         0.148931       0.138320
                          2       7    4py              62.914956     -10.152534
                                                        12.309450       0.600610
                                                         4.395399      -0.295522
                                                         1.335408      -0.042535
                                                         0.454433      -0.034294
                                                         0.148931       0.138320
                          2       7    4pz              62.914956     -10.152534
                                                        12.309450       0.600610
                                                         4.395399      -0.295522
                                                         1.335408      -0.042535
                                                         0.454433      -0.034294
                                                         0.148931       0.138320

                          2       8    3dx2             62.914956     245.407483
                                                        12.309450      -3.718320
                                                         4.395399      13.187048
                                                         1.335408       1.177796
                                                         0.454433       0.037044
                                                         0.148931       0.011799
                          2       8    3dxy             62.914956     425.058229
                                                        12.309450      -6.440319
                                                         4.395399      22.840637
                                                         1.335408       2.040003
                                                         0.454433       0.064161
                                                         0.148931       0.020436
                          2       8    3dxz             62.914956     425.058229
                                                        12.309450      -6.440319
                                                         4.395399      22.840637
                                                         1.335408       2.040003
                                                         0.454433       0.064161
                                                         0.148931       0.020436
                          2       8    3dy2             62.914956     245.407483
                                                        12.309450      -3.718320
                                                         4.395399      13.187048
                                                         1.335408       1.177796
                                                         0.454433       0.037044
                                                         0.148931       0.011799
                          2       8    3dyz             62.914956     425.058229
                                                        12.309450      -6.440319
                                                         4.395399      22.840637
                                                         1.335408       2.040003
                                                         0.454433       0.064161
                                                         0.148931       0.020436
                          2       8    3dz2             62.914956     245.407483
                                                        12.309450      -3.718320
                                                         4.395399      13.187048
                                                         1.335408       1.177796
                                                         0.454433       0.037044
                                                         0.148931       0.011799

                          2       9    4dx2             62.914956    -198.939864
                                                        12.309450       6.262545
                                                         4.395399      -7.656182
                                                         1.335408       1.062793
                                                         0.454433       0.341143
                                                         0.148931      -0.006399
                          2       9    4dxy             62.914956    -344.573952
                                                        12.309450      10.847045
                                                         4.395399     -13.260897
                                                         1.335408       1.840811
                                                         0.454433       0.590877
                                                         0.148931      -0.011084
                          2       9    4dxz             62.914956    -344.573952
                                                        12.309450      10.847045
                                                         4.395399     -13.260897
                                                         1.335408       1.840811
                                                         0.454433       0.590877
                                                         0.148931      -0.011084
                          2       9    4dy2             62.914956    -198.939864
                                                        12.309450       6.262545
                                                         4.395399      -7.656182
                                                         1.335408       1.062793
                                                         0.454433       0.341143
                                                         0.148931      -0.006399
                          2       9    4dyz             62.914956    -344.573952
                                                        12.309450      10.847045
                                                         4.395399     -13.260897
                                                         1.335408       1.840811
                                                         0.454433       0.590877
                                                         0.148931      -0.011084
                          2       9    4dz2             62.914956    -198.939864
                                                        12.309450       6.262545
                                                         4.395399      -7.656182
                                                         1.335408       1.062793
                                                         0.454433       0.341143
                                                         0.148931      -0.006399

                          2      10    4fx3             62.914956       4.775823
                                                        12.309450      16.622131
                                                         4.395399      -5.031344
                                                         1.335408       2.406605
                                                         0.454433       0.066745
                                                         0.148931       0.001654
                          2      10    4fx2y            62.914956      10.679066
                                                        12.309450      37.168214
                                                         4.395399     -11.250428
                                                         1.335408       5.381333
                                                         0.454433       0.149247
                                                         0.148931       0.003699
                          2      10    4fx2z            62.914956      10.679066
                                                        12.309450      37.168214
                                                         4.395399     -11.250428
                                                         1.335408       5.381333
                                                         0.454433       0.149247
                                                         0.148931       0.003699
                          2      10    4fxy2            62.914956      10.679066
                                                        12.309450      37.168214
                                                         4.395399     -11.250428
                                                         1.335408       5.381333
                                                         0.454433       0.149247
                                                         0.148931       0.003699
                          2      10    4fxyz            62.914956      18.496684
                                                        12.309450      64.377235
                                                         4.395399     -19.486313
                                                         1.335408       9.320743
                                                         0.454433       0.258503
                                                         0.148931       0.006406
                          2      10    4fxz2            62.914956      10.679066
                                                        12.309450      37.168214
                                                         4.395399     -11.250428
                                                         1.335408       5.381333
                                                         0.454433       0.149247
                                                         0.148931       0.003699
                          2      10    4fy3             62.914956       4.775823
                                                        12.309450      16.622131
                                                         4.395399      -5.031344
                                                         1.335408       2.406605
                                                         0.454433       0.066745
                                                         0.148931       0.001654
                          2      10    4fy2z            62.914956      10.679066
                                                        12.309450      37.168214
                                                         4.395399     -11.250428
                                                         1.335408       5.381333
                                                         0.454433       0.149247
                                                         0.148931       0.003699
                          2      10    4fyz2            62.914956      10.679066
                                                        12.309450      37.168214
                                                         4.395399     -11.250428
                                                         1.335408       5.381333
                                                         0.454433       0.149247
                                                         0.148931       0.003699
                          2      10    4fz3             62.914956       4.775823
                                                        12.309450      16.622131
                                                         4.395399      -5.031344
                                                         1.335408       2.406605
                                                         0.454433       0.066745
                                                         0.148931       0.001654

       Atomic covalent radius [Angstrom]:                                  0.730

       Atomic van der Waals radius [Angstrom]:                             1.520

     The atoms of this atomic kind are PAW atoms (GAPW):
       Hard Gaussian function radius:                                      1.400
       Rho0 radius:                                                        1.400
       Maximum GTO radius used for PAW projector construction:            24.566

     GAPW Soft Basis Set                                TZVPP-MOLOPT-PBE-ae_soft

       Number of orbital shell sets:                                           2
       Number of orbital shells:                                              11
       Number of primitive Cartesian functions:                                4
       Number of Cartesian basis functions:                                   36
       Number of spherical basis functions:                                   31
       Norm type:                                                              2

       Normalised Cartesian orbitals:

                        Set   Shell   Orbital            Exponent    Coefficient

                          1       1    1s         

                          2       1    1s                4.395399       0.718493
                                                         1.335408       0.005818
                                                         0.454433       0.026241
                                                         0.148931       0.008771

                          2       2    2s                4.395399      -0.111917
                                                         1.335408       0.667362
                                                         0.454433       0.073646
                                                         0.148931       0.036066

                          2       3    3s                4.395399      -0.066370
                                                         1.335408      -0.296204
                                                         0.454433       0.339134
                                                         0.148931       0.072341

                          2       4    4s                4.395399      -0.014958
                                                         1.335408      -0.186757
                                                         0.454433      -0.327789
                                                         0.148931       0.257390

                          2       5    2px               4.395399       2.867225
                                                         1.335408       1.487193
                                                         0.454433      -0.015509
                                                         0.148931       0.002211
                          2       5    2py               4.395399       2.867225
                                                         1.335408       1.487193
                                                         0.454433      -0.015509
                                                         0.148931       0.002211
                          2       5    2pz               4.395399       2.867225
                                                         1.335408       1.487193
                                                         0.454433      -0.015509
                                                         0.148931       0.002211

                          2       6    3px               4.395399       0.441215
                                                         1.335408       0.085170
                                                         0.454433       0.481961
                                                         0.148931       0.008518
                          2       6    3py               4.395399       0.441215
                                                         1.335408       0.085170
                                                         0.454433       0.481961
                                                         0.148931       0.008518
                          2       6    3pz               4.395399       0.441215
                                                         1.335408       0.085170
                                                         0.454433       0.481961
                                                         0.148931       0.008518

                          2       7    4px               4.395399      -0.295522
                                                         1.335408      -0.042535
                                                         0.454433      -0.034294
                                                         0.148931       0.138320
                          2       7    4py               4.395399      -0.295522
                                                         1.335408      -0.042535
                                                         0.454433      -0.034294
                                                         0.148931       0.138320
                          2       7    4pz               4.395399      -0.295522
                                                         1.335408      -0.042535
                                                         0.454433      -0.034294
                                                         0.148931       0.138320

                          2       8    3dx2              4.395399      13.187048
                                                         1.335408       1.177796
                                                         0.454433       0.037044
                                                         0.148931       0.011799
                          2       8    3dxy              4.395399      22.840637
                                                         1.335408       2.040003
                                                         0.454433       0.064161
                                                         0.148931       0.020436
                          2       8    3dxz              4.395399      22.840637
                                                         1.335408       2.040003
                                                         0.454433       0.064161
                                                         0.148931       0.020436
                          2       8    3dy2              4.395399      13.187048
                                                         1.335408       1.177796
                                                         0.454433       0.037044
                                                         0.148931       0.011799
                          2       8    3dyz              4.395399      22.840637
                                                         1.335408       2.040003
                                                         0.454433       0.064161
                                                         0.148931       0.020436
                          2       8    3dz2              4.395399      13.187048
                                                         1.335408       1.177796
                                                         0.454433       0.037044
                                                         0.148931       0.011799

                          2       9    4dx2              4.395399      -7.656182
                                                         1.335408       1.062793
                                                         0.454433       0.341143
                                                         0.148931      -0.006399
                          2       9    4dxy              4.395399     -13.260897
                                                         1.335408       1.840811
                                                         0.454433       0.590877
                                                         0.148931      -0.011084
                          2       9    4dxz              4.395399     -13.260897
                                                         1.335408       1.840811
                                                         0.454433       0.590877
                                                         0.148931      -0.011084
                          2       9    4dy2              4.395399      -7.656182
                                                         1.335408       1.062793
                                                         0.454433       0.341143
                                                         0.148931      -0.006399
                          2       9    4dyz              4.395399     -13.260897
                                                         1.335408       1.840811
                                                         0.454433       0.590877
                                                         0.148931      -0.011084
                          2       9    4dz2              4.395399      -7.656182
                                                         1.335408       1.062793
                                                         0.454433       0.341143
                                                         0.148931      -0.006399

                          2      10    4fx3              4.395399      -5.031344
                                                         1.335408       2.406605
                                                         0.454433       0.066745
                                                         0.148931       0.001654
                          2      10    4fx2y             4.395399     -11.250428
                                                         1.335408       5.381333
                                                         0.454433       0.149247
                                                         0.148931       0.003699
                          2      10    4fx2z             4.395399     -11.250428
                                                         1.335408       5.381333
                                                         0.454433       0.149247
                                                         0.148931       0.003699
                          2      10    4fxy2             4.395399     -11.250428
                                                         1.335408       5.381333
                                                         0.454433       0.149247
                                                         0.148931       0.003699
                          2      10    4fxyz             4.395399     -19.486313
                                                         1.335408       9.320743
                                                         0.454433       0.258503
                                                         0.148931       0.006406
                          2      10    4fxz2             4.395399     -11.250428
                                                         1.335408       5.381333
                                                         0.454433       0.149247
                                                         0.148931       0.003699
                          2      10    4fy3              4.395399      -5.031344
                                                         1.335408       2.406605
                                                         0.454433       0.066745
                                                         0.148931       0.001654
                          2      10    4fy2z             4.395399     -11.250428
                                                         1.335408       5.381333
                                                         0.454433       0.149247
                                                         0.148931       0.003699
                          2      10    4fyz2             4.395399     -11.250428
                                                         1.335408       5.381333
                                                         0.454433       0.149247
                                                         0.148931       0.003699
                          2      10    4fz3              4.395399      -5.031344
                                                         1.335408       2.406605
                                                         0.454433       0.066745
                                                         0.148931       0.001654

     AE Potential information for                                            ALL

       Description:                                       All-electron potential
                                          Krack, Parrinello, PCCP 2, 2105 (2000)

       Gaussian exponent of the core charge distribution:               8.154466
       Electronic configuration (s p d ...):                           4   4   0


 MOLECULE KIND INFORMATION


 All atoms are their own molecule, skipping detailed information


 TOTAL NUMBERS AND MAXIMUM NUMBERS

  Total number of            - Atomic kinds:                                   2
                             - Atoms:                                          8
                             - Shell sets:                                    12
                             - Shells:                                        76
                             - Primitive Cartesian functions:                 76
                             - Cartesian basis functions:                    220
                             - Spherical basis functions:                    196

  Maximum angular momentum of- Orbital basis functions:                        3
                             - Local part of the GTH pseudopotential:          2
                             - Non-local part of the GTH pseudopotential:      1


 MODULE QUICKSTEP: ATOMIC COORDINATES IN ANGSTROM

   Atom Kind Element         X             Y             Z       Z(eff)     Mass
      1    1 Mg   12      0.000000      0.000000      0.000000  10.0000  24.3050
      2    1 Mg   12      0.000000      2.022218      2.022218  10.0000  24.3050
      3    1 Mg   12      2.022218      0.000000      2.022218  10.0000  24.3050
      4    1 Mg   12      2.022218      2.022218      0.000000  10.0000  24.3050
      5    2 O     8      2.022218      0.000000      0.000000   8.0000  15.9994
      6    2 O     8      0.000000      2.022218      0.000000   8.0000  15.9994
      7    2 O     8      0.000000      0.000000      2.022218   8.0000  15.9994
      8    2 O     8      2.022218      2.022218      2.022218   8.0000  15.9994



 SCF PARAMETERS         Density guess:                                    ATOMIC
                        --------------------------------------------------------
                        max_scf:                                             200
                        max_scf_history:                                       0
                        max_diis:                                              4
                        --------------------------------------------------------
                        eps_scf:                                        5.00E-06
                        eps_scf_history:                                0.00E+00
                        eps_diis:                                       1.00E-01
                        eps_eigval:                                     1.00E-05
                        --------------------------------------------------------
                        level_shift [a.u.]:                             0.000000
                        --------------------------------------------------------
                        Mixing method:                           DIRECT_P_MIXING
                        --------------------------------------------------------
                        Outer loop SCF in use 
                        No variables optimised in outer loop
                        eps_scf                                         5.00E-06
                        max_scf                                                5
                        No outer loop optimization
                        step_size                                       5.00E-01

 PW_GRID| Information for grid number                                          1
 PW_GRID| Cutoff [a.u.]                                                    400.0
 PW_GRID| spherical cutoff:                                                   NO
 PW_GRID|   Bounds   1            -36      35                Points:          72
 PW_GRID|   Bounds   2            -36      35                Points:          72
 PW_GRID|   Bounds   3            -36      35                Points:          72
 PW_GRID| Volume element (a.u.^3)  0.1196E-02     Volume (a.u.^3)       446.4473
 PW_GRID| Grid span                                                    FULLSPACE

 PW_GRID| Information for grid number                                          2
 PW_GRID| Number of the reference grid                                         1
 PW_GRID| Cutoff [a.u.]                                                    133.3
 PW_GRID| spherical cutoff:                                                   NO
 PW_GRID|   Bounds   1            -20      19                Points:          40
 PW_GRID|   Bounds   2            -20      19                Points:          40
 PW_GRID|   Bounds   3            -20      19                Points:          40
 PW_GRID| Volume element (a.u.^3)  0.6976E-02     Volume (a.u.^3)       446.4473
 PW_GRID| Grid span                                                    FULLSPACE

 PW_GRID| Information for grid number                                          3
 PW_GRID| Number of the reference grid                                         1
 PW_GRID| Cutoff [a.u.]                                                     44.4
 PW_GRID| spherical cutoff:                                                   NO
 PW_GRID|   Bounds   1            -12      11                Points:          24
 PW_GRID|   Bounds   2            -12      11                Points:          24
 PW_GRID|   Bounds   3            -12      11                Points:          24
 PW_GRID| Volume element (a.u.^3)  0.3230E-01     Volume (a.u.^3)       446.4473
 PW_GRID| Grid span                                                    FULLSPACE

 PW_GRID| Information for grid number                                          4
 PW_GRID| Number of the reference grid                                         1
 PW_GRID| Cutoff [a.u.]                                                     14.8
 PW_GRID| spherical cutoff:                                                   NO
 PW_GRID|   Bounds   1             -7       7                Points:          15
 PW_GRID|   Bounds   2             -7       7                Points:          15
 PW_GRID|   Bounds   3             -7       7                Points:          15
 PW_GRID| Volume element (a.u.^3)  0.1323         Volume (a.u.^3)       446.4473
 PW_GRID| Grid span                                                    FULLSPACE

 PW_GRID| Information for grid number                                          5
 PW_GRID| Number of the reference grid                                         1
 PW_GRID| Cutoff [a.u.]                                                      4.9
 PW_GRID| spherical cutoff:                                                   NO
 PW_GRID|   Bounds   1             -4       3                Points:           8
 PW_GRID|   Bounds   2             -4       3                Points:           8
 PW_GRID|   Bounds   3             -4       3                Points:           8
 PW_GRID| Volume element (a.u.^3)  0.8720         Volume (a.u.^3)       446.4473
 PW_GRID| Grid span                                                    FULLSPACE

 POISSON| Solver                                                        PERIODIC
 POISSON| Periodicity                                                        XYZ

 RS_GRID| Information for grid number                                          1
 RS_GRID|   Bounds   1            -36      35                Points:          72
 RS_GRID|   Bounds   2            -36      35                Points:          72
 RS_GRID|   Bounds   3            -36      35                Points:          72

 RS_GRID| Information for grid number                                          2
 RS_GRID|   Bounds   1            -20      19                Points:          40
 RS_GRID|   Bounds   2            -20      19                Points:          40
 RS_GRID|   Bounds   3            -20      19                Points:          40

 RS_GRID| Information for grid number                                          3
 RS_GRID|   Bounds   1            -12      11                Points:          24
 RS_GRID|   Bounds   2            -12      11                Points:          24
 RS_GRID|   Bounds   3            -12      11                Points:          24

 RS_GRID| Information for grid number                                          4
 RS_GRID|   Bounds   1             -7       7                Points:          15
 RS_GRID|   Bounds   2             -7       7                Points:          15
 RS_GRID|   Bounds   3             -7       7                Points:          15

 RS_GRID| Information for grid number                                          5
 RS_GRID|   Bounds   1             -4       3                Points:           8
 RS_GRID|   Bounds   2             -4       3                Points:           8
 RS_GRID|   Bounds   3             -4       3                Points:           8

 *******************************************************************************
                                    Kpoints
 *******************************************************************************
 BRILLOUIN| K-point scheme                                        Monkhorst-Pack
 BRILLOUIN| K-Point grid                                             6    6    6
 BRILLOUIN| Gamma-centered k-point mesh                                     ON
 BRILLOUIN| K-point symmetry accuracy                               0.100000E-07
 BRILLOUIN| K-Point point group symmetrization                                ON
 BRILLOUIN| Symmetry backend                                               K290
 BRILLOUIN| Symmetry reduction method                                      K290
 BRILLOUIN| Wavefunction type                                            COMPLEX
 BRILLOUIN| List of Kpoints [2 Pi/Bohr]                                       20
 BRILLOUIN| Number           Weight            X              Y              Z
 BRILLOUIN|     1           0.03704       -0.33333       -0.33333       -0.33333
 BRILLOUIN|     2           0.11111       -0.33333       -0.33333       -0.16667
 BRILLOUIN|     3           0.05556       -0.33333       -0.33333        0.00000
 BRILLOUIN|     4           0.05556       -0.33333       -0.33333        0.50000
 BRILLOUIN|     5           0.11111       -0.33333       -0.16667       -0.16667
 BRILLOUIN|     6           0.11111       -0.33333       -0.16667        0.00000
 BRILLOUIN|     7           0.11111       -0.33333       -0.16667        0.50000
 BRILLOUIN|     8           0.02778       -0.33333        0.00000        0.00000
 BRILLOUIN|     9           0.05556       -0.33333        0.00000        0.50000
 BRILLOUIN|    10           0.02778       -0.33333        0.50000        0.50000
 BRILLOUIN|    11           0.03704       -0.16667       -0.16667       -0.16667
 BRILLOUIN|    12           0.05556       -0.16667       -0.16667        0.00000
 BRILLOUIN|    13           0.05556       -0.16667       -0.16667        0.50000
 BRILLOUIN|    14           0.02778       -0.16667        0.00000        0.00000
 BRILLOUIN|    15           0.05556       -0.16667        0.00000        0.50000
 BRILLOUIN|    16           0.02778       -0.16667        0.50000        0.50000
 BRILLOUIN|    17           0.00463        0.00000        0.00000        0.00000
 BRILLOUIN|    18           0.01389        0.00000        0.00000        0.50000
 BRILLOUIN|    19           0.01389        0.00000        0.50000        0.50000
 BRILLOUIN|    20           0.00463        0.50000        0.50000        0.50000
 *******************************************************************************

 Extrapolation method: initial_guess

 Atomic guess: The first density matrix is obtained in terms of atomic orbitals
               and electronic configurations assigned to each atomic kind

 Guess for atomic kind: Mg

 Electronic structure
    Total number of core electrons                                          2.00
    Total number of valence electrons                                      10.00
    Total number of electrons                                              12.00
    Multiplicity                                                   not specified
    S   [  2.00] 2.00  2.00
    P      6.00


 *******************************************************************************
                  Iteration          Convergence                     Energy [au]
 *******************************************************************************
                          1        0.890996                     -62.893242442572
                          2        0.435602                     -62.942740074711
                          3        0.623800E-02                 -62.962495104531
                          4        0.154674E-03                 -62.962503557557
                          5        0.119023E-05                 -62.962503576840
                          6        0.640022E-06                 -62.962503576840

 Energy components [Hartree]           Total Energy ::          -62.962503576840
                                        Band Energy ::          -16.164473040271
                                     Kinetic Energy ::           51.482004292917
                                   Potential Energy ::         -114.444507869757
                                      Virial (-V/T) ::            2.223000239435
                                        Core Energy ::         -104.129008124597
                                          XC Energy ::           -8.236629339440
                                     Coulomb Energy ::           49.403133887197
                       Total Pseudopotential Energy ::         -155.671792991532
                       Local Pseudopotential Energy ::         -154.786636564434
                    Nonlocal Pseudopotential Energy ::           -0.885156427097
                                        Confinement ::            0.607805740181

 Orbital energies  State     L     Occupation   Energy[a.u.]          Energy[eV]

                       1     0          2.000      -2.899238          -78.892265
                       2     0          2.000      -0.140551           -3.824595

                       1     1          6.000      -1.680816          -45.737327


 Total Electron Density at R=0:                                         0.001681

 Guess for atomic kind: O

 Electronic structure
    Total number of core electrons                                          0.00
    Total number of valence electrons                                       8.00
    Total number of electrons                                               8.00
    Multiplicity                                                   not specified
    S      2.00  2.00
    P      4.00


 *******************************************************************************
                  Iteration          Convergence                     Energy [au]
 *******************************************************************************
                          1        0.852480                     -74.332672756082
                          2        0.822104                     -74.327611038196
                          3        0.503433E-01                 -74.437825052376
                          4        0.180131E-02                 -74.438232362009
                          5        0.615789E-04                 -74.438232811716
                          6        0.162343E-05                 -74.438232812301
                          7        0.619766E-06                 -74.438232812301

 Energy components [Hartree]           Total Energy ::          -74.438232812301
                                        Band Energy ::          -40.686258539781
                                     Kinetic Energy ::           74.021280552072
                                   Potential Energy ::         -148.459513364373
                                      Virial (-V/T) ::            2.005632870130
                                        Core Energy ::         -102.906048127742
                                          XC Energy ::           -7.749500989531
                                     Coulomb Energy ::           36.217316304971

 Orbital energies  State     L     Occupation   Energy[a.u.]          Energy[eV]

                       1     0          2.000     -18.777544         -510.962961
                       2     0          2.000      -0.872213          -23.734118

                       1     1          4.000      -0.346686           -9.433811


 Total Electron Density at R=0:                                       296.401580
 Re-scaling the density matrix to get the right number of electrons
                  # Electrons              Trace(P)               Scaling factor
                           72                72.000                        1.000

 Number of electrons:                                                         72
 Number of occupied orbitals:                                                 36
 Number of molecular orbitals:                                                36

 Number of orbital functions:                                                196
 Number of independent orbital functions:                                    196


 SCF WAVEFUNCTION OPTIMIZATION

  Step     Update method      Time    Convergence         Total energy    Change
  ------------------------------------------------------------------------------

 *** WARNING in qs_ks_methods.F:773 :: Native SKALA grid evaluation with   ***
 *** k-points is using the CPU TorchScript path. Use a mutually compatible ***
 *** BLAS, ScaLAPACK, OpenMP, and LibTorch runtime stack, or select        ***
 *** NATIVE_GRID_USE_CUDA T.                                               ***

 SKALA_GPW| Atom-composite cross support/maxima   2.797827671472E+00   1.428526713134E+02   1.416840143701E+03   4.371828518303E+03
 SKALA_GPW| Active atom-composite XC energy  -6.8614398101894935E+01
 SKALA_GPW| Active atom-composite electrons   7.2046309904935924E+01
 SKALA_GPW| Active atom-composite density range   3.4844351344746061E-03   1.4820769899784486E+02
 SKALA_GPW| Active atom-composite tau range   3.0961737558807528E-03   4.4383606561618808E+03
 SKALA_GPW| Active atom-composite tau integral   5.0204247791062068E+02
 SKALA_GPW| Active atom-composite max gradient   2.1983162695045285E+03
     1 P_Mix/Diag. 0.10E+00  772.0     0.67789990      -556.9664087530 -5.57E+02
 SKALA_GPW| Atom-composite cross support/maxima   2.797827671472E+00   1.431351933570E+02   1.422756567198E+03   4.398949684587E+03
 SKALA_GPW| Active atom-composite XC energy  -6.8835719807031438E+01
 SKALA_GPW| Active atom-composite electrons   7.2044671356526933E+01
 SKALA_GPW| Active atom-composite density range   3.1626423485739963E-03   1.4851026664723926E+02
 SKALA_GPW| Active atom-composite tau range   3.0732986097510751E-03   4.4659475748086643E+03
 SKALA_GPW| Active atom-composite tau integral   5.0372028727271328E+02
 SKALA_GPW| Active atom-composite max gradient   2.2072949264388944E+03
     2 P_Mix/Diag. 0.10E+00  747.2     0.60891662      -556.7798491948  1.87E-01
 SKALA_GPW| Atom-composite cross support/maxima   2.797827671472E+00   1.433712914975E+02   1.427898977594E+03   4.422591599006E+03
 SKALA_GPW| Active atom-composite XC energy  -6.9011485827593219E+01
 SKALA_GPW| Active atom-composite electrons   7.2043345662668031E+01
 SKALA_GPW| Active atom-composite density range   2.8723873230476205E-03   1.4876347954798189E+02
 SKALA_GPW| Active atom-composite tau range   3.0769902882039424E-03   4.4899523985888927E+03
 SKALA_GPW| Active atom-composite tau integral   5.0500991299969439E+02
 SKALA_GPW| Active atom-composite max gradient   2.2150929873403802E+03
     3 P_Mix/Diag. 0.10E+00  747.3     0.57143802      -556.6022578601  1.78E-01
 SKALA_GPW| Atom-composite cross support/maxima   2.797827671472E+00   1.435702543810E+02   1.432392966270E+03   4.443304753576E+03
 SKALA_GPW| Active atom-composite XC energy  -6.9150310677584713E+01
 SKALA_GPW| Active atom-composite electrons   7.2042272194687143E+01
 SKALA_GPW| Active atom-composite density range   2.6104526568621056E-03   1.4897715821221064E+02
 SKALA_GPW| Active atom-composite tau range   3.1002045302462693E-03   4.5109498679812459E+03
 SKALA_GPW| Active atom-composite tau integral   5.0600397474896977E+02
 SKALA_GPW| Active atom-composite max gradient   2.2219031311034278E+03
     4 P_Mix/Diag. 0.10E+00  759.4     0.52409820      -556.4367349819  1.66E-01
 SKALA_GPW| Atom-composite cross support/maxima   2.797827671472E+00   1.437393529801E+02   1.436340389621E+03   4.461538106569E+03
 SKALA_GPW| Active atom-composite XC energy  -6.9259692238225213E+01
 SKALA_GPW| Active atom-composite electrons   7.2041400804706086E+01
 SKALA_GPW| Active atom-composite density range   2.3740356916800431E-03   1.4915899642438777E+02
 SKALA_GPW| Active atom-composite tau range   3.1371240462671223E-03   4.5294074769267090E+03
 SKALA_GPW| Active atom-composite tau integral   5.0677307022553356E+02
 SKALA_GPW| Active atom-composite max gradient   2.2278814532478787E+03
     5 P_Mix/Diag. 0.10E+00  761.0     0.47932177      -556.2844342758  1.52E-01
 SKALA_GPW| Atom-composite cross support/maxima   2.797827671472E+00   1.438842715672E+02   1.439823772927E+03   4.477657122725E+03
 SKALA_GPW| Active atom-composite XC energy  -6.9345862414989639E+01
 SKALA_GPW| Active atom-composite electrons   7.2040690987612507E+01
 SKALA_GPW| Active atom-composite density range   2.1606558959024191E-03   1.4931501419260033E+02
 SKALA_GPW| Active atom-composite tau range   3.1830796509838589E-03   4.5457047988572103E+03
 SKALA_GPW| Active atom-composite tau integral   5.0737084342864654E+02
 SKALA_GPW| Active atom-composite max gradient   2.2331542920282191E+03
     6 P_Mix/Diag. 0.10E+00  742.9     0.44959982      -556.1454107731  1.39E-01
 SKALA_GPW| Atom-composite cross support/maxima   2.797827671472E+00   1.440094652099E+02   1.442910394855E+03   4.491961250119E+03
 SKALA_GPW| Active atom-composite XC energy  -6.9413899581003776E+01
 SKALA_GPW| Active atom-composite electrons   7.2040110095052668E+01
 SKALA_GPW| Active atom-composite density range   1.9680990659606268E-03   1.4944993458712290E+02
 SKALA_GPW| Active atom-composite tau range   3.2343800207069017E-03   4.5601520258395249E+03
 SKALA_GPW| Active atom-composite tau integral   5.0783799451104500E+02
 SKALA_GPW| Active atom-composite max gradient   2.2378245304360680E+03
     7 P_Mix/Diag. 0.10E+00  758.2     0.42110259      -556.0191556500  1.26E-01
 SKALA_GPW| Atom-composite cross support/maxima   2.797827671472E+00   1.441184311168E+02   1.445655492270E+03   4.504697751697E+03
 SKALA_GPW| Active atom-composite XC energy  -6.9467872906026756E+01
 SKALA_GPW| Active atom-composite electrons   7.2039631821254531E+01
 SKALA_GPW| Active atom-composite density range   1.7943702712360787E-03   1.4956746988335513E+02
 SKALA_GPW| Active atom-composite tau range   3.2881864781610839E-03   4.5730045840615021E+03
 SKALA_GPW| Active atom-composite tau integral   5.0820541537975964E+02
 SKALA_GPW| Active atom-composite max gradient   2.2419765344726725E+03
     8 P_Mix/Diag. 0.10E+00  740.7     0.39311848      -555.9048817663  1.14E-01
 SKALA_GPW| Atom-composite cross support/maxima   2.797827671472E+00   1.442139204063E+02   1.448104669354E+03   4.516071921451E+03
 SKALA_GPW| Active atom-composite XC energy  -6.9510980168129549E+01
 SKALA_GPW| Active atom-composite electrons   7.2039235165889139E+01
 SKALA_GPW| Active atom-composite density range   1.6376604417320806E-03   1.4967054457173467E+02
 SKALA_GPW| Active atom-composite tau range   3.3424007290069786E-03   4.5844739490275406E+03
 SKALA_GPW| Active atom-composite tau integral   5.0849651360363509E+02
 SKALA_GPW| Active atom-composite max gradient   2.2456798709995987E+03
     9 P_Mix/Diag. 0.10E+00  747.7     0.36566608      -555.8016803349  1.03E-01
 SKALA_GPW| Atom-composite cross support/maxima   2.797827671472E+00   1.442981046120E+02   1.450295785961E+03   4.526255075924E+03
 SKALA_GPW| Active atom-composite XC energy  -6.9545690915529462E+01
 SKALA_GPW| Active atom-composite electrons   7.2038903575035320E+01
 SKALA_GPW| Active atom-composite density range   1.4963247590799034E-03   1.4976147062548557E+02
 SKALA_GPW| Active atom-composite tau range   3.3955428237818592E-03   4.5947361017969761E+03
 SKALA_GPW| Active atom-composite tau integral   5.0872899383597803E+02
 SKALA_GPW| Active atom-composite max gradient   2.2489922222192567E+03
    10 P_Mix/Diag. 0.10E+00  738.5     0.33901492      -555.7086097168  9.31E-02
 SKALA_GPW| Atom-composite cross support/maxima   2.797827671472E+00   1.443727081383E+02   1.452260500155E+03   4.535391143646E+03
 SKALA_GPW| Active atom-composite XC energy  -6.9573892381383217E+01
 SKALA_GPW| Active atom-composite electrons   7.2038624119040733E+01
 SKALA_GPW| Active atom-composite density range   1.3688685007315904E-03   1.4984208701581122E+02
 SKALA_GPW| Active atom-composite tau range   3.4466236793202236E-03   4.6039384852670946E+03
 SKALA_GPW| Active atom-composite tau integral   5.0891623801504630E+02
 SKALA_GPW| Active atom-composite max gradient   2.2519617639701205E+03
    11 P_Mix/Diag. 0.10E+00  733.8     0.31344552      -555.6247493855  8.39E-02
 SKALA_GPW| Atom-composite cross support/maxima   2.797827671472E+00   1.444391124724E+02   1.454025514458E+03   4.543602034675E+03
 SKALA_GPW| Active atom-composite XC energy  -6.9597020771087813E+01
 SKALA_GPW| Active atom-composite electrons   7.2038386736355577E+01
 SKALA_GPW| Active atom-composite density range   1.2539358599451544E-03   1.4991386955807607E+02
 SKALA_GPW| Active atom-composite tau range   3.4950263342538820E-03   4.6122056610459067E+03
 SKALA_GPW| Active atom-composite tau integral   5.0906836882871562E+02
 SKALA_GPW| Active atom-composite max gradient   2.2546290852235484E+03
    12 P_Mix/Diag. 0.10E+00  753.9     0.28916570      -555.5492299635  7.55E-02
 SKALA_GPW| Atom-composite cross support/maxima   2.797827671472E+00   1.444984362706E+02   1.455613559773E+03   4.550991913768E+03
 SKALA_GPW| Active atom-composite XC energy  -6.9616167122717499E+01
 SKALA_GPW| Active atom-composite electrons   7.2038183591079189E+01
 SKALA_GPW| Active atom-composite density range   1.1502993136586204E-03   1.4997801538459430E+02
 SKALA_GPW| Active atom-composite tau range   3.5404058148047622E-03   4.6196438022407456E+03
 SKALA_GPW| Active atom-composite tau integral   5.0919306181535609E+02
 SKALA_GPW| Active atom-composite max gradient   2.2570287020730402E+03
    13 P_Mix/Diag. 0.10E+00  766.9     0.26629945      -555.4812448871  6.80E-02
 SKALA_GPW| Atom-composite cross support/maxima   2.797827671472E+00   1.445515959263E+02   1.457044159159E+03   4.557650537188E+03
 SKALA_GPW| Active atom-composite XC energy  -6.9632162333943924E+01
 SKALA_GPW| Active atom-composite electrons   7.2038008556801444E+01
 SKALA_GPW| Active atom-composite density range   1.0568491502227495E-03   1.5003550687113687E+02
 SKALA_GPW| Active atom-composite tau range   3.5826100272252372E-03   4.6263441951895429E+03
 SKALA_GPW| Active atom-composite tau integral   5.0929615812863375E+02
 SKALA_GPW| Active atom-composite max gradient   2.2591902318580260E+03
    14 P_Mix/Diag. 0.10E+00  758.5     0.24490068      -555.4200551224  6.12E-02
 SKALA_GPW| Atom-composite cross support/maxima   2.797827671472E+00   1.445993509023E+02   1.458334215865E+03   4.563655835559E+03
 SKALA_GPW| Active atom-composite XC energy  -6.9645641504013881E+01
 SKALA_GPW| Active atom-composite electrons   7.2037856814981737E+01
 SKALA_GPW| Active atom-composite density range   9.7258325161930781E-04   1.5008715951605663E+02
 SKALA_GPW| Active atom-composite tau range   3.6216198675951021E-03   4.6323859446438792E+03
 SKALA_GPW| Active atom-composite tau integral   5.0938212303332659E+02
 SKALA_GPW| Active atom-composite max gradient   2.2611392963720741E+03
    15 P_Mix/Diag. 0.10E+00  808.5     0.22497219      -555.3649881122  5.51E-02
 SKALA_GPW| Atom-composite cross support/maxima   2.797827671472E+00   1.446423379143E+02   1.459498473345E+03   4.569075945606E+03
 SKALA_GPW| Active atom-composite XC energy  -6.9657092825376566E+01
 SKALA_GPW| Active atom-composite electrons   7.2037724547652005E+01
 SKALA_GPW| Active atom-composite density range   8.9659731603852766E-04   1.5013365807898819E+02
 SKALA_GPW| Active atom-composite tau range   3.6575051451813666E-03   4.6378380960624118E+03
 SKALA_GPW| Active atom-composite tau integral   5.0945438773684322E+02
 SKALA_GPW| Active atom-composite max gradient   2.2628982275974704E+03
    16 P_Mix/Diag. 0.10E+00  780.6     0.20648123      -555.3154346558  4.96E-02
 SKALA_GPW| Atom-composite cross support/maxima   2.797827671472E+00   1.446810966504E+02   1.460549872957E+03   4.573970794652E+03
 SKALA_GPW| Active atom-composite XC energy  -6.9666894128707398E+01
 SKALA_GPW| Active atom-composite electrons   7.2037608704288573E+01
 SKALA_GPW| Active atom-composite density range   8.2807575791943311E-04   1.5017558378843762E+02
 SKALA_GPW| Active atom-composite tau range   3.6903927871521120E-03   4.6427612868969027E+03
 SKALA_GPW| Active atom-composite tau integral   5.0951560412067238E+02
 SKALA_GPW| Active atom-composite max gradient   2.2644866158879954E+03
    17 P_Mix/Diag. 0.10E+00  779.1     0.18937307      -555.2708445507  4.46E-02
 SKALA_GPW| Atom-composite cross support/maxima   2.797827671472E+00   1.447160891480E+02   1.461499836934E+03   4.578393363796E+03
 SKALA_GPW| Active atom-composite XC energy  -6.9675339417261625E+01
 SKALA_GPW| Active atom-composite electrons   7.2037506825344749E+01
 SKALA_GPW| Active atom-composite density range   7.6628318946747598E-04   1.5021343487411585E+02
 SKALA_GPW| Active atom-composite tau range   3.7204442383491688E-03   4.6472090590460148E+03
 SKALA_GPW| Active atom-composite tau integral   5.0956783453108665E+02
 SKALA_GPW| Active atom-composite max gradient   2.2659217430670615E+03
    18 P_Mix/Diag. 0.10E+00  781.6     0.17357848      -555.2307210876  4.01E-02
 SKALA_GPW| Atom-composite cross support/maxima   2.797827671472E+00   1.447477145798E+02   1.462358493311E+03   4.582390694858E+03
 SKALA_GPW| Active atom-composite XC energy  -6.9682659879370433E+01
 SKALA_GPW| Active atom-composite electrons   7.2037416908943072E+01
 SKALA_GPW| Active atom-composite density range   7.1055674903619526E-04   1.5024764224657366E+02
 SKALA_GPW| Active atom-composite tau range   3.7478396146742284E-03   4.6512289022291325E+03
 SKALA_GPW| Active atom-composite tau integral   5.0961269358389973E+02
 SKALA_GPW| Active atom-composite max gradient   2.2672189262858415E+03
    19 P_Mix/Diag. 0.10E+00  783.0     0.15902167      -555.1946169589  3.61E-02
 SKALA_GPW| Atom-composite cross support/maxima   2.797827671472E+00   1.447763207030E+02   1.463134859081E+03   4.586004713990E+03
 SKALA_GPW| Active atom-composite XC energy  -6.9689038699979875E+01
 SKALA_GPW| Active atom-composite electrons   7.2037337310068722E+01
 SKALA_GPW| Active atom-composite density range   6.6029898710273649E-04   1.5027858165817128E+02
 SKALA_GPW| Active atom-composite tau range   3.7727667549953417E-03   4.6548631046461951E+03
 SKALA_GPW| Active atom-composite tau integral   5.0965145458118883E+02
 SKALA_GPW| Active atom-composite max gradient   2.2683917976585331E+03
    20 P_Mix/Diag. 0.10E+00  784.2     0.14562370      -555.1621293316  3.25E-02
 SKALA_GPW| Atom-composite cross support/maxima   2.797827671472E+00   1.448022125654E+02   1.463836987318E+03   4.589272897803E+03
 SKALA_GPW| Active atom-composite XC energy  -6.9694622594812785E+01
 SKALA_GPW| Active atom-composite electrons   7.2037266663996988E+01
 SKALA_GPW| Active atom-composite density range   6.1497144663591463E-04   1.5030658296649199E+02
 SKALA_GPW| Active atom-composite tau range   3.7954137770539425E-03   4.6581494391164888E+03
 SKALA_GPW| Active atom-composite tau integral   5.0968512927425070E+02
 SKALA_GPW| Active atom-composite max gradient   2.2694525285674649E+03
    21 P_Mix/Diag. 0.10E+00  770.5     0.13330532      -555.1328957789  2.92E-02
 SKALA_GPW| Atom-composite cross support/maxima   2.797827671472E+00   1.448256594763E+02   1.464472090645E+03   4.592228833217E+03
 SKALA_GPW| Active atom-composite XC energy  -6.9699530068891320E+01
 SKALA_GPW| Active atom-composite electrons   7.2037203828074851E+01
 SKALA_GPW| Active atom-composite density range   5.7408888113552603E-04   1.5033193756015979E+02
 SKALA_GPW| Active atom-composite tau range   3.8159641419447023E-03   4.6611217379227928E+03
 SKALA_GPW| Active atom-composite tau integral   5.0971452806376084E+02
 SKALA_GPW| Active atom-composite max gradient   2.2704120177206737E+03
    22 P_Mix/Diag. 0.10E+00  777.2     0.12198910      -555.1065901281  2.63E-02
 SKALA_GPW| Atom-composite cross support/maxima   2.797827671472E+00   1.448469004234E+02   1.465046643327E+03   4.594902683708E+03
 SKALA_GPW| Active atom-composite XC energy  -6.9703857635798485E+01
 SKALA_GPW| Active atom-composite electrons   7.2037147837257123E+01
 SKALA_GPW| Active atom-composite density range   5.3721399344730525E-04   1.5035490414372669E+02
 SKALA_GPW| Active atom-composite tau range   3.8345935175348356E-03   4.6638103702273729E+03
 SKALA_GPW| Active atom-composite tau integral   5.0974030534077701E+02
 SKALA_GPW| Active atom-composite max gradient   2.2712800463881144E+03
    23 P_Mix/Diag. 0.10E+00  789.9     0.11160121      -555.0829187400  2.37E-02
 SKALA_GPW| Atom-composite cross support/maxima   2.797827671472E+00   1.448661484314E+02   1.465566467419E+03   4.597321583523E+03
 SKALA_GPW| Active atom-composite XC energy  -6.9707684901890531E+01
 SKALA_GPW| Active atom-composite electrons   7.2037097869774229E+01
 SKALA_GPW| Active atom-composite density range   5.0395264682789875E-04   1.5037571339822355E+02
 SKALA_GPW| Active atom-composite tau range   3.8514678880286141E-03   4.6662426446850959E+03
 SKALA_GPW| Active atom-composite tau integral   5.0976299398710722E+02
 SKALA_GPW| Active atom-composite max gradient   2.2720654093061257E+03
    24 P_Mix/Diag. 0.10E+00  768.2     0.10207092      -555.0616175409  2.13E-02
 SKALA_GPW| Atom-composite cross support/maxima   2.797827671472E+00   1.448835940492E+02   1.466036805462E+03   4.599509971693E+03
 SKALA_GPW| Active atom-composite XC energy  -6.9711078293545000E+01
 SKALA_GPW| Active atom-composite electrons   7.2037053220812595E+01
 SKALA_GPW| Active atom-composite density range   4.7394963993074857E-04   1.5039457171908583E+02
 SKALA_GPW| Active atom-composite tau range   3.8667425592066838E-03   4.6684431497444602E+03
 SKALA_GPW| Active atom-composite tau integral   5.0978303137947853E+02
 SKALA_GPW| Active atom-composite max gradient   2.2727760250321826E+03
    25 P_Mix/Diag. 0.10E+00  774.9     0.09333191      -555.0424492029  1.92E-02
 SKALA_GPW| Atom-composite cross support/maxima   2.797827671472E+00   1.448994083032E+02   1.466462385106E+03   4.601489890069E+03
 SKALA_GPW| Active atom-composite XC energy  -6.9714093079109034E+01
 SKALA_GPW| Active atom-composite electrons   7.2037013281685873E+01
 SKALA_GPW| Active atom-composite density range   4.4688481151866633E-04   1.5041166438476768E+02
 SKALA_GPW| Active atom-composite tau range   3.8805617566357617E-03   4.6704340566003975E+03
 SKALA_GPW| Active atom-composite tau integral   5.0980077967192591E+02
 SKALA_GPW| Active atom-composite max gradient   2.2734190338614540E+03
    26 DIIS/Diag.  0.80E-05  747.2     0.09294089      -555.0251997278  1.72E-02
 SKALA_GPW| Atom-composite cross support/maxima   2.797827671472E+00   1.450487412822E+02   1.470432367729E+03   4.619946143460E+03
 SKALA_GPW| Active atom-composite XC energy  -6.9738893194592379E+01
 SKALA_GPW| Active atom-composite electrons   7.2036667263769189E+01
 SKALA_GPW| Active atom-composite density range   1.9949368189586814E-04   1.5057293394334835E+02
 SKALA_GPW| Active atom-composite tau range   4.0090925495914285E-03   4.6889946786778855E+03
 SKALA_GPW| Active atom-composite tau integral   5.0994513006440741E+02
 SKALA_GPW| Active atom-composite max gradient   2.2794183450837927E+03
    27 DIIS/Diag.  0.15E-03  756.9     0.00106181      -554.8700527419  1.55E-01
 SKALA_GPW| Atom-composite cross support/maxima   2.797827671472E+00   1.450477965371E+02   1.470415005194E+03   4.619866975883E+03
 SKALA_GPW| Active atom-composite XC energy  -6.9738787353103177E+01
 SKALA_GPW| Active atom-composite electrons   7.2036667928852424E+01
 SKALA_GPW| Active atom-composite density range   2.0000933951946909E-04   1.5057193237778284E+02
 SKALA_GPW| Active atom-composite tau range   4.0089642816500386E-03   4.6889143056508101E+03
 SKALA_GPW| Active atom-composite tau integral   5.0994381835182133E+02
 SKALA_GPW| Active atom-composite max gradient   2.2793919360382329E+03
    28 DIIS/Diag.  0.21E-03  769.9     0.00093172      -554.8700522062  5.36E-07
 SKALA_GPW| Atom-composite cross support/maxima   2.797827671472E+00   1.450471128081E+02   1.470400617203E+03   4.619801541441E+03
 SKALA_GPW| Active atom-composite XC energy  -6.9739337178083844E+01
 SKALA_GPW| Active atom-composite electrons   7.2036665247257218E+01
 SKALA_GPW| Active atom-composite density range   2.0036203096951422E-04   1.5057120598640711E+02
 SKALA_GPW| Active atom-composite tau range   4.0083268948784764E-03   4.6888485948104681E+03
 SKALA_GPW| Active atom-composite tau integral   5.0994718291244021E+02
 SKALA_GPW| Active atom-composite max gradient   2.2793701129850074E+03
    29 DIIS/Diag.  0.26E-03  785.6     0.00614448      -554.8700517668  4.39E-07
 SKALA_GPW| Atom-composite cross support/maxima   2.797827671472E+00   1.450422990302E+02   1.470304396838E+03   4.619363188103E+03
 SKALA_GPW| Active atom-composite XC energy  -6.9741421841085440E+01
 SKALA_GPW| Active atom-composite electrons   7.2036655510772704E+01
 SKALA_GPW| Active atom-composite density range   2.0295683507254303E-04   1.5056609619705162E+02
 SKALA_GPW| Active atom-composite tau range   4.0053864450165641E-03   4.6884065841034171E+03
 SKALA_GPW| Active atom-composite tau integral   5.0995858920231626E+02
 SKALA_GPW| Active atom-composite max gradient   2.2792240034013930E+03
    30 DIIS/Diag.  0.84E-03  763.1     0.01265259      -554.8700455543  6.21E-06
 SKALA_GPW| Atom-composite cross support/maxima   2.797827671472E+00   1.450530241331E+02   1.470506480726E+03   4.620285344550E+03
 SKALA_GPW| Active atom-composite XC energy  -6.9741223196617057E+01
 SKALA_GPW| Active atom-composite electrons   7.2036655342127730E+01
 SKALA_GPW| Active atom-composite density range   1.9698907467069482E-04   1.5057747161536139E+02
 SKALA_GPW| Active atom-composite tau range   4.0081571416573803E-03   4.6893410760340994E+03
 SKALA_GPW| Active atom-composite tau integral   5.0996404644844353E+02
 SKALA_GPW| Active atom-composite max gradient   2.2795312118917227E+03
    31 DIIS/Diag.  0.84E-04  756.2     0.00051617      -554.8700534141 -7.86E-06
 SKALA_GPW| Atom-composite cross support/maxima   2.797827671472E+00   1.450518145191E+02   1.470493335405E+03   4.620230483241E+03
 SKALA_GPW| Active atom-composite XC energy  -6.9739432871394456E+01
 SKALA_GPW| Active atom-composite electrons   7.2036664941638847E+01
 SKALA_GPW| Active atom-composite density range   1.9686795864737316E-04   1.5057620064231108E+02
 SKALA_GPW| Active atom-composite tau range   4.0098023668721566E-03   4.6892830158999695E+03
 SKALA_GPW| Active atom-composite tau integral   5.0995164924923233E+02
 SKALA_GPW| Active atom-composite max gradient   2.2795108893635438E+03
    32 DIIS/Diag.  0.11E-04  759.0     0.00036871      -554.8700538490 -4.35E-07
 SKALA_GPW| Atom-composite cross support/maxima   2.797827671472E+00   1.450520663800E+02   1.470496007504E+03   4.620242124196E+03
 SKALA_GPW| Active atom-composite XC energy  -6.9739821333604795E+01
 SKALA_GPW| Active atom-composite electrons   7.2036662352412577E+01
 SKALA_GPW| Active atom-composite density range   1.9679568989450225E-04   1.5057646563602776E+02
 SKALA_GPW| Active atom-composite tau range   4.0093663097651756E-03   4.6892954678436536E+03
 SKALA_GPW| Active atom-composite tau integral   5.0995396501273950E+02
 SKALA_GPW| Active atom-composite max gradient   2.2795150211110254E+03
    33 DIIS/Diag.  0.20E-07  781.7     0.00002355      -554.8700539338 -8.47E-08
 SKALA_GPW| Atom-composite cross support/maxima   2.797827671472E+00   1.450520668183E+02   1.470496038627E+03   4.620242242963E+03
 SKALA_GPW| Active atom-composite XC energy  -6.9739855837741885E+01
 SKALA_GPW| Active atom-composite electrons   7.2036662380993675E+01
 SKALA_GPW| Active atom-composite density range   1.9678219499008609E-04   1.5057646609617720E+02
 SKALA_GPW| Active atom-composite tau range   4.0093739730279136E-03   4.6892955743046259E+03
 SKALA_GPW| Active atom-composite tau integral   5.0995435223645933E+02
 SKALA_GPW| Active atom-composite max gradient   2.2795150679756575E+03
    34 DIIS/Diag.  0.22E-08  775.3     0.00002095      -554.8700539146  1.91E-08
 SKALA_GPW| Atom-composite cross support/maxima   2.797827671472E+00   1.450520673143E+02   1.470496045608E+03   4.620242277424E+03
 SKALA_GPW| Active atom-composite XC energy  -6.9739844530762667E+01
 SKALA_GPW| Active atom-composite electrons   7.2036662383293546E+01
 SKALA_GPW| Active atom-composite density range   1.9678076362161789E-04   1.5057646661845331E+02
 SKALA_GPW| Active atom-composite tau range   4.0093738070293523E-03   4.6892956105935855E+03
 SKALA_GPW| Active atom-composite tau integral   5.0995423563843838E+02
 SKALA_GPW| Active atom-composite max gradient   2.2795150786573954E+03
    35 DIIS/Diag.  0.79E-11  767.2     0.00000136      -554.8700539420 -2.74E-08

  *** SCF run converged in    35 steps ***


  Electronic density on regular grids:        -46.5757405889       25.4242594111
  Core density on regular grids:               72.0000000000        0.0000000000
  Hard and soft densities (Lebedev):         -204.2716671179     -178.8474078174
  Total Rho_soft + Rho1_hard - Rho1_soft      -71.9999998895
  Total charge density (r-space):               0.0000001105
  Total Rho_soft + Rho0_soft (g-space):         0.0000000997

  Overlap energy of the core charge distribution:               0.00000000000000
  Self energy of the core charge distribution:               -877.24318729384652
  Core Hamiltonian energy:                                    150.39636687308399
  Hartree energy:                                             117.66482198654747
  Exchange-correlation energy:                                  0.00000000000000
  Dispersion energy:                                           -0.18034219323764

  GAPW| Exc from hard and soft atomic rho1:                   -69.73984453076267
  GAPW| local Eh = 1 center integrals:                        124.23213121620213

  Total energy:                                              -554.87005394201310

  outer SCF iter =    1 RMS gradient =   0.00E+00 energy =       -554.8700539420
  outer SCF loop converged in   1 iterations or   35 steps


 !-----------------------------------------------------------------------------!
                     Mulliken Population Analysis

 #  Atom  Element  Kind  Atomic population                           Net charge
       1     Mg       1          7.727762                              2.272238
       2     Mg       1          7.727695                              2.272305
       3     Mg       1          7.727695                              2.272305
       4     Mg       1          7.727695                              2.272305
       5     O        2         10.272288                             -2.272288
       6     O        2         10.272288                             -2.272288
       7     O        2         10.272288                             -2.272288
       8     O        2         10.272288                             -2.272288
 # Total charge                             72.000000                  0.000000

 !-----------------------------------------------------------------------------!

 !-----------------------------------------------------------------------------!
                           Hirshfeld Charges

  #Atom  Element  Kind  Ref Charge     Population                    Net charge
      1       Mg     1      10.000         10.471                        -0.471
      2       Mg     1      10.000         10.471                        -0.471
      3       Mg     1      10.000         10.471                        -0.471
      4       Mg     1      10.000         10.471                        -0.471
      5       O      2       8.000          7.529                         0.471
      6       O      2       8.000          7.529                         0.471
      7       O      2       8.000          7.529                         0.471
      8       O      2       8.000          7.529                         0.471

  Total Charge                                                            0.000
 !-----------------------------------------------------------------------------!

 ENERGY| Total FORCE_EVAL ( QS ) energy [hartree]           -554.870053942013101

 -------------------------------------------------------------------------------
 -                                                                             -
 -                                DBCSR STATISTICS                             -
 -                                                                             -
 -------------------------------------------------------------------------------
 COUNTER                                    TOTAL       BLAS       SMM       ACC
 flops inhomo. stacks                           0       0.0%      0.0%      0.0%
 flops total                         0.000000E+00       0.0%      0.0%      0.0%
 flops max/rank                      0.000000E+00       0.0%      0.0%      0.0%
 matmuls inhomo. stacks                         0       0.0%      0.0%      0.0%
 matmuls total                                  0       0.0%      0.0%      0.0%
 number of processed stacks                     0       0.0%      0.0%      0.0%
 average stack size                                     0.0       0.0       0.0
 marketing flops                     0.000000E+00
 -------------------------------------------------------------------------------
 -                                                                             -
 -                      DBCSR MESSAGE PASSING PERFORMANCE                      -
 -                                                                             -
 -------------------------------------------------------------------------------
 ROUTINE             CALLS      AVE VOLUME [Bytes]
 MP_Bcast                1                     12.
 MP_Allreduce           19                     21.
 MP_Alltoall         68640                 199366.
 -------------------------------------------------------------------------------

 -------------------------------------------------------------------------------
 -                                                                             -
 -                                GRID STATISTICS                              -
 -                                                                             -
 -------------------------------------------------------------------------------
 LP    KERNEL             BACKEND                              COUNT     PERCENT
 6     collocate ortho    CPU                                 534240      14.55%
 6     integrate ortho    CPU                                 519400      14.14%
 4     collocate ortho    CPU                                 423360      11.53%
 4     integrate ortho    CPU                                 411600      11.21%
 5     collocate ortho    CPU                                 396576      10.80%
 7     collocate ortho    CPU                                 396576      10.80%
 5     integrate ortho    CPU                                 385560      10.50%
 7     integrate ortho    CPU                                 385560      10.50%
 8     collocate ortho    CPU                                 110880       3.02%
 8     integrate ortho    CPU                                 107800       2.94%
 4     collocate general  CPU                                    280       0.01%
 4     integrate general  CPU                                    280       0.01%
 0     collocate general  CPU                                     16       0.00%
 0     integrate general  CPU                                      8       0.00%
 -------------------------------------------------------------------------------

 -------------------------------------------------------------------------------
 -                                                                             -
 -                          OFFLOAD MEMPOOL STATISTICS                         -
 -                                                                             -
 -------------------------------------------------------------------------------
 Memory consumption                Number of allocations  Used [MiB]  Size [MiB]
 Host                                                 10         106    89726305
 -------------------------------------------------------------------------------

 MEMORY| Estimated peak process memory [MiB]                                2360

 -------------------------------------------------------------------------------
 ----                             MULTIGRID INFO                            ----
 -------------------------------------------------------------------------------
 count for grid        1:          69897          cutoff [a.u.]          400.00
 count for grid        2:          20262          cutoff [a.u.]          133.33
 count for grid        3:          23190          cutoff [a.u.]           44.44
 count for grid        4:          21510          cutoff [a.u.]           14.81
 count for grid        5:           6490          cutoff [a.u.]            4.94
 total gridlevel count  :         141349

 -------------------------------------------------------------------------------
 -                                                                             -
 -                         MESSAGE PASSING PERFORMANCE                         -
 -                                                                             -
 -------------------------------------------------------------------------------

 ROUTINE             CALLS      AVE VOLUME [Bytes]
 MP_Group               75
 MP_Bcast            26038                   2336.
 MP_Allreduce        54792                  69669.
 MP_Sync                 5
 MP_Wait             21200
 MP_ISend            29680                  43910.
 MP_IRecv            29680                  43910.
 -------------------------------------------------------------------------------


 -------------------------------------------------------------------------------
 -                                                                             -
 -                           R E F E R E N C E S                               -
 -                                                                             -
 -------------------------------------------------------------------------------
 
 CP2K version 2026.2 (Development Version), the CP2K developers group (2026).
 CP2K is freely available from https://www.cp2k.org/ .
 
 M. Iannuzzi, J. Wilhelm, F. Stein, A. Bussy, H. Elgabarty, D. Golze, A. Hehn, 
 M. Graml, S. Marek, B. Sertcan Gökmen, C. Schran, H. Forbert, R. Z. 
 Khaliullin, A. Kozhevnikov, M. Taillefumier, R. Meli, V. V. Rybkin, M. Brehm, 
 R. Schade, O. Schütt, J. V. Pototschnig, H. Mirhosseini, A. Knüpfer, D. Marx, 
 M. Krack, J. Hutter, T. D. Kühne.
 J. Phys. Chem. B 130, 1237-1310 (2026).
 The CP2K Program Package Made Simple.
 https://doi.org/10.1021/acs.jpcb.5c05851

 L. Wittmann, I. Gordiy, M. Friede, B. Helmich-Paris, S. Grimme, A. Hansen, M. 
 Bursch.
 Phys. Chem. Chem. Phys. 26, 21379-21394 (2024).
 Extension of the D3 and D4 London dispersion corrections to the full actinides 
 series.
 https://doi.org/10.1039/d4cp01514b

 T. D. Kühne, M. Iannuzzi, M. Del Ben, V. V. Rybkin, P. Seewald, F. Stein, T. 
 Laino, R. Z. Khaliullin, O. Schütt, F. Schiffmann, D. Golze, J. Wilhelm, S. 
 Chulkov, M. H. Bani-Hashemian, V. Weber, U. Borstnik, M. Taillefumier, A. S. 
 Jakobovits, A. Lazzaro, H. Pabst, T. Müller, R. Schade, M. Guidon, S. 
 Andermatt, N. Holmberg, G. K. Schenter, A. Hehn, A. Bussy, F. Belleflamme, G. 
 Tabacchi, A. Glöß, M. Lass, I. Bethune, C. J. Mundy, C. Plessl, M. Watkins, 
 J. VandeVondele, M. Krack, J. Hutter.
 J. Chem. Phys. 152, 194103 (2020).
 CP2K: An electronic structure and molecular dynamics software package - 
 Quickstep: Efficient and accurate electronic structure calculations.
 https://doi.org/10.1063/5.0007045

 L. Goerigk, A. Hansen, C. Bauer, S. Ehrlich, A. Najibi, S. Grimme.
 Phys. Chem. Chem. Phys. 19, 32184-32215 (2017).
 A look at the density functional theory zoo with the advanced GMTKN55 database 
 for general main group thermochemistry, kinetics and noncovalent interactions.
 https://doi.org/10.1039/C7CP04913G

 O. Schuett, P. Messmer, J. Hutter, J. VandeVondele.
 Electronic Structure Calculations on Graphics Processing Units, 173-190 (2016).
 GPU-Accelerated Sparse Matrix-Matrix Multiplication for Linear Scaling Density 
 Functional Theory.
 https://doi.org/10.1002/9781118670712.ch8

 U. Borstnik, J. VandeVondele, V. Weber, J. Hutter.
 Parallel Comput. 40, 47-58 (2014).
 Sparse matrix multiplication: The distributed block-compressed sparse row 
 library.
 https://doi.org/10.1016/j.parco.2014.03.012

 S. Grimme, S. Ehrlich, L. Goerigk.
 J. Comput. Chem. 32, 1456 (2011).
 Effect of the damping function in dispersion corrected density functional 
 theory.
 https://doi.org/10.1002/jcc.21759

 S. Grimme, J. Antony, S. Ehrlich, H. Krieg.
 J. Chem. Phys. 132, 154104 (2010).
 A consistent and accurate ab initio parametrization of density functional 
 dispersion correction (DFT-D) for the 94 elements H-Pu.
 https://doi.org/10.1063/1.3382344

 J. VandeVondele, J. Hutter.
 J. Chem. Phys. 127, 114105 (2007).
 Gaussian basis sets for accurate calculations on molecular systems in gas and 
 condensed phases.
 https://doi.org/10.1063/1.2770708

 M. Krack.
 Theor. Chem. Acc. 114, 145-152 (2005).
 Pseudopotentials for H to Kr optimized for gradient-corrected 
 exchange-correlation functionals.
 https://doi.org/10.1007/s00214-005-0655-y

 M. Frigo, S. G. Johnson.
 Proc. IEEE 93, 216-231 (2005).
 The design and implementation of FFTW3.
 https://doi.org/10.1109/JPROC.2004.840301

 M. Krack, M. Parrinello.
 Phys. Chem. Chem. Phys. 2, 2105-2112 (2000).
 All-electron ab-initio molecular dynamics.
 https://doi.org/10.1039/b001167n

 G. Lippert, J. Hutter, M. Parrinello.
 Theor. Chem. Acc. 103, 124-140 (1999).
 The Gaussian and augmented-plane-wave density functional method for ab initio 
 molecular dynamics simulations.
 https://doi.org/10.1007/s002140050523

 C. Hartwigsen, S. Goedecker, J. Hutter.
 Phys. Rev. B 58, 3641-3662 (1998).
 Relativistic separable dual-space Gaussian pseudopotentials from H to Rn.
 https://doi.org/10.1103/PhysRevB.58.3641

 S. Goedecker, M. Teter, J. Hutter.
 Phys. Rev. B 54, 1703-1710 (1996).
 Separable dual-space Gaussian pseudopotentials.
 https://doi.org/10.1103/PhysRevB.54.1703

 C.-L. Fu, K.-M. Ho.
 Phys. Rev. B 28, 5480-5486 (1983).
 First-principles calculation of the equilibrium ground-state properties of 
 transition metals: Applications to Nb and Mo.
 https://doi.org/10.1103/PhysRevB.28.5480

 T. G. Worlton, J. L. Warren.
 Comput. Phys. Commun. 3, 88-117 (1972).
 Group-theoretical analysis of lattice vibrations.
 https://doi.org/10.1016/0010-4655(72)90058-6


 -------------------------------------------------------------------------------
 -                                                                             -
 -                                T I M I N G                                  -
 -                                                                             -
 -------------------------------------------------------------------------------
 SUBROUTINE                       CALLS  ASD         SELF TIME        TOTAL TIME
                                MAXIMUM       AVERAGE  MAXIMUM  AVERAGE  MAXIMUM
 CP2K                                 1  1.0     0.02     0.02 26800.51 26800.51
 qs_energies                          1  2.0     0.00     0.00 26800.12 26800.12
 scf_env_do_scf                       1  3.0     0.00     0.00 26793.05 26793.05
 scf_env_do_scf_inner_loop           35  4.0     0.02     0.02 26793.05 26793.05
 qs_ks_update_qs_env                 35  5.0     0.00     0.00 26499.61 26499.61
 rebuild_ks_matrix                   35  6.0     0.00     0.00 26498.43 26498.43
 qs_ks_build_kohn_sham_matrix        35  7.0     0.03     0.03 26498.43 26498.43
 calculate_vxc_atom                  35  8.0 23613.25 23613.25 26365.09 26365.09
 skala_atom_torch_backward          105  9.0   811.61   811.61   811.61   811.61
 calc_tau_atom                      840  9.0   584.11   584.11   584.11   584.11
 -------------------------------------------------------------------------------

 The number of warnings for this run is : 2
 
 -------------------------------------------------------------------------------
  **** **** ******  **  PROGRAM ENDED AT                 2026-09-01 09:38:57.361
 ***** ** ***  *** **   PROGRAM RAN ON                                     terok
 **    ****   ******    PROGRAM RAN BY                                  kuehne88
 ***** **    ** ** **   PROGRAM PROCESS ID                                460518
  **** **  *******  **  PROGRAM STOPPED IN /home/kuehne88/work/native-skala-tero
                                           k/goldzak12/runs/production/hybrid-on
                                           e-center/MgO/v01
