 DBCSR| CPU Multiplication driver                                           BLAS (U)
 DBCSR| Multrec recursion limit                                              512 (U)
 DBCSR| Multiplication stack size                                           1000 (D)
 DBCSR| Maximum elements for images                                    UNLIMITED (U)
 DBCSR| Multiplicative factor virtual images                                   1 (U)
 DBCSR| Use multiplication densification                                       T (D)
 DBCSR| Multiplication size stacks                                             3 (U)
 DBCSR| Use memory pool for CPU allocation                                     F (U)
 DBCSR| OMP: Current number of threads                                         8
 DBCSR| OMP: Max number of threads                                             8
 DBCSR| Split modifier for TAS multiplication algorithm                  1.0E+00 (U)


  **** **** ******  **  PROGRAM STARTED AT               2026-08-31 21:32:51.259
 ***** ** ***  *** **   PROGRAM STARTED ON                                cge069
 **    ****   ******    PROGRAM STARTED BY                              kuehne88
 ***** **    ** ** **   PROGRAM PROCESS ID                               3346916
  **** **  *******  **  PROGRAM STARTED IN /data/home2/kuehne88/cp2k-native-skal
                                           a/goldzak12/runs/production/gapw-ae/C
                                           /v02

 CP2K| version string:                 CP2K version 2026.2 (Development Version)
 CP2K| source code revision number:                                   c1bff3eeb8
 CP2K| cp2kflags: omp fftw3 spglib openblas libtorch libtorch_cuda              
 CP2K| is freely available from                            https://www.cp2k.org/
 CP2K| Program compiled at                                   2026-08-23 23:01:13
 CP2K| Program compiled on                                                cge022
 CP2K| Program compiled for                                               x86_64
 CP2K| Data directory path            /home/kuehne88/cp2k-native-skala/cp2k/data
 CP2K| Input file name                                          actual-input.inp

 GLOBAL| Force Environment number                                              1
 GLOBAL| Basis set file name                             BASIS_MOLOPT_UZH_2026.2
 GLOBAL| Potential file name                                POTENTIAL_UZH_2026.2
 GLOBAL| MM Potential file name                                     MM_POTENTIAL
 GLOBAL| Coordinate file name                                      __STD_INPUT__
 GLOBAL| Method name                                                        CP2K
 GLOBAL| Project name                           G12_C_gapw-ae_v0p9222222222_k777
 GLOBAL| Run type                                                         ENERGY
 GLOBAL| FFT library                                                       FFTW3
 GLOBAL| Diagonalization library                                       ScaLAPACK
 GLOBAL| Cholesky decomposition library                                ScaLAPACK
 GLOBAL| DGEMM library                                                      BLAS
 GLOBAL| Direct generalized diagonalization requested                          F
 GLOBAL| Orthonormality check for eigenvectors                          DISABLED
 GLOBAL| Matrix multiplication library                                 ScaLAPACK
 GLOBAL| All-to-all communication in single precision                          F
 GLOBAL| FFTs using library dependent lengths                                  F
 GLOBAL| Grid backend                                                       AUTO
 GLOBAL| Global print level                                               MEDIUM
 GLOBAL| MPI I/O enabled                                                       T
 GLOBAL| Total number of message passing processes                             1
 GLOBAL| Number of distributed systems (nodes)                                 1
 GLOBAL| Number of threads for this process                                    8
 GLOBAL| This output is from process                                           0
 GLOBAL| OpenMP stack size per thread (OMP_STACKSIZE)                       256M
 GLOBAL| CPU model name                          AMD EPYC 9654 96-Core Processor

 MEMORY| system memory details [Kb]
 MEMORY|                        rank 0           min           max       average
 MEMORY| MemTotal           1584791716    1584791716    1584791716    1584791716
 MEMORY| MemFree            1489457540    1489457540    1489457540    1489457540
 MEMORY| Buffers                     0             0             0             0
 MEMORY| Cached               12520852      12520852      12520852      12520852
 MEMORY| Slab                  4048068       4048068       4048068       4048068
 MEMORY| SReclaimable           914156        914156        914156        914156
 MEMORY| MemLikelyFree      1502892548    1502892548    1502892548    1502892548


 *** Fundamental physical constants (SI units) ***

 *** Literature: B. J. Mohr and B. N. Taylor,
 ***             CODATA recommended values of the fundamental physical
 ***             constants: 2006, Web Version 5.1
 ***             http://physics.nist.gov/constants

 Speed of light in vacuum [m/s]                             2.99792458000000E+08
 Magnetic constant or permeability of vacuum [N/A**2]       1.25663706143592E-06
 Electric constant or permittivity of vacuum [F/m]          8.85418781762039E-12
 Planck constant (h) [J*s]                                  6.62606896000000E-34
 Planck constant (h-bar) [J*s]                              1.05457162825177E-34
 Elementary charge [C]                                      1.60217648700000E-19
 Electron mass [kg]                                         9.10938215000000E-31
 Electron g factor [ ]                                     -2.00231930436220E+00
 Proton mass [kg]                                           1.67262163700000E-27
 Fine-structure constant                                    7.29735253760000E-03
 Rydberg constant [1/m]                                     1.09737315685270E+07
 Avogadro constant [1/mol]                                  6.02214179000000E+23
 Boltzmann constant [J/K]                                   1.38065040000000E-23
 Atomic mass unit [kg]                                      1.66053878200000E-27
 Bohr radius [m]                                            5.29177208590000E-11

 *** Conversion factors ***

 [u] -> [a.u.]                                              1.82288848426455E+03
 [Angstrom] -> [Bohr] = [a.u.]                              1.88972613288564E+00
 [a.u.] = [Bohr] -> [Angstrom]                              5.29177208590000E-01
 [a.u.] -> [s]                                              2.41888432650478E-17
 [a.u.] -> [fs]                                             2.41888432650478E-02
 [a.u.] -> [J]                                              4.35974393937059E-18
 [a.u.] -> [N]                                              8.23872205491840E-08
 [a.u.] -> [K]                                              3.15774647902944E+05
 [a.u.] -> [kJ/mol]                                         2.62549961709828E+03
 [a.u.] -> [kcal/mol]                                       6.27509468713739E+02
 [a.u.] -> [Pa]                                             2.94210107994716E+13
 [a.u.] -> [bar]                                            2.94210107994716E+08
 [a.u.] -> [atm]                                            2.90362800883016E+08
 [a.u.] -> [eV]                                             2.72113838565563E+01
 [a.u.] -> [Hz]                                             6.57968392072181E+15
 [a.u.] -> [1/cm] (wave numbers)                            2.19474631370540E+05
 [a.u./Bohr**2] -> [1/cm]                                   5.14048714338585E+03
 

 CELL| Volume [angstrom^3]:                                            41.363874
 CELL| Vector a [angstrom]:       3.458     0.000     0.000   |a| =     3.458388
 CELL| Vector b [angstrom]:       0.000     3.458     0.000   |b| =     3.458388
 CELL| Vector c [angstrom]:       0.000     0.000     3.458   |c| =     3.458388
 CELL| Angle (b,c), alpha [degree]:                                    90.000000
 CELL| Angle (a,c), beta  [degree]:                                    90.000000
 CELL| Angle (a,b), gamma [degree]:                                    90.000000
 CELL| Numerically orthorhombic:                                             YES
 CELL| Periodicity                                                           XYZ

 CELL_REF| Volume [angstrom^3]:                                        41.363874
 CELL_REF| Vector a [angstrom     3.458     0.000     0.000   |a| =     3.458388
 CELL_REF| Vector b [angstrom     0.000     3.458     0.000   |b| =     3.458388
 CELL_REF| Vector c [angstrom     0.000     0.000     3.458   |c| =     3.458388
 CELL_REF| Angle (b,c), alpha [degree]:                                90.000000
 CELL_REF| Angle (a,c), beta  [degree]:                                90.000000
 CELL_REF| Angle (a,b), gamma [degree]:                                90.000000
 CELL_REF| Numerically orthorhombic:                                         YES
 CELL_REF| Periodicity                                                       XYZ

 GENERATE|  Preliminary Number of Bonds generated:                             0
 GENERATE|  Achieved consistency in connectivity generation.

 *******************************************************************************
 *******************************************************************************
 **                                                                           **
 **     #####                         ##              ##                      **
 **    ##   ##            ##          ##              ##                      **
 **   ##     ##                       ##            ######                    **
 **   ##     ##  ##   ##  ##   #####  ##  ##   ####   ##    #####    #####    **
 **   ##     ##  ##   ##  ##  ##      ## ##   ##      ##   ##   ##  ##   ##   **
 **   ##  ## ##  ##   ##  ##  ##      ####     ###    ##   ######   ######    **
 **    ##  ###   ##   ##  ##  ##      ## ##      ##   ##   ##       ##        **
 **     #######   #####   ##   #####  ##  ##  ####    ##    #####   ##        **
 **           ##                                                    ##        **
 **                                                                           **
 **                                                ... make the atoms dance   **
 **                                                                           **
 **            Copyright (C) by CP2K developers group (2000-2026)             **
 **                      J. Chem. Phys. 152, 194103 (2020)                    **
 **                                                                           **
 *******************************************************************************

 DFT| Spin restricted Kohn-Sham (RKS) calculation                            RKS
 DFT| Multiplicity                                                             1
 DFT| Number of spin states                                                    1
 DFT| Charge                                                                   0
 DFT| Self-interaction correction (SIC)                                       NO
 DFT| Cutoffs: density                                              1.000000E-10
 DFT|          gradient                                             1.000000E-10
 DFT|          tau                                                  1.000000E-10
 DFT|          cutoff_smoothing_range                               0.000000E+00
 DFT| XC density smoothing                                                  NONE
 DFT| XC derivatives                                                          PW

 FUNCTIONAL| GAUXC:
 FUNCTIONAL| Functional computed by GauXC Skala model SKALA                     

 vdW POTENTIAL|                                                   Pair Potential
 vdW POTENTIAL|          DFT-D3 (Version 3.1)
 vdW POTENTIAL|          Potential Form: S. Grimme et al, JCP 132: 154104 (2010)
 vdW POTENTIAL|          BJ Damping: S. Grimme et al, JCC 32: 1456 (2011)
 vdW POTENTIAL|          Cutoff Radius [Bohr]:                             37.79
 vdW POTENTIAL|          s6 Scaling Factor:                               1.0000
 vdW POTENTIAL|          a1 Damping Factor:                               0.3981
 vdW POTENTIAL|          s8 Scaling Factor:                               1.9889
 vdW POTENTIAL|          a2 Damping Factor:                               4.4211
 vdW POTENTIAL|          Cutoff for CN calculation:                   0.1000E-05

 QS| Method:                                                                GAPW
 QS| Density plane wave grid type                        NON-SPHERICAL FULLSPACE
 QS| Number of grid levels:                                                    5
 QS| Density cutoff [a.u.]:                                                400.0
 QS| Multi grid cutoff [a.u.]: 1) grid level                               400.0
 QS|                           2) grid level                               133.3
 QS|                           3) grid level                                44.4
 QS|                           4) grid level                                14.8
 QS|                           5) grid level                                 4.9
 QS| Grid level progression factor:                                          3.0
 QS| Relative density cutoff [a.u.]:                                        30.0
 QS| Interaction thresholds: eps_pgf_orb:                                1.0E-07
 QS|                         eps_filter_matrix:                          0.0E+00
 QS|                         eps_core_charge:                            1.0E-16
 QS|                         eps_rho_gspace:                             1.0E-14
 QS|                         eps_rho_rspace:                             1.0E-14
 QS|                         eps_gvg_rspace:                             1.0E-07
 QS|                         eps_ppl:                                    1.0E-02
 QS|                         eps_ppnl:                                   1.0E-09
 QS| GAPW|      XC integration using accurate scheme: Ref. exponent     6.000000
 QS| GAPW|      One center basis extended with primitives (small:s)
 QS| GAPW|                   eps_fit:                                    1.0E-04
 QS| GAPW|                   eps_iso:                                    1.0E-12
 QS| GAPW|                   eps_svd:                                    1.0E-08
 QS| GAPW|                   eps_cpc:                                    1.0E-14
 QS| GAPW|   atom-r-grid: quadrature:                                     GC_LOG
 QS| GAPW|      atom-s-grid:  max l :                                          6
 QS| GAPW|      max_l_rho0 :                                                   4


 ATOMIC KIND INFORMATION

  1. Atomic kind: C                                     Number of atoms:       8

     Orbital Basis Set                                       TZVPP-MOLOPT-PBE-ae

       Number of orbital shell sets:                                           2
       Number of orbital shells:                                              11
       Number of primitive Cartesian functions:                               12
       Number of Cartesian basis functions:                                   36
       Number of spherical basis functions:                                   31
       Norm type:                                                              2

       Normalised Cartesian orbitals:

                        Set   Shell   Orbital            Exponent    Coefficient

                          1       1    1s            13575.369584       0.323227
                                                      2035.237517       2.062509
                                                       463.111112       2.210797
                                                       131.318553       4.954487
                                                        42.899593       1.730189
                                                        15.855102       4.257999

                          2       1    1s               34.417212       0.637474
                                                         6.739673       1.752510
                                                         2.441624       0.446183
                                                         0.806764       0.003692
                                                         0.283960       0.027513
                                                         0.097098       0.019281

                          2       2    2s               34.417212       1.102934
                                                         6.739673      -0.288836
                                                         2.441624      -0.104551
                                                         0.806764       0.362633
                                                         0.283960       0.094997
                                                         0.097098       0.029117

                          2       3    3s               34.417212      -6.120053
                                                         6.739673      -0.168746
                                                         2.441624      -0.199197
                                                         0.806764      -0.252838
                                                         0.283960       0.169545
                                                         0.097098       0.047046

                          2       4    4s               34.417212      -3.786931
                                                         6.739673      -0.401007
                                                         2.441624      -0.053941
                                                         0.806764       0.091223
                                                         0.283960      -0.341415
                                                         0.097098       0.188374

                          2       5    2px              34.417212       2.016536
                                                         6.739673       2.243109
                                                         2.441624       0.695625
                                                         0.806764       0.779023
                                                         0.283960       0.032186
                                                         0.097098       0.005087
                          2       5    2py              34.417212       2.016536
                                                         6.739673       2.243109
                                                         2.441624       0.695625
                                                         0.806764       0.779023
                                                         0.283960       0.032186
                                                         0.097098       0.005087
                          2       5    2pz              34.417212       2.016536
                                                         6.739673       2.243109
                                                         2.441624       0.695625
                                                         0.806764       0.779023
                                                         0.283960       0.032186
                                                         0.097098       0.005087

                          2       6    3px              34.417212       1.690366
                                                         6.739673      -2.720242
                                                         2.441624       0.912249
                                                         0.806764      -0.188640
                                                         0.283960       0.294367
                                                         0.097098       0.008084
                          2       6    3py              34.417212       1.690366
                                                         6.739673      -2.720242
                                                         2.441624       0.912249
                                                         0.806764      -0.188640
                                                         0.283960       0.294367
                                                         0.097098       0.008084
                          2       6    3pz              34.417212       1.690366
                                                         6.739673      -2.720242
                                                         2.441624       0.912249
                                                         0.806764      -0.188640
                                                         0.283960       0.294367
                                                         0.097098       0.008084

                          2       7    4px              34.417212     -12.705833
                                                         6.739673       1.761645
                                                         2.441624      -0.855991
                                                         0.806764      -0.070055
                                                         0.283960      -0.017243
                                                         0.097098       0.081068
                          2       7    4py              34.417212     -12.705833
                                                         6.739673       1.761645
                                                         2.441624      -0.855991
                                                         0.806764      -0.070055
                                                         0.283960      -0.017243
                                                         0.097098       0.081068
                          2       7    4pz              34.417212     -12.705833
                                                         6.739673       1.761645
                                                         2.441624      -0.855991
                                                         0.806764      -0.070055
                                                         0.283960      -0.017243
                                                         0.097098       0.081068

                          2       8    3dx2             34.417212     174.894573
                                                         6.739673       4.248634
                                                         2.441624       3.763414
                                                         0.806764       0.546922
                                                         0.283960       0.015501
                                                         0.097098       0.001415
                          2       8    3dxy             34.417212     302.926287
                                                         6.739673       7.358850
                                                         2.441624       6.518424
                                                         0.806764       0.947296
                                                         0.283960       0.026849
                                                         0.097098       0.002451
                          2       8    3dxz             34.417212     302.926287
                                                         6.739673       7.358850
                                                         2.441624       6.518424
                                                         0.806764       0.947296
                                                         0.283960       0.026849
                                                         0.097098       0.002451
                          2       8    3dy2             34.417212     174.894573
                                                         6.739673       4.248634
                                                         2.441624       3.763414
                                                         0.806764       0.546922
                                                         0.283960       0.015501
                                                         0.097098       0.001415
                          2       8    3dyz             34.417212     302.926287
                                                         6.739673       7.358850
                                                         2.441624       6.518424
                                                         0.806764       0.947296
                                                         0.283960       0.026849
                                                         0.097098       0.002451
                          2       8    3dz2             34.417212     174.894573
                                                         6.739673       4.248634
                                                         2.441624       3.763414
                                                         0.806764       0.546922
                                                         0.283960       0.015501
                                                         0.097098       0.001415

                          2       9    4dx2             34.417212    -164.169372
                                                         6.739673      -4.401044
                                                         2.441624      -2.510108
                                                         0.806764       0.323683
                                                         0.283960       0.139703
                                                         0.097098       0.001225
                          2       9    4dxy             34.417212    -284.349694
                                                         6.739673      -7.622831
                                                         2.441624      -4.347634
                                                         0.806764       0.560636
                                                         0.283960       0.241972
                                                         0.097098       0.002122
                          2       9    4dxz             34.417212    -284.349694
                                                         6.739673      -7.622831
                                                         2.441624      -4.347634
                                                         0.806764       0.560636
                                                         0.283960       0.241972
                                                         0.097098       0.002122
                          2       9    4dy2             34.417212    -164.169372
                                                         6.739673      -4.401044
                                                         2.441624      -2.510108
                                                         0.806764       0.323683
                                                         0.283960       0.139703
                                                         0.097098       0.001225
                          2       9    4dyz             34.417212    -284.349694
                                                         6.739673      -7.622831
                                                         2.441624      -4.347634
                                                         0.806764       0.560636
                                                         0.283960       0.241972
                                                         0.097098       0.002122
                          2       9    4dz2             34.417212    -164.169372
                                                         6.739673      -4.401044
                                                         2.441624      -2.510108
                                                         0.806764       0.323683
                                                         0.283960       0.139703
                                                         0.097098       0.001225

                          2      10    4fx3             34.417212      49.427593
                                                         6.739673      -2.026957
                                                         2.441624       1.033755
                                                         0.806764       0.576468
                                                         0.283960       0.042127
                                                         0.097098      -0.000799
                          2      10    4fx2y            34.417212     110.523457
                                                         6.739673      -4.532415
                                                         2.441624       2.311546
                                                         0.806764       1.289022
                                                         0.283960       0.094199
                                                         0.097098      -0.001786
                          2      10    4fx2z            34.417212     110.523457
                                                         6.739673      -4.532415
                                                         2.441624       2.311546
                                                         0.806764       1.289022
                                                         0.283960       0.094199
                                                         0.097098      -0.001786
                          2      10    4fxy2            34.417212     110.523457
                                                         6.739673      -4.532415
                                                         2.441624       2.311546
                                                         0.806764       1.289022
                                                         0.283960       0.094199
                                                         0.097098      -0.001786
                          2      10    4fxyz            34.417212     191.432243
                                                         6.739673      -7.850372
                                                         2.441624       4.003716
                                                         0.806764       2.232651
                                                         0.283960       0.163158
                                                         0.097098      -0.003093
                          2      10    4fxz2            34.417212     110.523457
                                                         6.739673      -4.532415
                                                         2.441624       2.311546
                                                         0.806764       1.289022
                                                         0.283960       0.094199
                                                         0.097098      -0.001786
                          2      10    4fy3             34.417212      49.427593
                                                         6.739673      -2.026957
                                                         2.441624       1.033755
                                                         0.806764       0.576468
                                                         0.283960       0.042127
                                                         0.097098      -0.000799
                          2      10    4fy2z            34.417212     110.523457
                                                         6.739673      -4.532415
                                                         2.441624       2.311546
                                                         0.806764       1.289022
                                                         0.283960       0.094199
                                                         0.097098      -0.001786
                          2      10    4fyz2            34.417212     110.523457
                                                         6.739673      -4.532415
                                                         2.441624       2.311546
                                                         0.806764       1.289022
                                                         0.283960       0.094199
                                                         0.097098      -0.001786
                          2      10    4fz3             34.417212      49.427593
                                                         6.739673      -2.026957
                                                         2.441624       1.033755
                                                         0.806764       0.576468
                                                         0.283960       0.042127
                                                         0.097098      -0.000799

       Atomic covalent radius [Angstrom]:                                  0.770

       Atomic van der Waals radius [Angstrom]:                             1.700

     The atoms of this atomic kind are PAW atoms (GAPW):
       Hard Gaussian function radius:                                      1.520
       Rho0 radius:                                                        1.520
       Maximum GTO radius used for PAW projector construction:            24.566

     GAPW Soft Basis Set                                TZVPP-MOLOPT-PBE-ae_soft

       Number of orbital shell sets:                                           2
       Number of orbital shells:                                              11
       Number of primitive Cartesian functions:                                4
       Number of Cartesian basis functions:                                   36
       Number of spherical basis functions:                                   31
       Norm type:                                                              2

       Normalised Cartesian orbitals:

                        Set   Shell   Orbital            Exponent    Coefficient

                          1       1    1s         

                          2       1    1s                2.441624       0.446183
                                                         0.806764       0.003692
                                                         0.283960       0.027513
                                                         0.097098       0.019281

                          2       2    2s                2.441624      -0.104551
                                                         0.806764       0.362633
                                                         0.283960       0.094997
                                                         0.097098       0.029117

                          2       3    3s                2.441624      -0.199197
                                                         0.806764      -0.252838
                                                         0.283960       0.169545
                                                         0.097098       0.047046

                          2       4    4s                2.441624      -0.053941
                                                         0.806764       0.091223
                                                         0.283960      -0.341415
                                                         0.097098       0.188374

                          2       5    2px               2.441624       0.695625
                                                         0.806764       0.779023
                                                         0.283960       0.032186
                                                         0.097098       0.005087
                          2       5    2py               2.441624       0.695625
                                                         0.806764       0.779023
                                                         0.283960       0.032186
                                                         0.097098       0.005087
                          2       5    2pz               2.441624       0.695625
                                                         0.806764       0.779023
                                                         0.283960       0.032186
                                                         0.097098       0.005087

                          2       6    3px               2.441624       0.912249
                                                         0.806764      -0.188640
                                                         0.283960       0.294367
                                                         0.097098       0.008084
                          2       6    3py               2.441624       0.912249
                                                         0.806764      -0.188640
                                                         0.283960       0.294367
                                                         0.097098       0.008084
                          2       6    3pz               2.441624       0.912249
                                                         0.806764      -0.188640
                                                         0.283960       0.294367
                                                         0.097098       0.008084

                          2       7    4px               2.441624      -0.855991
                                                         0.806764      -0.070055
                                                         0.283960      -0.017243
                                                         0.097098       0.081068
                          2       7    4py               2.441624      -0.855991
                                                         0.806764      -0.070055
                                                         0.283960      -0.017243
                                                         0.097098       0.081068
                          2       7    4pz               2.441624      -0.855991
                                                         0.806764      -0.070055
                                                         0.283960      -0.017243
                                                         0.097098       0.081068

                          2       8    3dx2              2.441624       3.763414
                                                         0.806764       0.546922
                                                         0.283960       0.015501
                                                         0.097098       0.001415
                          2       8    3dxy              2.441624       6.518424
                                                         0.806764       0.947296
                                                         0.283960       0.026849
                                                         0.097098       0.002451
                          2       8    3dxz              2.441624       6.518424
                                                         0.806764       0.947296
                                                         0.283960       0.026849
                                                         0.097098       0.002451
                          2       8    3dy2              2.441624       3.763414
                                                         0.806764       0.546922
                                                         0.283960       0.015501
                                                         0.097098       0.001415
                          2       8    3dyz              2.441624       6.518424
                                                         0.806764       0.947296
                                                         0.283960       0.026849
                                                         0.097098       0.002451
                          2       8    3dz2              2.441624       3.763414
                                                         0.806764       0.546922
                                                         0.283960       0.015501
                                                         0.097098       0.001415

                          2       9    4dx2              2.441624      -2.510108
                                                         0.806764       0.323683
                                                         0.283960       0.139703
                                                         0.097098       0.001225
                          2       9    4dxy              2.441624      -4.347634
                                                         0.806764       0.560636
                                                         0.283960       0.241972
                                                         0.097098       0.002122
                          2       9    4dxz              2.441624      -4.347634
                                                         0.806764       0.560636
                                                         0.283960       0.241972
                                                         0.097098       0.002122
                          2       9    4dy2              2.441624      -2.510108
                                                         0.806764       0.323683
                                                         0.283960       0.139703
                                                         0.097098       0.001225
                          2       9    4dyz              2.441624      -4.347634
                                                         0.806764       0.560636
                                                         0.283960       0.241972
                                                         0.097098       0.002122
                          2       9    4dz2              2.441624      -2.510108
                                                         0.806764       0.323683
                                                         0.283960       0.139703
                                                         0.097098       0.001225

                          2      10    4fx3              2.441624       1.033755
                                                         0.806764       0.576468
                                                         0.283960       0.042127
                                                         0.097098      -0.000799
                          2      10    4fx2y             2.441624       2.311546
                                                         0.806764       1.289022
                                                         0.283960       0.094199
                                                         0.097098      -0.001786
                          2      10    4fx2z             2.441624       2.311546
                                                         0.806764       1.289022
                                                         0.283960       0.094199
                                                         0.097098      -0.001786
                          2      10    4fxy2             2.441624       2.311546
                                                         0.806764       1.289022
                                                         0.283960       0.094199
                                                         0.097098      -0.001786
                          2      10    4fxyz             2.441624       4.003716
                                                         0.806764       2.232651
                                                         0.283960       0.163158
                                                         0.097098      -0.003093
                          2      10    4fxz2             2.441624       2.311546
                                                         0.806764       1.289022
                                                         0.283960       0.094199
                                                         0.097098      -0.001786
                          2      10    4fy3              2.441624       1.033755
                                                         0.806764       0.576468
                                                         0.283960       0.042127
                                                         0.097098      -0.000799
                          2      10    4fy2z             2.441624       2.311546
                                                         0.806764       1.289022
                                                         0.283960       0.094199
                                                         0.097098      -0.001786
                          2      10    4fyz2             2.441624       2.311546
                                                         0.806764       1.289022
                                                         0.283960       0.094199
                                                         0.097098      -0.001786
                          2      10    4fz3              2.441624       1.033755
                                                         0.806764       0.576468
                                                         0.283960       0.042127
                                                         0.097098      -0.000799

     AE Potential information for                                            ALL

       Description:                                       All-electron potential
                                          Krack, Parrinello, PCCP 2, 2105 (2000)

       Gaussian exponent of the core charge distribution:               4.109048
       Electronic configuration (s p d ...):                           4   2   0


 MOLECULE KIND INFORMATION


 All atoms are their own molecule, skipping detailed information


 TOTAL NUMBERS AND MAXIMUM NUMBERS

  Total number of            - Atomic kinds:                                   1
                             - Atoms:                                          8
                             - Shell sets:                                    16
                             - Shells:                                        88
                             - Primitive Cartesian functions:                 96
                             - Cartesian basis functions:                    288
                             - Spherical basis functions:                    248

  Maximum angular momentum of the orbital basis functions:                     3


 MODULE QUICKSTEP: ATOMIC COORDINATES IN ANGSTROM

   Atom Kind Element         X             Y             Z       Z(eff)     Mass
      1    1 C     6      0.000000      0.000000      0.000000   6.0000  12.0107
      2    1 C     6      0.000000      1.729194      1.729194   6.0000  12.0107
      3    1 C     6      1.729194      0.000000      1.729194   6.0000  12.0107
      4    1 C     6      1.729194      1.729194      0.000000   6.0000  12.0107
      5    1 C     6      0.864597      0.864597      0.864597   6.0000  12.0107
      6    1 C     6      0.864597      2.593791      2.593791   6.0000  12.0107
      7    1 C     6      2.593791      0.864597      2.593791   6.0000  12.0107
      8    1 C     6      2.593791      2.593791      0.864597   6.0000  12.0107



 SCF PARAMETERS         Density guess:                                    ATOMIC
                        --------------------------------------------------------
                        max_scf:                                             200
                        max_scf_history:                                       0
                        max_diis:                                              4
                        --------------------------------------------------------
                        eps_scf:                                        5.00E-06
                        eps_scf_history:                                0.00E+00
                        eps_diis:                                       1.00E-01
                        eps_eigval:                                     1.00E-05
                        --------------------------------------------------------
                        level_shift [a.u.]:                             0.000000
                        --------------------------------------------------------
                        Mixing method:                           DIRECT_P_MIXING
                        --------------------------------------------------------
                        Outer loop SCF in use 
                        No variables optimised in outer loop
                        eps_scf                                         5.00E-06
                        max_scf                                                5
                        No outer loop optimization
                        step_size                                       5.00E-01

 PW_GRID| Information for grid number                                          1
 PW_GRID| Cutoff [a.u.]                                                    400.0
 PW_GRID| spherical cutoff:                                                   NO
 PW_GRID|   Bounds   1            -30      29                Points:          60
 PW_GRID|   Bounds   2            -30      29                Points:          60
 PW_GRID|   Bounds   3            -30      29                Points:          60
 PW_GRID| Volume element (a.u.^3)  0.1292E-02     Volume (a.u.^3)       279.1373
 PW_GRID| Grid span                                                    FULLSPACE

 PW_GRID| Information for grid number                                          2
 PW_GRID| Number of the reference grid                                         1
 PW_GRID| Cutoff [a.u.]                                                    133.3
 PW_GRID| spherical cutoff:                                                   NO
 PW_GRID|   Bounds   1            -18      17                Points:          36
 PW_GRID|   Bounds   2            -18      17                Points:          36
 PW_GRID|   Bounds   3            -18      17                Points:          36
 PW_GRID| Volume element (a.u.^3)  0.5983E-02     Volume (a.u.^3)       279.1373
 PW_GRID| Grid span                                                    FULLSPACE

 PW_GRID| Information for grid number                                          3
 PW_GRID| Number of the reference grid                                         1
 PW_GRID| Cutoff [a.u.]                                                     44.4
 PW_GRID| spherical cutoff:                                                   NO
 PW_GRID|   Bounds   1            -10       9                Points:          20
 PW_GRID|   Bounds   2            -10       9                Points:          20
 PW_GRID|   Bounds   3            -10       9                Points:          20
 PW_GRID| Volume element (a.u.^3)  0.3489E-01     Volume (a.u.^3)       279.1373
 PW_GRID| Grid span                                                    FULLSPACE

 PW_GRID| Information for grid number                                          4
 PW_GRID| Number of the reference grid                                         1
 PW_GRID| Cutoff [a.u.]                                                     14.8
 PW_GRID| spherical cutoff:                                                   NO
 PW_GRID|   Bounds   1             -6       5                Points:          12
 PW_GRID|   Bounds   2             -6       5                Points:          12
 PW_GRID|   Bounds   3             -6       5                Points:          12
 PW_GRID| Volume element (a.u.^3)  0.1615         Volume (a.u.^3)       279.1373
 PW_GRID| Grid span                                                    FULLSPACE

 PW_GRID| Information for grid number                                          5
 PW_GRID| Number of the reference grid                                         1
 PW_GRID| Cutoff [a.u.]                                                      4.9
 PW_GRID| spherical cutoff:                                                   NO
 PW_GRID|   Bounds   1             -4       3                Points:           8
 PW_GRID|   Bounds   2             -4       3                Points:           8
 PW_GRID|   Bounds   3             -4       3                Points:           8
 PW_GRID| Volume element (a.u.^3)  0.5452         Volume (a.u.^3)       279.1373
 PW_GRID| Grid span                                                    FULLSPACE

 POISSON| Solver                                                        PERIODIC
 POISSON| Periodicity                                                        XYZ

 RS_GRID| Information for grid number                                          1
 RS_GRID|   Bounds   1            -30      29                Points:          60
 RS_GRID|   Bounds   2            -30      29                Points:          60
 RS_GRID|   Bounds   3            -30      29                Points:          60

 RS_GRID| Information for grid number                                          2
 RS_GRID|   Bounds   1            -18      17                Points:          36
 RS_GRID|   Bounds   2            -18      17                Points:          36
 RS_GRID|   Bounds   3            -18      17                Points:          36

 RS_GRID| Information for grid number                                          3
 RS_GRID|   Bounds   1            -10       9                Points:          20
 RS_GRID|   Bounds   2            -10       9                Points:          20
 RS_GRID|   Bounds   3            -10       9                Points:          20

 RS_GRID| Information for grid number                                          4
 RS_GRID|   Bounds   1             -6       5                Points:          12
 RS_GRID|   Bounds   2             -6       5                Points:          12
 RS_GRID|   Bounds   3             -6       5                Points:          12

 RS_GRID| Information for grid number                                          5
 RS_GRID|   Bounds   1             -4       3                Points:           8
 RS_GRID|   Bounds   2             -4       3                Points:           8
 RS_GRID|   Bounds   3             -4       3                Points:           8

 *******************************************************************************
                                    Kpoints
 *******************************************************************************
 BRILLOUIN| K-point scheme                                        Monkhorst-Pack
 BRILLOUIN| K-Point grid                                             7    7    7
 BRILLOUIN| Gamma-centered k-point mesh                                     ON
 BRILLOUIN| K-point symmetry accuracy                               0.100000E-07
 BRILLOUIN| K-Point point group symmetrization                                ON
 BRILLOUIN| Symmetry backend                                               K290
 BRILLOUIN| Symmetry reduction method                                      K290
 BRILLOUIN| Wavefunction type                                            COMPLEX
 BRILLOUIN| List of Kpoints [2 Pi/Bohr]                                       20
 BRILLOUIN| Number           Weight            X              Y              Z
 BRILLOUIN|     1           0.02332       -0.42857       -0.42857       -0.42857
 BRILLOUIN|     2           0.06997       -0.42857       -0.42857       -0.28571
 BRILLOUIN|     3           0.06997       -0.42857       -0.42857       -0.14286
 BRILLOUIN|     4           0.03499       -0.42857       -0.42857        0.00000
 BRILLOUIN|     5           0.06997       -0.42857       -0.28571       -0.28571
 BRILLOUIN|     6           0.13994       -0.42857       -0.28571       -0.14286
 BRILLOUIN|     7           0.06997       -0.42857       -0.28571        0.00000
 BRILLOUIN|     8           0.06997       -0.42857       -0.14286       -0.14286
 BRILLOUIN|     9           0.06997       -0.42857       -0.14286        0.00000
 BRILLOUIN|    10           0.01749       -0.42857        0.00000        0.00000
 BRILLOUIN|    11           0.02332       -0.28571       -0.28571       -0.28571
 BRILLOUIN|    12           0.06997       -0.28571       -0.28571       -0.14286
 BRILLOUIN|    13           0.03499       -0.28571       -0.28571        0.00000
 BRILLOUIN|    14           0.06997       -0.28571       -0.14286       -0.14286
 BRILLOUIN|    15           0.06997       -0.28571       -0.14286        0.00000
 BRILLOUIN|    16           0.01749       -0.28571        0.00000        0.00000
 BRILLOUIN|    17           0.02332       -0.14286       -0.14286       -0.14286
 BRILLOUIN|    18           0.03499       -0.14286       -0.14286        0.00000
 BRILLOUIN|    19           0.01749       -0.14286        0.00000        0.00000
 BRILLOUIN|    20           0.00292        0.00000        0.00000        0.00000
 *******************************************************************************

 Extrapolation method: initial_guess

 Atomic guess: The first density matrix is obtained in terms of atomic orbitals
               and electronic configurations assigned to each atomic kind

 Guess for atomic kind: C

 Electronic structure
    Total number of core electrons                                          0.00
    Total number of valence electrons                                       6.00
    Total number of electrons                                               6.00
    Multiplicity                                                   not specified
    S      2.00  2.00
    P      2.00


 *******************************************************************************
                  Iteration          Convergence                     Energy [au]
 *******************************************************************************
                          1        0.173655E-01                 -37.376787438959
                          2        0.676160E-02                 -37.376929801325
                          3        0.811969E-03                 -37.376951023995
                          4        0.160224E-04                 -37.376951339065
                          5        0.242098E-06                 -37.376951339187

 Energy components [Hartree]           Total Energy ::          -37.376951339187
                                        Band Energy ::          -20.702774312096
                                     Kinetic Energy ::           37.976803393369
                                   Potential Energy ::          -75.353754732556
                                      Virial (-V/T) ::            1.984204777638
                                        Core Energy ::          -50.754367308545
                                          XC Energy ::           -4.825764056545
                                     Coulomb Energy ::           18.203180025904

 Orbital energies  State     L     Occupation   Energy[a.u.]          Energy[eV]

                       1     0          2.000      -9.788461         -266.357558
                       2     0          2.000      -0.425735          -11.584833

                       1     1          2.000      -0.137192           -3.733179


 Total Electron Density at R=0:                                       119.617441
 Re-scaling the density matrix to get the right number of electrons
                  # Electrons              Trace(P)               Scaling factor
                           48                48.000                        1.000

 Number of electrons:                                                         48
 Number of occupied orbitals:                                                 24
 Number of molecular orbitals:                                                24

 Number of orbital functions:                                                248
 Number of independent orbital functions:                                    248


 SCF WAVEFUNCTION OPTIMIZATION

  Step     Update method      Time    Convergence         Total energy    Change
  ------------------------------------------------------------------------------

 *** WARNING in qs_ks_methods.F:773 :: Native SKALA grid evaluation with   ***
 *** k-points is using the CPU TorchScript path. Use a mutually compatible ***
 *** BLAS, ScaLAPACK, OpenMP, and LibTorch runtime stack, or select        ***
 *** NATIVE_GRID_USE_CUDA T.                                               ***

 SKALA_GPW| Atom-composite cross support/maxima   2.119019365127E+00   4.674923108829E+01   3.406452983048E+02   9.286829733079E+02
 SKALA_GPW| Active atom-composite XC energy  -4.3871699681661354E+01
 SKALA_GPW| Active atom-composite electrons   4.8053498840015813E+01
 SKALA_GPW| Active atom-composite density range   1.4950487110746523E-02   5.9818813794904770E+01
 SKALA_GPW| Active atom-composite tau range   9.0006936292312753E-03   9.7288981175707158E+02
 SKALA_GPW| Active atom-composite tau integral   3.0384984360988506E+02
 SKALA_GPW| Active atom-composite max gradient   6.2607358859876365E+02
     1 P_Mix/Diag. 0.10E+00  784.4     1.16429206      -307.6994146218 -3.08E+02
 SKALA_GPW| Atom-composite cross support/maxima   2.119019365127E+00   4.677136507637E+01   3.418375240524E+02   9.352464633467E+02
 SKALA_GPW| Active atom-composite XC energy  -4.3872881929817865E+01
 SKALA_GPW| Active atom-composite electrons   4.8052261516933463E+01
 SKALA_GPW| Active atom-composite density range   1.4221539855460886E-02   5.9888309675961295E+01
 SKALA_GPW| Active atom-composite tau range   9.0808005999286449E-03   9.8011025017969803E+02
 SKALA_GPW| Active atom-composite tau integral   3.0407325512622526E+02
 SKALA_GPW| Active atom-composite max gradient   6.2852827008531938E+02
     2 P_Mix/Diag. 0.10E+00  742.9     1.05527986      -307.4091466468  2.90E-01
 SKALA_GPW| Atom-composite cross support/maxima   2.207381684066E+00   4.679042137952E+01   3.429050700869E+02   9.411382879397E+02
 SKALA_GPW| Active atom-composite XC energy  -4.3877679610184884E+01
 SKALA_GPW| Active atom-composite electrons   4.8051146364624927E+01
 SKALA_GPW| Active atom-composite density range   1.3562412975101091E-02   5.9949777528983830E+01
 SKALA_GPW| Active atom-composite tau range   9.1532090084477588E-03   9.8659282877029932E+02
 SKALA_GPW| Active atom-composite tau integral   3.0426423370102503E+02
 SKALA_GPW| Active atom-composite max gradient   6.3072767956417522E+02
     3 P_Mix/Diag. 0.10E+00  755.6     0.95698490      -307.1506077035  2.59E-01
 SKALA_GPW| Atom-composite cross support/maxima   2.207381684066E+00   4.680683431409E+01   3.438613116735E+02   9.464279515078E+02
 SKALA_GPW| Active atom-composite XC energy  -4.3885127337884470E+01
 SKALA_GPW| Active atom-composite electrons   4.8050142075994628E+01
 SKALA_GPW| Active atom-composite density range   1.2967023434660087E-02   6.0004180807263843E+01
 SKALA_GPW| Active atom-composite tau range   9.2184587021026700E-03   9.9241381595182042E+02
 SKALA_GPW| Active atom-composite tau integral   3.0442695576758888E+02
 SKALA_GPW| Active atom-composite max gradient   6.3269896640314732E+02
     4 P_Mix/Diag. 0.10E+00  735.5     0.86824342      -306.9202346222  2.30E-01
 SKALA_GPW| Atom-composite cross support/maxima   2.207381684066E+00   4.682099733517E+01   3.447182723345E+02   9.511781227240E+02
 SKALA_GPW| Active atom-composite XC energy  -4.3894563093929889E+01
 SKALA_GPW| Active atom-composite electrons   4.8049237439856356E+01
 SKALA_GPW| Active atom-composite density range   1.2429418333120652E-02   6.0052389446644099E+01
 SKALA_GPW| Active atom-composite tau range   9.2768219961610332E-03   9.9764208145473140E+02
 SKALA_GPW| Active atom-composite tau integral   3.0456550125031885E+02
 SKALA_GPW| Active atom-composite max gradient   6.3446658728167756E+02
     5 P_Mix/Diag. 0.10E+00  740.9     0.78790180      -306.7149239906  2.05E-01
 SKALA_GPW| Atom-composite cross support/maxima   2.207381684066E+00   4.683326283374E+01   3.454867750204E+02   9.554452782155E+02
 SKALA_GPW| Active atom-composite XC energy  -4.3905427706507290E+01
 SKALA_GPW| Active atom-composite electrons   4.8048422316139415E+01
 SKALA_GPW| Active atom-composite density range   1.1944148185362205E-02   6.0095184765466676E+01
 SKALA_GPW| Active atom-composite tau range   9.3286418214612258E-03   1.0023394565815343E+03
 SKALA_GPW| Active atom-composite tau integral   3.0468357869771353E+02
 SKALA_GPW| Active atom-composite max gradient   6.3605255045664899E+02
     6 P_Mix/Diag. 0.10E+00  738.1     0.71495060      -306.5318707399  1.83E-01
 SKALA_GPW| Atom-composite cross support/maxima   2.207381684066E+00   4.684393712469E+01   3.461764891474E+02   9.592800747126E+02
 SKALA_GPW| Active atom-composite XC energy  -4.3917207897483188E+01
 SKALA_GPW| Active atom-composite electrons   4.8047687991832298E+01
 SKALA_GPW| Active atom-composite density range   1.1506356636956355E-02   6.0133256446407465E+01
 SKALA_GPW| Active atom-composite tau range   9.3745184940822717E-03   1.0065614916429611E+03
 SKALA_GPW| Active atom-composite tau integral   3.0478431960314106E+02
 SKALA_GPW| Active atom-composite max gradient   6.3747653353343412E+02
     7 P_Mix/Diag. 0.10E+00  733.7     0.64858460      -306.3685405768  1.63E-01
 SKALA_GPW| Atom-composite cross support/maxima   2.207381684066E+00   4.685327860265E+01   3.467959919940E+02   9.627277579379E+02
 SKALA_GPW| Active atom-composite XC energy  -4.3929472735090116E+01
 SKALA_GPW| Active atom-composite electrons   4.8047026746700560E+01
 SKALA_GPW| Active atom-composite density range   1.1111585103953618E-02   6.0167203010542750E+01
 SKALA_GPW| Active atom-composite tau range   9.4152114743621083E-03   1.0103578177924467E+03
 SKALA_GPW| Active atom-composite tau integral   3.0487032906559642E+02
 SKALA_GPW| Active atom-composite max gradient   6.3875601524342653E+02
     8 P_Mix/Diag. 0.10E+00  740.3     0.58819667      -306.2226914789  1.46E-01
 SKALA_GPW| Atom-composite cross support/maxima   2.207381684066E+00   4.686149787045E+01   3.473528321536E+02   9.658285560220E+02
 SKALA_GPW| Active atom-composite XC energy  -4.3941903051637311E+01
 SKALA_GPW| Active atom-composite electrons   4.8046431388008529E+01
 SKALA_GPW| Active atom-composite density range   1.0755628242630317E-02   6.0197534513755386E+01
 SKALA_GPW| Active atom-composite tau range   9.4514451151791242E-03   1.0137725832641429E+03
 SKALA_GPW| Active atom-composite tau integral   3.0494381596703039E+02
 SKALA_GPW| Active atom-composite max gradient   6.3990640884464096E+02
     9 P_Mix/Diag. 0.10E+00  740.6     0.53329639      -306.0923685257  1.30E-01
 SKALA_GPW| Atom-composite cross support/maxima   2.207381684066E+00   4.686876231653E+01   3.478536253649E+02   9.686181487025E+02
 SKALA_GPW| Active atom-composite XC energy  -4.3954279667027151E+01
 SKALA_GPW| Active atom-composite electrons   4.8045895125143197E+01
 SKALA_GPW| Active atom-composite density range   1.0434535422311460E-02   6.0224680998462730E+01
 SKALA_GPW| Active atom-composite tau range   9.4838041815159084E-03   1.0168449663172225E+03
 SKALA_GPW| Active atom-composite tau integral   3.0500667985205632E+02
 SKALA_GPW| Active atom-composite max gradient   6.4094125457219945E+02
    10 P_Mix/Diag. 0.10E+00  735.0     0.48343510      -305.9758653470  1.17E-01
 SKALA_GPW| Atom-composite cross support/maxima   2.207381684066E+00   4.687520424558E+01   3.483041797087E+02   9.711282145638E+02
 SKALA_GPW| Active atom-composite XC energy  -4.3966449036929106E+01
 SKALA_GPW| Active atom-composite electrons   4.8045411693369907E+01
 SKALA_GPW| Active atom-composite density range   1.0144690404769322E-02   6.0249005607652265E+01
 SKALA_GPW| Active atom-composite tau range   9.5127362248185153E-03   1.0196097689599917E+03
 SKALA_GPW| Active atom-composite tau integral   3.0506054468761369E+02
 SKALA_GPW| Active atom-composite max gradient   6.4187246649398674E+02
    11 P_Mix/Diag. 0.10E+00  733.2     0.43817427      -305.8716771924  1.04E-01
 SKALA_GPW| Atom-composite cross support/maxima   2.207381684066E+00   4.688092977511E+01   3.487096243034E+02   9.733869770647E+02
 SKALA_GPW| Active atom-composite XC energy  -4.3978288663783026E+01
 SKALA_GPW| Active atom-composite electrons   4.8044975530122862E+01
 SKALA_GPW| Active atom-composite density range   9.8828891411332186E-03   6.0270818546001131E+01
 SKALA_GPW| Active atom-composite tau range   9.5386043474050934E-03   1.0220980084529302E+03
 SKALA_GPW| Active atom-composite tau integral   3.0510676950866542E+02
 SKALA_GPW| Active atom-composite max gradient   6.4271058511383160E+02
    12 P_Mix/Diag. 0.10E+00  734.1     0.39708643      -305.7784618709  9.32E-02
 SKALA_GPW| Atom-composite cross support/maxima   2.207381684066E+00   4.688602629027E+01   3.490745207755E+02   9.754196846589E+02
 SKALA_GPW| Active atom-composite XC energy  -4.3989687212996344E+01
 SKALA_GPW| Active atom-composite electrons   4.8044581874130031E+01
 SKALA_GPW| Active atom-composite density range   9.6463705913504318E-03   6.0290388891107042E+01
 SKALA_GPW| Active atom-composite tau range   9.5617418564029402E-03   1.0243374385504865E+03
 SKALA_GPW| Active atom-composite tau integral   3.0514646015709712E+02
 SKALA_GPW| Active atom-composite max gradient   6.4346499680991371E+02
    13 P_Mix/Diag. 0.10E+00  736.4     0.35976961      -305.6950161613  8.34E-02
 SKALA_GPW| Atom-composite cross support/maxima   2.207381684066E+00   4.689056778480E+01   3.494029503144E+02   9.772490010990E+02
 SKALA_GPW| Active atom-composite XC energy  -4.4000538793202779E+01
 SKALA_GPW| Active atom-composite electrons   4.8044226735792982E+01
 SKALA_GPW| Active atom-composite density range   9.4327864962604393E-03   6.0307953313690859E+01
 SKALA_GPW| Active atom-composite tau range   9.5824828264659094E-03   1.0263529748584690E+03
 SKALA_GPW| Active atom-composite tau integral   3.0518049653266166E+02
 SKALA_GPW| Active atom-composite max gradient   6.4414410627338850E+02
    14 P_Mix/Diag. 0.10E+00  735.4     0.32586155      -305.6202621433  7.48E-02
 SKALA_GPW| Atom-composite cross support/maxima   2.207381684066E+00   4.689461814001E+01   3.496985768806E+02   9.788953083454E+02
 SKALA_GPW| Active atom-composite XC energy  -4.4010749200497841E+01
 SKALA_GPW| Active atom-composite electrons   4.8043906755534337E+01
 SKALA_GPW| Active atom-composite density range   9.2401231628410838E-03   6.0323721803532827E+01
 SKALA_GPW| Active atom-composite tau range   9.6011635111072566E-03   1.0281670266925717E+03
 SKALA_GPW| Active atom-composite tau integral   3.0520957638022588E+02
 SKALA_GPW| Active atom-composite max gradient   6.4475546308468154E+02
    15 P_Mix/Diag. 0.10E+00  736.4     0.29504501      -305.5532400211  6.70E-02
 SKALA_GPW| Atom-composite cross support/maxima   2.207381684066E+00   4.689823306307E+01   3.499646941355E+02   9.803769476343E+02
 SKALA_GPW| Active atom-composite XC energy  -4.4020245323575935E+01
 SKALA_GPW| Active atom-composite electrons   4.8043619015307925E+01
 SKALA_GPW| Active atom-composite density range   9.0666068823112844E-03   6.0337881427294462E+01
 SKALA_GPW| Active atom-composite tau range   9.6181055018825078E-03   1.0297997622176858E+03
 SKALA_GPW| Active atom-composite tau integral   3.0523426655805468E+02
 SKALA_GPW| Active atom-composite max gradient   6.4530585672670327E+02
    16 P_Mix/Diag. 0.10E+00  735.2     0.26704324      -305.4931010489  6.01E-02
 SKALA_GPW| Atom-composite cross support/maxima   2.207381684066E+00   4.690146144248E+01   3.502042639199E+02   9.817104247720E+02
 SKALA_GPW| Active atom-composite XC energy  -4.4028981617537781E+01
 SKALA_GPW| Active atom-composite electrons   4.8043360873241454E+01
 SKALA_GPW| Active atom-composite density range   8.9106241150264907E-03   6.0350599187161357E+01
 SKALA_GPW| Active atom-composite tau range   9.6335963533190367E-03   1.0312693342865414E+03
 SKALA_GPW| Active atom-composite tau integral   3.0525504905679060E+02
 SKALA_GPW| Active atom-composite max gradient   6.4580139488301666E+02
    17 P_Mix/Diag. 0.10E+00  728.3     0.24161089      -305.4390983557  5.40E-02
 SKALA_GPW| Atom-composite cross support/maxima   2.207381684066E+00   4.690434636334E+01   3.504199498060E+02   9.829105929888E+02
 SKALA_GPW| Active atom-composite XC energy  -4.4036940437537410E+01
 SKALA_GPW| Active atom-composite electrons   4.8043129857392806E+01
 SKALA_GPW| Active atom-composite density range   8.7706709908709022E-03   6.0362024364014140E+01
 SKALA_GPW| Active atom-composite tau range   9.6478777049560684E-03   1.0325920813358020E+03
 SKALA_GPW| Active atom-composite tau integral   3.0527235356895108E+02
 SKALA_GPW| Active atom-composite max gradient   6.4624757198436896E+02
    18 P_Mix/Diag. 0.10E+00  730.0     0.21852595      -305.3905750667  4.85E-02
 SKALA_GPW| Atom-composite cross support/maxima   2.207381684066E+00   4.690692595204E+01   3.506141473742E+02   9.839908180861E+02
 SKALA_GPW| Active atom-composite XC energy  -4.4044129205655082E+01
 SKALA_GPW| Active atom-composite electrons   4.8042923616127574E+01
 SKALA_GPW| Active atom-composite density range   8.6453295595023752E-03   6.0372290566463803E+01
 SKALA_GPW| Active atom-composite tau range   9.6611426409993293E-03   1.0337827084360003E+03
 SKALA_GPW| Active atom-composite tau integral   3.0528657581271716E+02
 SKALA_GPW| Active atom-composite max gradient   6.4664933102595091E+02
    19 P_Mix/Diag. 0.10E+00  743.4     0.19758470      -305.3469530804  4.36E-02
 SKALA_GPW| Atom-composite cross support/maxima   2.207381684066E+00   4.690923407430E+01   3.507890115224E+02   9.849631276517E+02
 SKALA_GPW| Active atom-composite XC energy  -4.4050574711431800E+01
 SKALA_GPW| Active atom-composite electrons   4.8042739905759781E+01
 SKALA_GPW| Active atom-composite density range   8.5332609645469605E-03   6.0381517522396919E+01
 SKALA_GPW| Active atom-composite tau range   9.6735396064862051E-03   1.0348544507273414E+03
 SKALA_GPW| Active atom-composite tau integral   3.0529808558150506E+02
 SKALA_GPW| Active atom-composite max gradient   6.4701111943802437E+02
    20 P_Mix/Diag. 0.10E+00  736.4     0.17859921      -305.3077218574  3.92E-02
 SKALA_GPW| Atom-composite cross support/maxima   2.207381684066E+00   4.691130085089E+01   3.509464807853E+02   9.858383450771E+02
 SKALA_GPW| Active atom-composite XC energy  -4.4056317453722130E+01
 SKALA_GPW| Active atom-composite electrons   4.8042576595991058E+01
 SKALA_GPW| Active atom-composite density range   8.4332064858172687E-03   6.0389812568785189E+01
 SKALA_GPW| Active atom-composite tau range   9.6851794808120607E-03   1.0358192202793825E+03
 SKALA_GPW| Active atom-composite tau integral   3.0530722873903107E+02
 SKALA_GPW| Active atom-composite max gradient   6.4733693896442594E+02
    21 P_Mix/Diag. 0.10E+00  748.8     0.16139606      -305.2724289848  3.53E-02
 SKALA_GPW| Atom-composite cross support/maxima   2.207381684066E+00   4.691315309203E+01   3.510882989044E+02   9.866262085424E+02
 SKALA_GPW| Active atom-composite XC energy  -4.4061406482629394E+01
 SKALA_GPW| Active atom-composite electrons   4.8042431680864254E+01
 SKALA_GPW| Active atom-composite density range   8.3439907960240478E-03   6.0397271950860187E+01
 SKALA_GPW| Active atom-composite tau range   9.6961434423202039E-03   1.0366877364854506E+03
 SKALA_GPW| Active atom-composite tau integral   3.0531432644434273E+02
 SKALA_GPW| Active atom-composite max gradient   6.4763038996157923E+02
    22 P_Mix/Diag. 0.10E+00  732.4     0.14581549      -305.2406721262  3.18E-02
 SKALA_GPW| Atom-composite cross support/maxima   2.207381684066E+00   4.691481464977E+01   3.512160346340E+02   9.873354807175E+02
 SKALA_GPW| Active atom-composite XC energy  -4.4065895780406066E+01
 SKALA_GPW| Active atom-composite electrons   4.8042303288728341E+01
 SKALA_GPW| Active atom-composite density range   8.2645245819456190E-03   6.0403981968919005E+01
 SKALA_GPW| Active atom-composite tau range   9.7064903004439110E-03   1.0374696464272899E+03
 SKALA_GPW| Active atom-composite tau integral   3.0531967368391616E+02
 SKALA_GPW| Active atom-composite max gradient   6.4789471214285766E+02
    23 P_Mix/Diag. 0.10E+00  735.6     0.13171069      -305.2120928907  2.86E-02
 SKALA_GPW| Atom-composite cross support/maxima   2.207381684066E+00   4.691630674302E+01   3.513310991143E+02   9.879740448341E+02
 SKALA_GPW| Active atom-composite XC energy  -4.4069840291022388E+01
 SKALA_GPW| Active atom-composite electrons   4.8042189688516224E+01
 SKALA_GPW| Active atom-composite density range   8.1938054047699244E-03   6.0410019997795274E+01
 SKALA_GPW| Active atom-composite tau range   9.7162627295475541E-03   1.0381736302111428E+03
 SKALA_GPW| Active atom-composite tau integral   3.0532353827164309E+02
 SKALA_GPW| Active atom-composite max gradient   6.4813282028223750E+02
    24 P_Mix/Diag. 0.10E+00  732.0     0.11894700      -305.1863704620  2.57E-02
 SKALA_GPW| Atom-composite cross support/maxima   2.207381684066E+00   4.691764818800E+01   3.514347614500E+02   9.885489921497E+02
 SKALA_GPW| Active atom-composite XC energy  -4.4073294538558791E+01
 SKALA_GPW| Active atom-composite electrons   4.8042089291786120E+01
 SKALA_GPW| Active atom-composite density range   8.1309166169781285E-03   6.0415455342489082E+01
 SKALA_GPW| Active atom-composite tau range   9.7254922484068529E-03   1.0388074970577893E+03
 SKALA_GPW| Active atom-composite tau integral   3.0532616036483279E+02
 SKALA_GPW| Active atom-composite max gradient   6.4834733637052125E+02
    25 P_Mix/Diag. 0.10E+00  726.3     0.10740111      -305.1632178445  2.32E-02
 SKALA_GPW| Atom-composite cross support/maxima   2.207381684066E+00   4.691885566914E+01   3.515281630443E+02   9.890667012441E+02
 SKALA_GPW| Active atom-composite XC energy  -4.4076310416304203E+01
 SKALA_GPW| Active atom-composite electrons   4.8042000651019606E+01
 SKALA_GPW| Active atom-composite density range   8.0750246322312796E-03   6.0420350082329747E+01
 SKALA_GPW| Active atom-composite tau range   9.7342030577943772E-03   1.0393782723226395E+03
 SKALA_GPW| Active atom-composite tau integral   3.0532775292876181E+02
 SKALA_GPW| Active atom-composite max gradient   6.4854061908418305E+02
    26 P_Mix/Diag. 0.10E+00  742.1     0.09696027      -305.1423772691  2.08E-02
 SKALA_GPW| Atom-composite cross support/maxima   2.207381684066E+00   4.691994394474E+01   3.516123301440E+02   9.895329082409E+02
 SKALA_GPW| Active atom-composite XC energy  -4.4078937002746649E+01
 SKALA_GPW| Active atom-composite electrons   4.8041922454824757E+01
 SKALA_GPW| Active atom-composite density range   8.0253749131966885E-03   6.0424759777425329E+01
 SKALA_GPW| Active atom-composite tau range   9.7424148494423234E-03   1.0398922746066687E+03
 SKALA_GPW| Active atom-composite tau integral   3.0532850281758624E+02
 SKALA_GPW| Active atom-composite max gradient   6.4871478962897766E+02
    27 DIIS/Diag.  0.19E-03  727.3     0.08925589      -305.1236176368  1.88E-02
 SKALA_GPW| Atom-composite cross support/maxima   2.207381684066E+00   4.693024509138E+01   3.523812212593E+02   9.937607950368E+02
 SKALA_GPW| Active atom-composite XC energy  -4.4094701596764118E+01
 SKALA_GPW| Active atom-composite electrons   4.8041352158826804E+01
 SKALA_GPW| Active atom-composite density range   7.6340179971206307E-03   6.0465298229608571E+01
 SKALA_GPW| Active atom-composite tau range   9.8476535191418507E-03   1.0445534679374443E+03
 SKALA_GPW| Active atom-composite tau integral   3.0528350091171291E+02
 SKALA_GPW| Active atom-composite max gradient   6.5030498956792883E+02
    28 DIIS/Diag.  0.14E-03  745.9     0.00071021      -304.9545990534  1.69E-01
 SKALA_GPW| Atom-composite cross support/maxima   2.207381684066E+00   4.693023969795E+01   3.523831061206E+02   9.937654146098E+02
 SKALA_GPW| Active atom-composite XC energy  -4.4093037972311691E+01
 SKALA_GPW| Active atom-composite electrons   4.8041379663375473E+01
 SKALA_GPW| Active atom-composite density range   7.6453724288003651E-03   6.0465341515466960E+01
 SKALA_GPW| Active atom-composite tau range   9.8540138621298224E-03   1.0445588495845466E+03
 SKALA_GPW| Active atom-composite tau integral   3.0527025460701196E+02
 SKALA_GPW| Active atom-composite max gradient   6.5030891188344197E+02
    29 DIIS/Diag.  0.79E-03  734.2     0.00016307      -304.9545957725  3.28E-06
 SKALA_GPW| Atom-composite cross support/maxima   2.207381684066E+00   4.693017627217E+01   3.523818376621E+02   9.937618082629E+02
 SKALA_GPW| Active atom-composite XC energy  -4.4094023791178202E+01
 SKALA_GPW| Active atom-composite electrons   4.8041363838330433E+01
 SKALA_GPW| Active atom-composite density range   7.6387030748466915E-03   6.0465239531222153E+01
 SKALA_GPW| Active atom-composite tau range   9.8502504496709494E-03   1.0445549312497299E+03
 SKALA_GPW| Active atom-composite tau integral   3.0527590809733010E+02
 SKALA_GPW| Active atom-composite max gradient   6.5030641441065541E+02
    30 DIIS/Diag.  0.17E-03  734.5     0.00173831      -304.9545977595 -1.99E-06
 SKALA_GPW| Atom-composite cross support/maxima   2.207381684066E+00   4.693034011396E+01   3.523779459103E+02   9.937539856916E+02
 SKALA_GPW| Active atom-composite XC energy  -4.4099888092260088E+01
 SKALA_GPW| Active atom-composite electrons   4.8041270578024651E+01
 SKALA_GPW| Active atom-composite density range   7.6002122876500109E-03   6.0465319213221996E+01
 SKALA_GPW| Active atom-composite tau range   9.8279853270092261E-03   1.0445454714326756E+03
 SKALA_GPW| Active atom-composite tau integral   3.0531769061582247E+02
 SKALA_GPW| Active atom-composite max gradient   6.5029807351582292E+02
    31 DIIS/Diag.  0.95E-02  741.6     0.00111739      -304.9545770261  2.07E-05
 SKALA_GPW| Atom-composite cross support/maxima   2.207381684066E+00   4.693119959802E+01   3.523895804115E+02   9.937902336951E+02
 SKALA_GPW| Active atom-composite XC energy  -4.4095395255785164E+01
 SKALA_GPW| Active atom-composite electrons   4.8041347839509633E+01
 SKALA_GPW| Active atom-composite density range   7.6324482555759059E-03   6.0466566449760094E+01
 SKALA_GPW| Active atom-composite tau range   9.8454936649575702E-03   1.0445845218107718E+03
 SKALA_GPW| Active atom-composite tau integral   3.0529184065724581E+02
 SKALA_GPW| Active atom-composite max gradient   6.5032067152418142E+02
    32 DIIS/Diag.  0.49E-05  747.2     0.00003378      -304.9545992658 -2.22E-05
 SKALA_GPW| Atom-composite cross support/maxima   2.207381684066E+00   4.693095780007E+01   3.523875125492E+02   9.937831936538E+02
 SKALA_GPW| Active atom-composite XC energy  -4.4095200420464145E+01
 SKALA_GPW| Active atom-composite electrons   4.8041349555558938E+01
 SKALA_GPW| Active atom-composite density range   7.6330471506724298E-03   6.0466245408201807E+01
 SKALA_GPW| Active atom-composite tau range   9.8460790651886416E-03   1.0445771367718366E+03
 SKALA_GPW| Active atom-composite tau integral   3.0528971460623012E+02
 SKALA_GPW| Active atom-composite max gradient   6.5031682915807198E+02
    33 DIIS/Diag.  0.97E-08  744.7     0.00000076      -304.9545992921 -2.63E-08

  *** SCF run converged in    33 steps ***


  Electronic density on regular grids:        -32.7045494765       15.2954505235
  Core density on regular grids:               48.0000000000        0.0000000000
  Hard and soft densities (Lebedev):         -345.6546120041     -330.3591614822
  Total Rho_soft + Rho1_hard - Rho1_soft      -47.9999999984
  Total charge density (r-space):               0.0000000016
  Total Rho_soft + Rho0_soft (g-space):        -0.0000000144

  Overlap energy of the core charge distribution:               0.00000196775597
  Self energy of the core charge distribution:               -232.90197295240972
  Core Hamiltonian energy:                                    -56.53668474622671
  Hartree energy:                                              65.42294417840445
  Exchange-correlation energy:                                  0.00000000000000
  Dispersion energy:                                           -0.09928994552162

  GAPW| Exc from hard and soft atomic rho1:                   -44.09520042046415
  GAPW| local Eh = 1 center integrals:                        -36.74439737362417

  Total energy:                                              -304.95459929208590

  outer SCF iter =    1 RMS gradient =   0.00E+00 energy =       -304.9545992921
  outer SCF loop converged in   1 iterations or   33 steps


 !-----------------------------------------------------------------------------!
                     Mulliken Population Analysis

 #  Atom  Element  Kind  Atomic population                           Net charge
       1     C        1          5.999619                              0.000381
       2     C        1          6.000128                             -0.000128
       3     C        1          6.000128                             -0.000128
       4     C        1          6.000128                             -0.000128
       5     C        1          6.000061                             -0.000061
       6     C        1          6.000001                             -0.000001
       7     C        1          5.999974                              0.000026
       8     C        1          5.999962                              0.000038
 # Total charge                             48.000000                  0.000000

 !-----------------------------------------------------------------------------!

 !-----------------------------------------------------------------------------!
                           Hirshfeld Charges

  #Atom  Element  Kind  Ref Charge     Population                    Net charge
      1       C      1       6.000          6.000                         0.000
      2       C      1       6.000          6.000                        -0.000
      3       C      1       6.000          6.000                        -0.000
      4       C      1       6.000          6.000                        -0.000
      5       C      1       6.000          6.000                        -0.000
      6       C      1       6.000          6.000                         0.000
      7       C      1       6.000          6.000                         0.000
      8       C      1       6.000          6.000                         0.000

  Total Charge                                                           -0.000
 !-----------------------------------------------------------------------------!

 ENERGY| Total FORCE_EVAL ( QS ) energy [hartree]           -304.954599292085902

 -------------------------------------------------------------------------------
 -                                                                             -
 -                                DBCSR STATISTICS                             -
 -                                                                             -
 -------------------------------------------------------------------------------
 COUNTER                                    TOTAL       BLAS       SMM       ACC
 flops inhomo. stacks                           0       0.0%      0.0%      0.0%
 flops total                         0.000000E+00       0.0%      0.0%      0.0%
 flops max/rank                      0.000000E+00       0.0%      0.0%      0.0%
 matmuls inhomo. stacks                         0       0.0%      0.0%      0.0%
 matmuls total                                  0       0.0%      0.0%      0.0%
 number of processed stacks                     0       0.0%      0.0%      0.0%
 average stack size                                     0.0       0.0       0.0
 marketing flops                     0.000000E+00
 -------------------------------------------------------------------------------

 -------------------------------------------------------------------------------
 -                                                                             -
 -                                GRID STATISTICS                              -
 -                                                                             -
 -------------------------------------------------------------------------------
 LP    KERNEL             BACKEND                              COUNT     PERCENT
 6     collocate ortho    CPU                                1510688      25.37%
 8     collocate ortho    CPU                                1510688      25.37%
 6     integrate ortho    CPU                                1466256      24.62%
 8     integrate ortho    CPU                                1466256      24.62%
 4     collocate general  CPU                                    264       0.00%
 4     integrate general  CPU                                    264       0.00%
 0     collocate general  CPU                                     16       0.00%
 0     integrate general  CPU                                      8       0.00%
 -------------------------------------------------------------------------------

 -------------------------------------------------------------------------------
 -                                                                             -
 -                          OFFLOAD MEMPOOL STATISTICS                         -
 -                                                                             -
 -------------------------------------------------------------------------------
 Memory consumption                Number of allocations  Used [MiB]  Size [MiB]
 Host                                                  8         169          58
 -------------------------------------------------------------------------------

 MEMORY| Estimated peak process memory [MiB]                                5927

 -------------------------------------------------------------------------------
 ----                             MULTIGRID INFO                            ----
 -------------------------------------------------------------------------------
 count for grid        1:          14533          cutoff [a.u.]          400.00
 count for grid        2:          11814          cutoff [a.u.]          133.33
 count for grid        3:          15166          cutoff [a.u.]           44.44
 count for grid        4:          25078          cutoff [a.u.]           14.81
 count for grid        5:             50          cutoff [a.u.]            4.94
 total gridlevel count  :          66641

 -------------------------------------------------------------------------------
 -                                                                             -
 -                           R E F E R E N C E S                               -
 -                                                                             -
 -------------------------------------------------------------------------------
 
 CP2K version 2026.2 (Development Version), the CP2K developers group (2026).
 CP2K is freely available from https://www.cp2k.org/ .
 
 M. Iannuzzi, J. Wilhelm, F. Stein, A. Bussy, H. Elgabarty, D. Golze, A. Hehn, 
 M. Graml, S. Marek, B. Sertcan Gökmen, C. Schran, H. Forbert, R. Z. 
 Khaliullin, A. Kozhevnikov, M. Taillefumier, R. Meli, V. V. Rybkin, M. Brehm, 
 R. Schade, O. Schütt, J. V. Pototschnig, H. Mirhosseini, A. Knüpfer, D. Marx, 
 M. Krack, J. Hutter, T. D. Kühne.
 J. Phys. Chem. B 130, 1237-1310 (2026).
 The CP2K Program Package Made Simple.
 https://doi.org/10.1021/acs.jpcb.5c05851

 L. Wittmann, I. Gordiy, M. Friede, B. Helmich-Paris, S. Grimme, A. Hansen, M. 
 Bursch.
 Phys. Chem. Chem. Phys. 26, 21379-21394 (2024).
 Extension of the D3 and D4 London dispersion corrections to the full actinides 
 series.
 https://doi.org/10.1039/d4cp01514b

 T. D. Kühne, M. Iannuzzi, M. Del Ben, V. V. Rybkin, P. Seewald, F. Stein, T. 
 Laino, R. Z. Khaliullin, O. Schütt, F. Schiffmann, D. Golze, J. Wilhelm, S. 
 Chulkov, M. H. Bani-Hashemian, V. Weber, U. Borstnik, M. Taillefumier, A. S. 
 Jakobovits, A. Lazzaro, H. Pabst, T. Müller, R. Schade, M. Guidon, S. 
 Andermatt, N. Holmberg, G. K. Schenter, A. Hehn, A. Bussy, F. Belleflamme, G. 
 Tabacchi, A. Glöß, M. Lass, I. Bethune, C. J. Mundy, C. Plessl, M. Watkins, 
 J. VandeVondele, M. Krack, J. Hutter.
 J. Chem. Phys. 152, 194103 (2020).
 CP2K: An electronic structure and molecular dynamics software package - 
 Quickstep: Efficient and accurate electronic structure calculations.
 https://doi.org/10.1063/5.0007045

 A. Togo, I. Tanaka.
 arXiv, 1808.01590 (2018).
 Spglib : a software library for crystal symmetry search.

 L. Goerigk, A. Hansen, C. Bauer, S. Ehrlich, A. Najibi, S. Grimme.
 Phys. Chem. Chem. Phys. 19, 32184-32215 (2017).
 A look at the density functional theory zoo with the advanced GMTKN55 database 
 for general main group thermochemistry, kinetics and noncovalent interactions.
 https://doi.org/10.1039/C7CP04913G

 O. Schuett, P. Messmer, J. Hutter, J. VandeVondele.
 Electronic Structure Calculations on Graphics Processing Units, 173-190 (2016).
 GPU-Accelerated Sparse Matrix-Matrix Multiplication for Linear Scaling Density 
 Functional Theory.
 https://doi.org/10.1002/9781118670712.ch8

 U. Borstnik, J. VandeVondele, V. Weber, J. Hutter.
 Parallel Comput. 40, 47-58 (2014).
 Sparse matrix multiplication: The distributed block-compressed sparse row 
 library.
 https://doi.org/10.1016/j.parco.2014.03.012

 S. Grimme, S. Ehrlich, L. Goerigk.
 J. Comput. Chem. 32, 1456 (2011).
 Effect of the damping function in dispersion corrected density functional 
 theory.
 https://doi.org/10.1002/jcc.21759

 S. Grimme, J. Antony, S. Ehrlich, H. Krieg.
 J. Chem. Phys. 132, 154104 (2010).
 A consistent and accurate ab initio parametrization of density functional 
 dispersion correction (DFT-D) for the 94 elements H-Pu.
 https://doi.org/10.1063/1.3382344

 J. VandeVondele, J. Hutter.
 J. Chem. Phys. 127, 114105 (2007).
 Gaussian basis sets for accurate calculations on molecular systems in gas and 
 condensed phases.
 https://doi.org/10.1063/1.2770708

 M. Frigo, S. G. Johnson.
 Proc. IEEE 93, 216-231 (2005).
 The design and implementation of FFTW3.
 https://doi.org/10.1109/JPROC.2004.840301

 M. Krack, M. Parrinello.
 Phys. Chem. Chem. Phys. 2, 2105-2112 (2000).
 All-electron ab-initio molecular dynamics.
 https://doi.org/10.1039/b001167n

 G. Lippert, J. Hutter, M. Parrinello.
 Theor. Chem. Acc. 103, 124-140 (1999).
 The Gaussian and augmented-plane-wave density functional method for ab initio 
 molecular dynamics simulations.
 https://doi.org/10.1007/s002140050523

 C.-L. Fu, K.-M. Ho.
 Phys. Rev. B 28, 5480-5486 (1983).
 First-principles calculation of the equilibrium ground-state properties of 
 transition metals: Applications to Nb and Mo.
 https://doi.org/10.1103/PhysRevB.28.5480

 T. G. Worlton, J. L. Warren.
 Comput. Phys. Commun. 3, 88-117 (1972).
 Group-theoretical analysis of lattice vibrations.
 https://doi.org/10.1016/0010-4655(72)90058-6


 -------------------------------------------------------------------------------
 -                                                                             -
 -                                T I M I N G                                  -
 -                                                                             -
 -------------------------------------------------------------------------------
 SUBROUTINE                       CALLS  ASD         SELF TIME        TOTAL TIME
                                MAXIMUM       AVERAGE  MAXIMUM  AVERAGE  MAXIMUM
 CP2K                                 1  1.0     0.04     0.04 24406.65 24406.65
 qs_energies                          1  2.0     0.00     0.00 24406.37 24406.37
 scf_env_do_scf                       1  3.0     0.00     0.00 24400.01 24400.01
 scf_env_do_scf_inner_loop           33  4.0     1.29     1.29 24400.01 24400.01
 qs_ks_update_qs_env                 33  5.0     0.00     0.00 23664.70 23664.70
 rebuild_ks_matrix                   33  6.0     0.00     0.00 23662.07 23662.07
 qs_ks_build_kohn_sham_matrix        33  7.0     0.03     0.03 23662.07 23662.07
 calculate_vxc_atom                  33  8.0 20332.34 20332.34 23284.06 23284.06
 skala_atom_torch_backward           99  9.0   860.43   860.43   860.43   860.43
 calc_tau_atom                      792  9.0   622.71   622.71   622.71   622.71
 gaVxcgb_GC                         528  9.0   525.25   525.25   525.25   525.25
 -------------------------------------------------------------------------------

 The number of warnings for this run is : 1
 
 -------------------------------------------------------------------------------
  **** **** ******  **  PROGRAM ENDED AT                 2026-09-01 04:19:38.019
 ***** ** ***  *** **   PROGRAM RAN ON                                    cge069
 **    ****   ******    PROGRAM RAN BY                                  kuehne88
 ***** **    ** ** **   PROGRAM PROCESS ID                               3346916
  **** **  *******  **  PROGRAM STOPPED IN /data/home2/kuehne88/cp2k-native-skal
                                           a/goldzak12/runs/production/gapw-ae/C
                                           /v02
