 DBCSR| CPU Multiplication driver                                           BLAS (U)
 DBCSR| Multrec recursion limit                                              512 (U)
 DBCSR| Multiplication stack size                                           1000 (D)
 DBCSR| Maximum elements for images                                    UNLIMITED (U)
 DBCSR| Multiplicative factor virtual images                                   1 (U)
 DBCSR| Use multiplication densification                                       T (D)
 DBCSR| Multiplication size stacks                                             3 (U)
 DBCSR| Use memory pool for CPU allocation                                     F (U)
 DBCSR| OMP: Current number of threads                                         8
 DBCSR| OMP: Max number of threads                                             8
 DBCSR| Split modifier for TAS multiplication algorithm                  1.0E+00 (U)


  **** **** ******  **  PROGRAM STARTED AT               2026-09-01 04:46:42.906
 ***** ** ***  *** **   PROGRAM STARTED ON                                cge061
 **    ****   ******    PROGRAM STARTED BY                              kuehne88
 ***** **    ** ** **   PROGRAM PROCESS ID                               1906580
  **** **  *******  **  PROGRAM STARTED IN /data/home2/kuehne88/cp2k-native-skal
                                           a/goldzak12/runs/production/gapwxc-gt
                                           h/LiCl/v10

 CP2K| version string:                 CP2K version 2026.2 (Development Version)
 CP2K| source code revision number:                                   c1bff3eeb8
 CP2K| cp2kflags: omp fftw3 spglib openblas libtorch libtorch_cuda              
 CP2K| is freely available from                            https://www.cp2k.org/
 CP2K| Program compiled at                                   2026-08-23 23:01:13
 CP2K| Program compiled on                                                cge022
 CP2K| Program compiled for                                               x86_64
 CP2K| Data directory path            /home/kuehne88/cp2k-native-skala/cp2k/data
 CP2K| Input file name                                          actual-input.inp

 GLOBAL| Force Environment number                                              1
 GLOBAL| Basis set file name                             BASIS_MOLOPT_UZH_2026.2
 GLOBAL| Potential file name                                POTENTIAL_UZH_2026.2
 GLOBAL| MM Potential file name                                     MM_POTENTIAL
 GLOBAL| Coordinate file name                                      __STD_INPUT__
 GLOBAL| Method name                                                        CP2K
 GLOBAL| Project name                     G12_LiCl_gapwxc-gth_v1p1000000000_k555
 GLOBAL| Run type                                                         ENERGY
 GLOBAL| FFT library                                                       FFTW3
 GLOBAL| Diagonalization library                                       ScaLAPACK
 GLOBAL| Cholesky decomposition library                                ScaLAPACK
 GLOBAL| DGEMM library                                                      BLAS
 GLOBAL| Direct generalized diagonalization requested                          F
 GLOBAL| Orthonormality check for eigenvectors                          DISABLED
 GLOBAL| Matrix multiplication library                                 ScaLAPACK
 GLOBAL| All-to-all communication in single precision                          F
 GLOBAL| FFTs using library dependent lengths                                  F
 GLOBAL| Grid backend                                                       AUTO
 GLOBAL| Global print level                                               MEDIUM
 GLOBAL| MPI I/O enabled                                                       T
 GLOBAL| Total number of message passing processes                             1
 GLOBAL| Number of distributed systems (nodes)                                 1
 GLOBAL| Number of threads for this process                                    8
 GLOBAL| This output is from process                                           0
 GLOBAL| OpenMP stack size per thread (OMP_STACKSIZE)                       256M
 GLOBAL| CPU model name                          AMD EPYC 9654 96-Core Processor

 MEMORY| system memory details [Kb]
 MEMORY|                        rank 0           min           max       average
 MEMORY| MemTotal           1584835648    1584835648    1584835648    1584835648
 MEMORY| MemFree            1518322356    1518322356    1518322356    1518322356
 MEMORY| Buffers                     0             0             0             0
 MEMORY| Cached               10109196      10109196      10109196      10109196
 MEMORY| Slab                  1899612       1899612       1899612       1899612
 MEMORY| SReclaimable           475584        475584        475584        475584
 MEMORY| MemLikelyFree      1528907136    1528907136    1528907136    1528907136


 *** Fundamental physical constants (SI units) ***

 *** Literature: B. J. Mohr and B. N. Taylor,
 ***             CODATA recommended values of the fundamental physical
 ***             constants: 2006, Web Version 5.1
 ***             http://physics.nist.gov/constants

 Speed of light in vacuum [m/s]                             2.99792458000000E+08
 Magnetic constant or permeability of vacuum [N/A**2]       1.25663706143592E-06
 Electric constant or permittivity of vacuum [F/m]          8.85418781762039E-12
 Planck constant (h) [J*s]                                  6.62606896000000E-34
 Planck constant (h-bar) [J*s]                              1.05457162825177E-34
 Elementary charge [C]                                      1.60217648700000E-19
 Electron mass [kg]                                         9.10938215000000E-31
 Electron g factor [ ]                                     -2.00231930436220E+00
 Proton mass [kg]                                           1.67262163700000E-27
 Fine-structure constant                                    7.29735253760000E-03
 Rydberg constant [1/m]                                     1.09737315685270E+07
 Avogadro constant [1/mol]                                  6.02214179000000E+23
 Boltzmann constant [J/K]                                   1.38065040000000E-23
 Atomic mass unit [kg]                                      1.66053878200000E-27
 Bohr radius [m]                                            5.29177208590000E-11

 *** Conversion factors ***

 [u] -> [a.u.]                                              1.82288848426455E+03
 [Angstrom] -> [Bohr] = [a.u.]                              1.88972613288564E+00
 [a.u.] = [Bohr] -> [Angstrom]                              5.29177208590000E-01
 [a.u.] -> [s]                                              2.41888432650478E-17
 [a.u.] -> [fs]                                             2.41888432650478E-02
 [a.u.] -> [J]                                              4.35974393937059E-18
 [a.u.] -> [N]                                              8.23872205491840E-08
 [a.u.] -> [K]                                              3.15774647902944E+05
 [a.u.] -> [kJ/mol]                                         2.62549961709828E+03
 [a.u.] -> [kcal/mol]                                       6.27509468713739E+02
 [a.u.] -> [Pa]                                             2.94210107994716E+13
 [a.u.] -> [bar]                                            2.94210107994716E+08
 [a.u.] -> [atm]                                            2.90362800883016E+08
 [a.u.] -> [eV]                                             2.72113838565563E+01
 [a.u.] -> [Hz]                                             6.57968392072181E+15
 [a.u.] -> [1/cm] (wave numbers)                            2.19474631370540E+05
 [a.u./Bohr**2] -> [1/cm]                                   5.14048714338585E+03
 

 CELL| Volume [angstrom^3]:                                           143.525947
 CELL| Vector a [angstrom]:       5.236     0.000     0.000   |a| =     5.235725
 CELL| Vector b [angstrom]:       0.000     5.236     0.000   |b| =     5.235725
 CELL| Vector c [angstrom]:       0.000     0.000     5.236   |c| =     5.235725
 CELL| Angle (b,c), alpha [degree]:                                    90.000000
 CELL| Angle (a,c), beta  [degree]:                                    90.000000
 CELL| Angle (a,b), gamma [degree]:                                    90.000000
 CELL| Numerically orthorhombic:                                             YES
 CELL| Periodicity                                                           XYZ

 CELL_REF| Volume [angstrom^3]:                                       143.525947
 CELL_REF| Vector a [angstrom     5.236     0.000     0.000   |a| =     5.235725
 CELL_REF| Vector b [angstrom     0.000     5.236     0.000   |b| =     5.235725
 CELL_REF| Vector c [angstrom     0.000     0.000     5.236   |c| =     5.235725
 CELL_REF| Angle (b,c), alpha [degree]:                                90.000000
 CELL_REF| Angle (a,c), beta  [degree]:                                90.000000
 CELL_REF| Angle (a,b), gamma [degree]:                                90.000000
 CELL_REF| Numerically orthorhombic:                                         YES
 CELL_REF| Periodicity                                                       XYZ

 GENERATE|  Preliminary Number of Bonds generated:                             0
 GENERATE|  Achieved consistency in connectivity generation.

 *******************************************************************************
 *******************************************************************************
 **                                                                           **
 **     #####                         ##              ##                      **
 **    ##   ##            ##          ##              ##                      **
 **   ##     ##                       ##            ######                    **
 **   ##     ##  ##   ##  ##   #####  ##  ##   ####   ##    #####    #####    **
 **   ##     ##  ##   ##  ##  ##      ## ##   ##      ##   ##   ##  ##   ##   **
 **   ##  ## ##  ##   ##  ##  ##      ####     ###    ##   ######   ######    **
 **    ##  ###   ##   ##  ##  ##      ## ##      ##   ##   ##       ##        **
 **     #######   #####   ##   #####  ##  ##  ####    ##    #####   ##        **
 **           ##                                                    ##        **
 **                                                                           **
 **                                                ... make the atoms dance   **
 **                                                                           **
 **            Copyright (C) by CP2K developers group (2000-2026)             **
 **                      J. Chem. Phys. 152, 194103 (2020)                    **
 **                                                                           **
 *******************************************************************************

 DFT| Spin restricted Kohn-Sham (RKS) calculation                            RKS
 DFT| Multiplicity                                                             1
 DFT| Number of spin states                                                    1
 DFT| Charge                                                                   0
 DFT| Self-interaction correction (SIC)                                       NO
 DFT| Cutoffs: density                                              1.000000E-10
 DFT|          gradient                                             1.000000E-10
 DFT|          tau                                                  1.000000E-10
 DFT|          cutoff_smoothing_range                               0.000000E+00
 DFT| XC density smoothing                                                  NONE
 DFT| XC derivatives                                                          PW

 FUNCTIONAL| GAUXC:
 FUNCTIONAL| Functional computed by GauXC Skala model SKALA                     

 vdW POTENTIAL|                                                   Pair Potential
 vdW POTENTIAL|          DFT-D3 (Version 3.1)
 vdW POTENTIAL|          Potential Form: S. Grimme et al, JCP 132: 154104 (2010)
 vdW POTENTIAL|          BJ Damping: S. Grimme et al, JCC 32: 1456 (2011)
 vdW POTENTIAL|          Cutoff Radius [Bohr]:                             37.79
 vdW POTENTIAL|          s6 Scaling Factor:                               1.0000
 vdW POTENTIAL|          a1 Damping Factor:                               0.3981
 vdW POTENTIAL|          s8 Scaling Factor:                               1.9889
 vdW POTENTIAL|          a2 Damping Factor:                               4.4211
 vdW POTENTIAL|          Cutoff for CN calculation:                   0.1000E-05

 QS| Method:                                                             GAPW_XC
 QS| Density plane wave grid type                        NON-SPHERICAL FULLSPACE
 QS| Number of grid levels:                                                    5
 QS| Density cutoff [a.u.]:                                                400.0
 QS| Multi grid cutoff [a.u.]: 1) grid level                               400.0
 QS|                           2) grid level                               133.3
 QS|                           3) grid level                                44.4
 QS|                           4) grid level                                14.8
 QS|                           5) grid level                                 4.9
 QS| Grid level progression factor:                                          3.0
 QS| Relative density cutoff [a.u.]:                                        30.0
 QS| Interaction thresholds: eps_pgf_orb:                                1.0E-06
 QS|                         eps_filter_matrix:                          0.0E+00
 QS|                         eps_core_charge:                            1.0E-14
 QS|                         eps_rho_gspace:                             1.0E-12
 QS|                         eps_rho_rspace:                             1.0E-12
 QS|                         eps_gvg_rspace:                             1.0E-06
 QS|                         eps_ppl:                                    1.0E-02
 QS|                         eps_ppnl:                                   1.0E-08
 QS| GAPW_XC|      One center basis extended with primitives (small:s)
 QS| GAPW_XC|                eps_fit:                                    1.0E-04
 QS| GAPW_XC|                eps_iso:                                    1.0E-12
 QS| GAPW_XC|                eps_svd:                                    1.0E-08
 QS| GAPW_XC|atom-r-grid: quadrature:                 GC_LOG                        
 QS| GAPW_XC|   atom-s-grid:  max l :                                          6


 ATOMIC KIND INFORMATION

  1. Atomic kind: Li                                    Number of atoms:       4

     Orbital Basis Set                                   TZV2P-MOLOPT-PBE-GTH-q3

       Number of orbital shell sets:                                           1
       Number of orbital shells:                                               7
       Number of primitive Cartesian functions:                                5
       Number of Cartesian basis functions:                                   16
       Number of spherical basis functions:                                   15
       Norm type:                                                              2

       Normalised Cartesian orbitals:

                        Set   Shell   Orbital            Exponent    Coefficient

                          1       1    2s                7.130027       0.874409
                                                         1.983451       0.492328
                                                         0.610549       0.140208
                                                         0.104647       0.026267
                                                         0.038184       0.006290

                          1       2    3s                7.130027       0.220892
                                                         1.983451       0.251238
                                                         0.610549       0.132953
                                                         0.104647      -0.091677
                                                         0.038184      -0.026530

                          1       3    4s                7.130027      -0.162588
                                                         1.983451       0.060763
                                                         0.610549       0.036555
                                                         0.104647      -0.128892
                                                         0.038184       0.102044

                          1       4    5s                7.130027      -1.285366
                                                         1.983451      -0.716910
                                                         0.610549       0.558630
                                                         0.104647       0.023315
                                                         0.038184       0.003699

                          1       5    3px               7.130027      -0.546856
                                                         1.983451      -0.023096
                                                         0.610549      -0.195872
                                                         0.104647      -0.056618
                                                         0.038184      -0.006157
                          1       5    3py               7.130027      -0.546856
                                                         1.983451      -0.023096
                                                         0.610549      -0.195872
                                                         0.104647      -0.056618
                                                         0.038184      -0.006157
                          1       5    3pz               7.130027      -0.546856
                                                         1.983451      -0.023096
                                                         0.610549      -0.195872
                                                         0.104647      -0.056618
                                                         0.038184      -0.006157

                          1       6    4px               7.130027      -2.212443
                                                         1.983451      -0.116941
                                                         0.610549      -0.808779
                                                         0.104647       0.045666
                                                         0.038184      -0.008170
                          1       6    4py               7.130027      -2.212443
                                                         1.983451      -0.116941
                                                         0.610549      -0.808779
                                                         0.104647       0.045666
                                                         0.038184      -0.008170
                          1       6    4pz               7.130027      -2.212443
                                                         1.983451      -0.116941
                                                         0.610549      -0.808779
                                                         0.104647       0.045666
                                                         0.038184      -0.008170

                          1       7    4dx2              7.130027      -0.004954
                                                         1.983451      -0.005138
                                                         0.610549       0.059640
                                                         0.104647       0.027018
                                                         0.038184       0.000932
                          1       7    4dxy              7.130027      -0.008581
                                                         1.983451      -0.008899
                                                         0.610549       0.103299
                                                         0.104647       0.046797
                                                         0.038184       0.001613
                          1       7    4dxz              7.130027      -0.008581
                                                         1.983451      -0.008899
                                                         0.610549       0.103299
                                                         0.104647       0.046797
                                                         0.038184       0.001613
                          1       7    4dy2              7.130027      -0.004954
                                                         1.983451      -0.005138
                                                         0.610549       0.059640
                                                         0.104647       0.027018
                                                         0.038184       0.000932
                          1       7    4dyz              7.130027      -0.008581
                                                         1.983451      -0.008899
                                                         0.610549       0.103299
                                                         0.104647       0.046797
                                                         0.038184       0.001613
                          1       7    4dz2              7.130027      -0.004954
                                                         1.983451      -0.005138
                                                         0.610549       0.059640
                                                         0.104647       0.027018
                                                         0.038184       0.000932

       Atomic covalent radius [Angstrom]:                                  1.230

       Atomic van der Waals radius [Angstrom]:                             1.820

     The atoms of this atomic kind are PAW atoms (GAPW):
       Hard Gaussian function radius:                                      1.520
       Rho0 radius:                                                        1.520
       Maximum GTO radius used for PAW projector construction:            24.566

     GAPW Soft Basis Set                            TZV2P-MOLOPT-PBE-GTH-q3_soft

       Number of orbital shell sets:                                           1
       Number of orbital shells:                                               7
       Number of primitive Cartesian functions:                                4
       Number of Cartesian basis functions:                                   16
       Number of spherical basis functions:                                   15
       Norm type:                                                              2

       Normalised Cartesian orbitals:

                        Set   Shell   Orbital            Exponent    Coefficient

                          1       1    2s                1.983451       0.492328
                                                         0.610549       0.140208
                                                         0.104647       0.026267
                                                         0.038184       0.006290

                          1       2    3s                1.983451       0.251238
                                                         0.610549       0.132953
                                                         0.104647      -0.091677
                                                         0.038184      -0.026530

                          1       3    4s                1.983451       0.060763
                                                         0.610549       0.036555
                                                         0.104647      -0.128892
                                                         0.038184       0.102044

                          1       4    5s                1.983451      -0.716910
                                                         0.610549       0.558630
                                                         0.104647       0.023315
                                                         0.038184       0.003699

                          1       5    3px               1.983451      -0.023096
                                                         0.610549      -0.195872
                                                         0.104647      -0.056618
                                                         0.038184      -0.006157
                          1       5    3py               1.983451      -0.023096
                                                         0.610549      -0.195872
                                                         0.104647      -0.056618
                                                         0.038184      -0.006157
                          1       5    3pz               1.983451      -0.023096
                                                         0.610549      -0.195872
                                                         0.104647      -0.056618
                                                         0.038184      -0.006157

                          1       6    4px               1.983451      -0.116941
                                                         0.610549      -0.808779
                                                         0.104647       0.045666
                                                         0.038184      -0.008170
                          1       6    4py               1.983451      -0.116941
                                                         0.610549      -0.808779
                                                         0.104647       0.045666
                                                         0.038184      -0.008170
                          1       6    4pz               1.983451      -0.116941
                                                         0.610549      -0.808779
                                                         0.104647       0.045666
                                                         0.038184      -0.008170

                          1       7    4dx2              1.983451      -0.005138
                                                         0.610549       0.059640
                                                         0.104647       0.027018
                                                         0.038184       0.000932
                          1       7    4dxy              1.983451      -0.008899
                                                         0.610549       0.103299
                                                         0.104647       0.046797
                                                         0.038184       0.001613
                          1       7    4dxz              1.983451      -0.008899
                                                         0.610549       0.103299
                                                         0.104647       0.046797
                                                         0.038184       0.001613
                          1       7    4dy2              1.983451      -0.005138
                                                         0.610549       0.059640
                                                         0.104647       0.027018
                                                         0.038184       0.000932
                          1       7    4dyz              1.983451      -0.008899
                                                         0.610549       0.103299
                                                         0.104647       0.046797
                                                         0.038184       0.001613
                          1       7    4dz2              1.983451      -0.005138
                                                         0.610549       0.059640
                                                         0.104647       0.027018
                                                         0.038184       0.000932

     GTH Potential information for                                    GTH-PBE-q3

       Description:                       Goedecker-Teter-Hutter pseudopotential
                                           Goedecker et al., PRB 54, 1703 (1996)
                                          Hartwigsen et al., PRB 58, 3641 (1998)
                                                      Krack, TCA 114, 145 (2005)

       Gaussian exponent of the core charge distribution:               3.128959
       Electronic configuration (s p d ...):                       3   0   0   0

       Parameters of the local part of the GTH pseudopotential:

                          rloc        C1          C2          C3          C4
                        0.399747  -14.085696    9.625278   -1.783974    0.085366

  2. Atomic kind: Cl                                    Number of atoms:       4

     Orbital Basis Set                                   TZV2P-MOLOPT-PBE-GTH-q7

       Number of orbital shell sets:                                           1
       Number of orbital shells:                                               9
       Number of primitive Cartesian functions:                                4
       Number of Cartesian basis functions:                                   34
       Number of spherical basis functions:                                   29
       Norm type:                                                              2

       Normalised Cartesian orbitals:

                        Set   Shell   Orbital            Exponent    Coefficient

                          1       1    2s                1.998248       0.474127
                                                         1.503631      -0.298602
                                                         0.406509      -0.170002
                                                         0.128538      -0.091923

                          1       2    3s                1.998248       0.878043
                                                         1.503631      -0.090105
                                                         0.406509      -0.545023
                                                         0.128538       0.260422

                          1       3    4s                1.998248       0.030172
                                                         1.503631      -1.270839
                                                         0.406509       0.168869
                                                         0.128538       0.050189

                          1       4    3px               1.998248       1.035211
                                                         1.503631      -1.044903
                                                         0.406509      -0.274741
                                                         0.128538      -0.041581
                          1       4    3py               1.998248       1.035211
                                                         1.503631      -1.044903
                                                         0.406509      -0.274741
                                                         0.128538      -0.041581
                          1       4    3pz               1.998248       1.035211
                                                         1.503631      -1.044903
                                                         0.406509      -0.274741
                                                         0.128538      -0.041581

                          1       5    4px               1.998248       0.846287
                                                         1.503631      -0.665007
                                                         0.406509      -0.214639
                                                         0.128538       0.137550
                          1       5    4py               1.998248       0.846287
                                                         1.503631      -0.665007
                                                         0.406509      -0.214639
                                                         0.128538       0.137550
                          1       5    4pz               1.998248       0.846287
                                                         1.503631      -0.665007
                                                         0.406509      -0.214639
                                                         0.128538       0.137550

                          1       6    5px               1.998248      -1.228895
                                                         1.503631      -1.929331
                                                         0.406509       0.181784
                                                         0.128538       0.003953
                          1       6    5py               1.998248      -1.228895
                                                         1.503631      -1.929331
                                                         0.406509       0.181784
                                                         0.128538       0.003953
                          1       6    5pz               1.998248      -1.228895
                                                         1.503631      -1.929331
                                                         0.406509       0.181784
                                                         0.128538       0.003953

                          1       7    4dx2              1.998248       0.400992
                                                         1.503631       0.768662
                                                         0.406509       0.256895
                                                         0.128538       0.005608
                          1       7    4dxy              1.998248       0.694538
                                                         1.503631       1.331361
                                                         0.406509       0.444955
                                                         0.128538       0.009714
                          1       7    4dxz              1.998248       0.694538
                                                         1.503631       1.331361
                                                         0.406509       0.444955
                                                         0.128538       0.009714
                          1       7    4dy2              1.998248       0.400992
                                                         1.503631       0.768662
                                                         0.406509       0.256895
                                                         0.128538       0.005608
                          1       7    4dyz              1.998248       0.694538
                                                         1.503631       1.331361
                                                         0.406509       0.444955
                                                         0.128538       0.009714
                          1       7    4dz2              1.998248       0.400992
                                                         1.503631       0.768662
                                                         0.406509       0.256895
                                                         0.128538       0.005608

                          1       8    5dx2              1.998248      -1.963226
                                                         1.503631       5.042957
                                                         0.406509      -0.158524
                                                         0.128538       0.012321
                          1       8    5dxy              1.998248      -3.400407
                                                         1.503631       8.734658
                                                         0.406509      -0.274571
                                                         0.128538       0.021341
                          1       8    5dxz              1.998248      -3.400407
                                                         1.503631       8.734658
                                                         0.406509      -0.274571
                                                         0.128538       0.021341
                          1       8    5dy2              1.998248      -1.963226
                                                         1.503631       5.042957
                                                         0.406509      -0.158524
                                                         0.128538       0.012321
                          1       8    5dyz              1.998248      -3.400407
                                                         1.503631       8.734658
                                                         0.406509      -0.274571
                                                         0.128538       0.021341
                          1       8    5dz2              1.998248      -1.963226
                                                         1.503631       5.042957
                                                         0.406509      -0.158524
                                                         0.128538       0.012321

                          1       9    5fx3              1.998248      -0.939013
                                                         1.503631       1.405782
                                                         0.406509       0.163556
                                                         0.128538       0.000428
                          1       9    5fx2y             1.998248      -2.099697
                                                         1.503631       3.143425
                                                         0.406509       0.365723
                                                         0.128538       0.000958
                          1       9    5fx2z             1.998248      -2.099697
                                                         1.503631       3.143425
                                                         0.406509       0.365723
                                                         0.128538       0.000958
                          1       9    5fxy2             1.998248      -2.099697
                                                         1.503631       3.143425
                                                         0.406509       0.365723
                                                         0.128538       0.000958
                          1       9    5fxyz             1.998248      -3.636782
                                                         1.503631       5.444571
                                                         0.406509       0.633451
                                                         0.128538       0.001659
                          1       9    5fxz2             1.998248      -2.099697
                                                         1.503631       3.143425
                                                         0.406509       0.365723
                                                         0.128538       0.000958
                          1       9    5fy3              1.998248      -0.939013
                                                         1.503631       1.405782
                                                         0.406509       0.163556
                                                         0.128538       0.000428
                          1       9    5fy2z             1.998248      -2.099697
                                                         1.503631       3.143425
                                                         0.406509       0.365723
                                                         0.128538       0.000958
                          1       9    5fyz2             1.998248      -2.099697
                                                         1.503631       3.143425
                                                         0.406509       0.365723
                                                         0.128538       0.000958
                          1       9    5fz3              1.998248      -0.939013
                                                         1.503631       1.405782
                                                         0.406509       0.163556
                                                         0.128538       0.000428

       Atomic covalent radius [Angstrom]:                                  0.990

       Atomic van der Waals radius [Angstrom]:                             1.750

     The atoms of this atomic kind are PAW atoms (GAPW):
       Hard Gaussian function radius:                                      1.600
       Rho0 radius:                                                        1.600
       Maximum GTO radius used for PAW projector construction:            24.566

     GAPW Soft Basis Set                            TZV2P-MOLOPT-PBE-GTH-q7_soft

       Number of orbital shell sets:                                           1
       Number of orbital shells:                                               9
       Number of primitive Cartesian functions:                                4
       Number of Cartesian basis functions:                                   34
       Number of spherical basis functions:                                   29
       Norm type:                                                              2

       Normalised Cartesian orbitals:

                        Set   Shell   Orbital            Exponent    Coefficient

                          1       1    2s                1.998248       0.474127
                                                         1.503631      -0.298602
                                                         0.406509      -0.170002
                                                         0.128538      -0.091923

                          1       2    3s                1.998248       0.878043
                                                         1.503631      -0.090105
                                                         0.406509      -0.545023
                                                         0.128538       0.260422

                          1       3    4s                1.998248       0.030172
                                                         1.503631      -1.270839
                                                         0.406509       0.168869
                                                         0.128538       0.050189

                          1       4    3px               1.998248       1.035211
                                                         1.503631      -1.044903
                                                         0.406509      -0.274741
                                                         0.128538      -0.041581
                          1       4    3py               1.998248       1.035211
                                                         1.503631      -1.044903
                                                         0.406509      -0.274741
                                                         0.128538      -0.041581
                          1       4    3pz               1.998248       1.035211
                                                         1.503631      -1.044903
                                                         0.406509      -0.274741
                                                         0.128538      -0.041581

                          1       5    4px               1.998248       0.846287
                                                         1.503631      -0.665007
                                                         0.406509      -0.214639
                                                         0.128538       0.137550
                          1       5    4py               1.998248       0.846287
                                                         1.503631      -0.665007
                                                         0.406509      -0.214639
                                                         0.128538       0.137550
                          1       5    4pz               1.998248       0.846287
                                                         1.503631      -0.665007
                                                         0.406509      -0.214639
                                                         0.128538       0.137550

                          1       6    5px               1.998248      -1.228895
                                                         1.503631      -1.929331
                                                         0.406509       0.181784
                                                         0.128538       0.003953
                          1       6    5py               1.998248      -1.228895
                                                         1.503631      -1.929331
                                                         0.406509       0.181784
                                                         0.128538       0.003953
                          1       6    5pz               1.998248      -1.228895
                                                         1.503631      -1.929331
                                                         0.406509       0.181784
                                                         0.128538       0.003953

                          1       7    4dx2              1.998248       0.400992
                                                         1.503631       0.768662
                                                         0.406509       0.256895
                                                         0.128538       0.005608
                          1       7    4dxy              1.998248       0.694538
                                                         1.503631       1.331361
                                                         0.406509       0.444955
                                                         0.128538       0.009714
                          1       7    4dxz              1.998248       0.694538
                                                         1.503631       1.331361
                                                         0.406509       0.444955
                                                         0.128538       0.009714
                          1       7    4dy2              1.998248       0.400992
                                                         1.503631       0.768662
                                                         0.406509       0.256895
                                                         0.128538       0.005608
                          1       7    4dyz              1.998248       0.694538
                                                         1.503631       1.331361
                                                         0.406509       0.444955
                                                         0.128538       0.009714
                          1       7    4dz2              1.998248       0.400992
                                                         1.503631       0.768662
                                                         0.406509       0.256895
                                                         0.128538       0.005608

                          1       8    5dx2              1.998248      -1.963226
                                                         1.503631       5.042957
                                                         0.406509      -0.158524
                                                         0.128538       0.012321
                          1       8    5dxy              1.998248      -3.400407
                                                         1.503631       8.734658
                                                         0.406509      -0.274571
                                                         0.128538       0.021341
                          1       8    5dxz              1.998248      -3.400407
                                                         1.503631       8.734658
                                                         0.406509      -0.274571
                                                         0.128538       0.021341
                          1       8    5dy2              1.998248      -1.963226
                                                         1.503631       5.042957
                                                         0.406509      -0.158524
                                                         0.128538       0.012321
                          1       8    5dyz              1.998248      -3.400407
                                                         1.503631       8.734658
                                                         0.406509      -0.274571
                                                         0.128538       0.021341
                          1       8    5dz2              1.998248      -1.963226
                                                         1.503631       5.042957
                                                         0.406509      -0.158524
                                                         0.128538       0.012321

                          1       9    5fx3              1.998248      -0.939013
                                                         1.503631       1.405782
                                                         0.406509       0.163556
                                                         0.128538       0.000428
                          1       9    5fx2y             1.998248      -2.099697
                                                         1.503631       3.143425
                                                         0.406509       0.365723
                                                         0.128538       0.000958
                          1       9    5fx2z             1.998248      -2.099697
                                                         1.503631       3.143425
                                                         0.406509       0.365723
                                                         0.128538       0.000958
                          1       9    5fxy2             1.998248      -2.099697
                                                         1.503631       3.143425
                                                         0.406509       0.365723
                                                         0.128538       0.000958
                          1       9    5fxyz             1.998248      -3.636782
                                                         1.503631       5.444571
                                                         0.406509       0.633451
                                                         0.128538       0.001659
                          1       9    5fxz2             1.998248      -2.099697
                                                         1.503631       3.143425
                                                         0.406509       0.365723
                                                         0.128538       0.000958
                          1       9    5fy3              1.998248      -0.939013
                                                         1.503631       1.405782
                                                         0.406509       0.163556
                                                         0.128538       0.000428
                          1       9    5fy2z             1.998248      -2.099697
                                                         1.503631       3.143425
                                                         0.406509       0.365723
                                                         0.128538       0.000958
                          1       9    5fyz2             1.998248      -2.099697
                                                         1.503631       3.143425
                                                         0.406509       0.365723
                                                         0.128538       0.000958
                          1       9    5fz3              1.998248      -0.939013
                                                         1.503631       1.405782
                                                         0.406509       0.163556
                                                         0.128538       0.000428

     GTH Potential information for                                    GTH-PBE-q7

       Description:                       Goedecker-Teter-Hutter pseudopotential
                                           Goedecker et al., PRB 54, 1703 (1996)
                                          Hartwigsen et al., PRB 58, 3641 (1998)
                                                      Krack, TCA 114, 145 (2005)

       Gaussian exponent of the core charge distribution:               2.972287
       Electronic configuration (s p d ...):                       2   5   0   0

       Parameters of the local part of the GTH pseudopotential:

                          rloc        C1          C2          C3          C4
                        0.410147   -6.378521

       Parameters of the non-local part of the GTH pseudopotential:

                   l      r(l)      h(i,j,l)

                   0    0.339553   15.219287   -4.934522
                                   -4.934522    6.370683
                   1    0.378489    4.338598


 MOLECULE KIND INFORMATION


 All atoms are their own molecule, skipping detailed information


 TOTAL NUMBERS AND MAXIMUM NUMBERS

  Total number of            - Atomic kinds:                                   2
                             - Atoms:                                          8
                             - Shell sets:                                     8
                             - Shells:                                        64
                             - Primitive Cartesian functions:                 36
                             - Cartesian basis functions:                    200
                             - Spherical basis functions:                    176

  Maximum angular momentum of- Orbital basis functions:                        3
                             - Local part of the GTH pseudopotential:          6
                             - Non-local part of the GTH pseudopotential:      2


 MODULE QUICKSTEP: ATOMIC COORDINATES IN ANGSTROM

   Atom Kind Element         X             Y             Z       Z(eff)     Mass
      1    1 Li    3      0.000000      0.000000      0.000000   3.0000   6.9410
      2    1 Li    3      0.000000      2.617862      2.617862   3.0000   6.9410
      3    1 Li    3      2.617862      0.000000      2.617862   3.0000   6.9410
      4    1 Li    3      2.617862      2.617862      0.000000   3.0000   6.9410
      5    2 Cl   17      2.617862      0.000000      0.000000   7.0000  35.4530
      6    2 Cl   17      0.000000      2.617862      0.000000   7.0000  35.4530
      7    2 Cl   17      0.000000      0.000000      2.617862   7.0000  35.4530
      8    2 Cl   17      2.617862      2.617862      2.617862   7.0000  35.4530



 SCF PARAMETERS         Density guess:                                    ATOMIC
                        --------------------------------------------------------
                        max_scf:                                             200
                        max_scf_history:                                       0
                        max_diis:                                              4
                        --------------------------------------------------------
                        eps_scf:                                        5.00E-06
                        eps_scf_history:                                0.00E+00
                        eps_diis:                                       1.00E-01
                        eps_eigval:                                     1.00E-05
                        --------------------------------------------------------
                        level_shift [a.u.]:                             0.000000
                        --------------------------------------------------------
                        Mixing method:                           DIRECT_P_MIXING
                        --------------------------------------------------------
                        Outer loop SCF in use 
                        No variables optimised in outer loop
                        eps_scf                                         5.00E-06
                        max_scf                                                5
                        No outer loop optimization
                        step_size                                       5.00E-01

 PW_GRID| Information for grid number                                          1
 PW_GRID| Cutoff [a.u.]                                                    400.0
 PW_GRID| spherical cutoff:                                                   NO
 PW_GRID|   Bounds   1            -45      44                Points:          90
 PW_GRID|   Bounds   2            -45      44                Points:          90
 PW_GRID|   Bounds   3            -45      44                Points:          90
 PW_GRID| Volume element (a.u.^3)  0.1329E-02     Volume (a.u.^3)       968.5611
 PW_GRID| Grid span                                                    FULLSPACE

 PW_GRID| Information for grid number                                          2
 PW_GRID| Number of the reference grid                                         1
 PW_GRID| Cutoff [a.u.]                                                    133.3
 PW_GRID| spherical cutoff:                                                   NO
 PW_GRID|   Bounds   1            -27      26                Points:          54
 PW_GRID|   Bounds   2            -27      26                Points:          54
 PW_GRID|   Bounds   3            -27      26                Points:          54
 PW_GRID| Volume element (a.u.^3)  0.6151E-02     Volume (a.u.^3)       968.5611
 PW_GRID| Grid span                                                    FULLSPACE

 PW_GRID| Information for grid number                                          3
 PW_GRID| Number of the reference grid                                         1
 PW_GRID| Cutoff [a.u.]                                                     44.4
 PW_GRID| spherical cutoff:                                                   NO
 PW_GRID|   Bounds   1            -15      14                Points:          30
 PW_GRID|   Bounds   2            -15      14                Points:          30
 PW_GRID|   Bounds   3            -15      14                Points:          30
 PW_GRID| Volume element (a.u.^3)  0.3587E-01     Volume (a.u.^3)       968.5611
 PW_GRID| Grid span                                                    FULLSPACE

 PW_GRID| Information for grid number                                          4
 PW_GRID| Number of the reference grid                                         1
 PW_GRID| Cutoff [a.u.]                                                     14.8
 PW_GRID| spherical cutoff:                                                   NO
 PW_GRID|   Bounds   1             -9       8                Points:          18
 PW_GRID|   Bounds   2             -9       8                Points:          18
 PW_GRID|   Bounds   3             -9       8                Points:          18
 PW_GRID| Volume element (a.u.^3)  0.1661         Volume (a.u.^3)       968.5611
 PW_GRID| Grid span                                                    FULLSPACE

 PW_GRID| Information for grid number                                          5
 PW_GRID| Number of the reference grid                                         1
 PW_GRID| Cutoff [a.u.]                                                      4.9
 PW_GRID| spherical cutoff:                                                   NO
 PW_GRID|   Bounds   1             -4       4                Points:           9
 PW_GRID|   Bounds   2             -4       4                Points:           9
 PW_GRID|   Bounds   3             -4       4                Points:           9
 PW_GRID| Volume element (a.u.^3)   1.329         Volume (a.u.^3)       968.5611
 PW_GRID| Grid span                                                    FULLSPACE

 POISSON| Solver                                                        PERIODIC
 POISSON| Periodicity                                                        XYZ

 RS_GRID| Information for grid number                                          1
 RS_GRID|   Bounds   1            -45      44                Points:          90
 RS_GRID|   Bounds   2            -45      44                Points:          90
 RS_GRID|   Bounds   3            -45      44                Points:          90

 RS_GRID| Information for grid number                                          2
 RS_GRID|   Bounds   1            -27      26                Points:          54
 RS_GRID|   Bounds   2            -27      26                Points:          54
 RS_GRID|   Bounds   3            -27      26                Points:          54

 RS_GRID| Information for grid number                                          3
 RS_GRID|   Bounds   1            -15      14                Points:          30
 RS_GRID|   Bounds   2            -15      14                Points:          30
 RS_GRID|   Bounds   3            -15      14                Points:          30

 RS_GRID| Information for grid number                                          4
 RS_GRID|   Bounds   1             -9       8                Points:          18
 RS_GRID|   Bounds   2             -9       8                Points:          18
 RS_GRID|   Bounds   3             -9       8                Points:          18

 RS_GRID| Information for grid number                                          5
 RS_GRID|   Bounds   1             -4       4                Points:           9
 RS_GRID|   Bounds   2             -4       4                Points:           9
 RS_GRID|   Bounds   3             -4       4                Points:           9

 *******************************************************************************
                                    Kpoints
 *******************************************************************************
 BRILLOUIN| K-point scheme                                        Monkhorst-Pack
 BRILLOUIN| K-Point grid                                             5    5    5
 BRILLOUIN| Gamma-centered k-point mesh                                     ON
 BRILLOUIN| K-point symmetry accuracy                               0.100000E-07
 BRILLOUIN| K-Point point group symmetrization                                ON
 BRILLOUIN| Symmetry backend                                               K290
 BRILLOUIN| Symmetry reduction method                                      K290
 BRILLOUIN| Wavefunction type                                            COMPLEX
 BRILLOUIN| List of Kpoints [2 Pi/Bohr]                                       10
 BRILLOUIN| Number           Weight            X              Y              Z
 BRILLOUIN|     1           0.06400       -0.40000       -0.40000       -0.40000
 BRILLOUIN|     2           0.19200       -0.40000       -0.40000       -0.20000
 BRILLOUIN|     3           0.09600       -0.40000       -0.40000        0.00000
 BRILLOUIN|     4           0.19200       -0.40000       -0.20000       -0.20000
 BRILLOUIN|     5           0.19200       -0.40000       -0.20000        0.00000
 BRILLOUIN|     6           0.04800       -0.40000        0.00000        0.00000
 BRILLOUIN|     7           0.06400       -0.20000       -0.20000       -0.20000
 BRILLOUIN|     8           0.09600       -0.20000       -0.20000        0.00000
 BRILLOUIN|     9           0.04800       -0.20000        0.00000        0.00000
 BRILLOUIN|    10           0.00800        0.00000        0.00000        0.00000
 *******************************************************************************

 Extrapolation method: initial_guess

 Atomic guess: The first density matrix is obtained in terms of atomic orbitals
               and electronic configurations assigned to each atomic kind

 Guess for atomic kind: Li

 Electronic structure
    Total number of core electrons                                          0.00
    Total number of valence electrons                                       3.00
    Total number of electrons                                               3.00
    Multiplicity                                                   not specified
    S      2.00  1.00


 *******************************************************************************
                  Iteration          Convergence                     Energy [au]
 *******************************************************************************
                          1        0.789606E-01                  -7.254434338438
                          2        0.160519E-01                  -7.255684127325
                          3        0.253308E-03                  -7.255750007650
                          4        0.429284E-05                  -7.255750041178
                          5        0.183925E-07                  -7.255750041189

 Energy components [Hartree]           Total Energy ::           -7.255750041189
                                        Band Energy ::           -3.751728286736
                                     Kinetic Energy ::            6.558843785153
                                   Potential Energy ::          -13.814593826342
                                      Virial (-V/T) ::            2.106254437347
                                        Core Energy ::           -9.634965967708
                                          XC Energy ::           -1.638911579701
                                     Coulomb Energy ::            4.018127506220
                       Total Pseudopotential Energy ::          -16.227302722474
                       Local Pseudopotential Energy ::          -16.227302722474
                    Nonlocal Pseudopotential Energy ::            0.000000000000
                                        Confinement ::            0.334929696125

 Orbital energies  State     L     Occupation   Energy[a.u.]          Energy[eV]

                       1     0          2.000      -1.845309          -50.213407
                       2     0          1.000      -0.061111           -1.662904


 Total Electron Density at R=0:                                         5.514443

 Guess for atomic kind: Cl

 Electronic structure
    Total number of core electrons                                         10.00
    Total number of valence electrons                                       7.00
    Total number of electrons                                              17.00
    Multiplicity                                                   not specified
    S   [  2.00  2.00] 2.00
    P   [  6.00] 5.00


 *******************************************************************************
                  Iteration          Convergence                     Energy [au]
 *******************************************************************************
                          1        0.221822E-01                 -14.771254732634
                          2        0.254082E-01                 -14.771350251321
                          3        0.626082E-03                 -14.771474988612
                          4        0.348199E-05                 -14.771475091459
                          5        0.279098E-08                 -14.771475091463

 Energy components [Hartree]           Total Energy ::          -14.771475091463
                                        Band Energy ::           -2.980459630123
                                     Kinetic Energy ::            5.565342680317
                                   Potential Energy ::          -20.336817771779
                                      Virial (-V/T) ::            3.654189677072
                                        Core Energy ::          -24.665063559671
                                          XC Energy ::           -2.740744659354
                                     Coulomb Energy ::           12.634333127562
                       Total Pseudopotential Energy ::          -30.289780942398
                       Local Pseudopotential Energy ::          -33.418312085125
                    Nonlocal Pseudopotential Energy ::            3.128531142726
                                        Confinement ::            0.593747024103

 Orbital energies  State     L     Occupation   Energy[a.u.]          Energy[eV]

                       1     0          2.000      -0.742513          -20.204799

                       1     1          5.000      -0.299087           -8.138566


 Total Electron Density at R=0:                                         0.000319
 Re-scaling the density matrix to get the right number of electrons
                  # Electrons              Trace(P)               Scaling factor
                           40                40.000                        1.000

 Number of electrons:                                                         40
 Number of occupied orbitals:                                                 20
 Number of molecular orbitals:                                                20

 Number of orbital functions:                                                176
 Number of independent orbital functions:                                    176


 SCF WAVEFUNCTION OPTIMIZATION

  Step     Update method      Time    Convergence         Total energy    Change
  ------------------------------------------------------------------------------

 *** WARNING in qs_ks_methods.F:773 :: Native SKALA grid evaluation with   ***
 *** k-points is using the CPU TorchScript path. Use a mutually compatible ***
 *** BLAS, ScaLAPACK, OpenMP, and LibTorch runtime stack, or select        ***
 *** NATIVE_GRID_USE_CUDA T.                                               ***

 SKALA_GPW| Atom-composite cross support/maxima   2.119019365127E+00   2.124777523055E+00   5.954393970141E+00   3.426814929201E+00
 SKALA_GPW| Active atom-composite XC energy  -1.8971129290049610E+01
 SKALA_GPW| Active atom-composite electrons   4.0035647715124789E+01
 SKALA_GPW| Active atom-composite density range   1.4565992819296429E-03   2.7578622439795022E+00
 SKALA_GPW| Active atom-composite tau range   2.8594903701284507E-04   3.6402256653560747E+00
 SKALA_GPW| Active atom-composite tau integral   4.8514535786496253E+01
 SKALA_GPW| Active atom-composite max gradient   6.7760927613382487E+00
     1 P_Mix/Diag. 0.10E+00  382.1     0.75030076       -90.5183626259 -9.05E+01
 SKALA_GPW| Atom-composite cross support/maxima   2.119019365127E+00   2.127666533434E+00   5.962729064774E+00   3.432780126451E+00
 SKALA_GPW| Active atom-composite XC energy  -1.9032221108274705E+01
 SKALA_GPW| Active atom-composite electrons   4.0035117284904501E+01
 SKALA_GPW| Active atom-composite density range   1.3325403313238307E-03   2.7614614108863975E+00
 SKALA_GPW| Active atom-composite tau range   7.4477311101542277E-04   3.6467253696697477E+00
 SKALA_GPW| Active atom-composite tau integral   4.8714889753121518E+01
 SKALA_GPW| Active atom-composite max gradient   6.7858694975135663E+00
     2 P_Mix/Diag. 0.10E+00  337.7     0.67444775       -90.5201955923 -1.83E-03
 SKALA_GPW| Atom-composite cross support/maxima   2.119019365127E+00   2.130267435960E+00   5.970226201862E+00   3.438144514134E+00
 SKALA_GPW| Active atom-composite XC energy  -1.9083369944643579E+01
 SKALA_GPW| Active atom-composite electrons   4.0034675538003086E+01
 SKALA_GPW| Active atom-composite density range   1.2214085367529695E-03   2.7647283274749728E+00
 SKALA_GPW| Active atom-composite tau range   7.5082739539330059E-04   3.6525925340550378E+00
 SKALA_GPW| Active atom-composite tau integral   4.8878597848606034E+01
 SKALA_GPW| Active atom-composite max gradient   6.7947009592145289E+00
     3 P_Mix/Diag. 0.10E+00  333.9     0.60619163       -90.5212020194 -1.01E-03
 SKALA_GPW| Atom-composite cross support/maxima   2.119019365127E+00   2.132608876727E+00   5.976969585415E+00   3.442966883435E+00
 SKALA_GPW| Active atom-composite XC energy  -1.9126249315386666E+01
 SKALA_GPW| Active atom-composite electrons   4.0034307093902797E+01
 SKALA_GPW| Active atom-composite density range   1.1217115371491434E-03   2.7676936746432617E+00
 SKALA_GPW| Active atom-composite tau range   7.5788418545336632E-04   3.6578864744995490E+00
 SKALA_GPW| Active atom-composite tau integral   4.9012580663940156E+01
 SKALA_GPW| Active atom-composite max gradient   6.8026789626308535E+00
     4 P_Mix/Diag. 0.10E+00  341.2     0.54477242       -90.5217117578 -5.10E-04
 SKALA_GPW| Atom-composite cross support/maxima   2.119019365127E+00   2.134716137565E+00   5.983033451977E+00   3.447299371768E+00
 SKALA_GPW| Active atom-composite XC energy  -1.9162282061465003E+01
 SKALA_GPW| Active atom-composite electrons   4.0033999113125233E+01
 SKALA_GPW| Active atom-composite density range   1.0322474635654161E-03   2.7703843566671909E+00
 SKALA_GPW| Active atom-composite tau range   7.6554247708467268E-04   3.6626597622919932E+00
 SKALA_GPW| Active atom-composite tau integral   4.9122445555102999E+01
 SKALA_GPW| Active atom-composite max gradient   6.8098841030034007E+00
     5 P_Mix/Diag. 0.10E+00  340.4     0.48953215       -90.5219420206 -2.30E-04
 SKALA_GPW| Atom-composite cross support/maxima   2.119019365127E+00   2.136611569292E+00   5.988483340315E+00   3.451188458812E+00
 SKALA_GPW| Active atom-composite XC energy  -1.9192658720896411E+01
 SKALA_GPW| Active atom-composite electrons   4.0033740909989071E+01
 SKALA_GPW| Active atom-composite density range   9.5196529785084342E-04   2.7728241674474647E+00
 SKALA_GPW| Active atom-composite tau range   7.7348891588188869E-04   3.6669594426195884E+00
 SKALA_GPW| Active atom-composite tau integral   4.9212756186254190E+01
 SKALA_GPW| Active atom-composite max gradient   6.8163875393344364E+00
     6 P_Mix/Diag. 0.10E+00  337.9     0.43989256       -90.5220253045 -8.33E-05
 SKALA_GPW| Atom-composite cross support/maxima   2.119019365127E+00   2.138315106113E+00   5.993377627231E+00   3.454675982174E+00
 SKALA_GPW| Active atom-composite XC energy  -1.9218372898819364E+01
 SKALA_GPW| Active atom-composite electrons   4.0033523625295160E+01
 SKALA_GPW| Active atom-composite density range   8.7986530504693505E-04   2.7750344969378506E+00
 SKALA_GPW| Active atom-composite tau range   7.8148748188647699E-04   3.6708281682820760E+00
 SKALA_GPW| Active atom-composite tau integral   4.9287248356998212E+01
 SKALA_GPW| Active atom-composite max gradient   6.8222529035591917E+00
     7 P_Mix/Diag. 0.10E+00  343.5     0.39528641       -90.5220408674 -1.56E-05
 SKALA_GPW| Atom-composite cross support/maxima   2.119019365127E+00   2.139844791851E+00   5.997769067719E+00   3.457800061478E+00
 SKALA_GPW| Active atom-composite XC energy  -1.9240232782086171E+01
 SKALA_GPW| Active atom-composite electrons   4.0033340038039164E+01
 SKALA_GPW| Active atom-composite density range   8.1512543788747214E-04   2.7770349118864410E+00
 SKALA_GPW| Active atom-composite tau range   7.8936192507560838E-04   3.6743051050408564E+00
 SKALA_GPW| Active atom-composite tau integral   4.9348889690842277E+01
 SKALA_GPW| Active atom-composite max gradient   6.8275379943948566E+00
     8 P_Mix/Diag. 0.10E+00  339.4     0.35521326       -90.5220355355  5.33E-06
 SKALA_GPW| Atom-composite cross support/maxima   2.119019365127E+00   2.141217095256E+00   6.001705734040E+00   3.460595635012E+00
 SKALA_GPW| Active atom-composite XC energy  -1.9258898594677600E+01
 SKALA_GPW| Active atom-composite electrons   4.0033184240943719E+01
 SKALA_GPW| Active atom-composite density range   7.5701323187690359E-04   2.7788435190145813E+00
 SKALA_GPW| Active atom-composite tau range   7.9698563989828546E-04   3.6774264469075590E+00
 SKALA_GPW| Active atom-composite tau integral   4.9400071097967590E+01
 SKALA_GPW| Active atom-composite max gradient   6.8322958341863114E+00
     9 P_Mix/Diag. 0.10E+00  337.7     0.31922650       -90.5220338294  1.71E-06
 SKALA_GPW| Atom-composite cross support/maxima   2.119019365127E+00   2.142447078719E+00   6.005231522683E+00   3.463094724205E+00
 SKALA_GPW| Active atom-composite XC energy  -1.9274911856534004E+01
 SKALA_GPW| Active atom-composite electrons   4.0033051391784866E+01
 SKALA_GPW| Active atom-composite density range   7.0484054765056800E-04   2.7804771267593344E+00
 SKALA_GPW| Active atom-composite tau range   8.0427246134278903E-04   3.6802256379672809E+00
 SKALA_GPW| Active atom-composite tau integral   4.9442739770381465E+01
 SKALA_GPW| Active atom-composite max gradient   6.8365751902412031E+00
    10 P_Mix/Diag. 0.10E+00  340.3     0.28691724       -90.5220459173 -1.21E-05
 SKALA_GPW| Atom-composite cross support/maxima   2.119019365127E+00   2.143548481148E+00   6.008386412807E+00   3.465326549677E+00
 SKALA_GPW| Active atom-composite XC energy  -1.9288715779394469E+01
 SKALA_GPW| Active atom-composite electrons   4.0032937534993806E+01
 SKALA_GPW| Active atom-composite density range   6.5796600958490932E-04   2.7819512857872573E+00
 SKALA_GPW| Active atom-composite tau range   8.1116810048352419E-04   3.6827333937023590E+00
 SKALA_GPW| Active atom-composite tau integral   4.9478478565924775E+01
 SKALA_GPW| Active atom-composite max gradient   6.8404207814498932E+00
    11 P_Mix/Diag. 0.10E+00  336.7     0.25791122       -90.5220738927 -2.80E-05
 SKALA_GPW| Atom-composite cross support/maxima   2.119019365127E+00   2.144533825550E+00   6.011206794731E+00   3.467317722815E+00
 SKALA_GPW| Active atom-composite XC energy  -1.9300672406249518E+01
 SKALA_GPW| Active atom-composite electrons   4.0032839452822088E+01
 SKALA_GPW| Active atom-composite density range   6.1580501352728723E-04   2.7832803578660452E+00
 SKALA_GPW| Active atom-composite tau range   8.1764252760680020E-04   3.6849778644410884E+00
 SKALA_GPW| Active atom-composite tau integral   4.9508566839789715E+01
 SKALA_GPW| Active atom-composite max gradient   6.8438735647307833E+00
    12 P_Mix/Diag. 0.10E+00  340.2     0.23186477       -90.5221163330 -4.24E-05
 SKALA_GPW| Atom-composite cross support/maxima   2.119019365127E+00   2.145414536449E+00   6.013725825923E+00   3.469092485595E+00
 SKALA_GPW| Active atom-composite XC energy  -1.9311075708653469E+01
 SKALA_GPW| Active atom-composite electrons   4.0032754541478901E+01
 SKALA_GPW| Active atom-composite density range   5.7784846780136270E-04   2.7844775966644848E+00
 SKALA_GPW| Active atom-composite tau range   8.2368304159415897E-04   3.6869848146291666E+00
 SKALA_GPW| Active atom-composite tau integral   4.9534025106188189E+01
 SKALA_GPW| Active atom-composite max gradient   6.8469710548237437E+00
    13 P_Mix/Diag. 0.10E+00  337.4     0.20846865       -90.5221706713 -5.43E-05
 SKALA_GPW| Atom-composite cross support/maxima   2.119019365127E+00   2.146201037118E+00   6.015973724794E+00   3.470672883321E+00
 SKALA_GPW| Active atom-composite XC energy  -1.9320165207675682E+01
 SKALA_GPW| Active atom-composite electrons   4.0032680690515711E+01
 SKALA_GPW| Active atom-composite density range   5.4365636949136025E-04   2.7855552211551959E+00
 SKALA_GPW| Active atom-composite tau range   8.2928929401423286E-04   3.6887777977788678E+00
 SKALA_GPW| Active atom-composite tau integral   4.9555667015436768E+01
 SKALA_GPW| Active atom-composite max gradient   6.8497476031294680E+00
    14 P_Mix/Diag. 0.10E+00  337.1     0.18744718       -90.5222343650 -6.37E-05
 SKALA_GPW| Atom-composite cross support/maxima   2.119019365127E+00   2.146902829487E+00   6.017978011411E+00   3.472078964520E+00
 SKALA_GPW| Active atom-composite XC energy  -1.9328136831518126E+01
 SKALA_GPW| Active atom-composite electrons   4.0032616181284638E+01
 SKALA_GPW| Active atom-composite density range   5.1284462299787381E-04   2.7865244779957417E+00
 SKALA_GPW| Active atom-composite tau range   8.3446973582538154E-04   3.6903783069975633E+00
 SKALA_GPW| Active atom-composite tau integral   4.9574145169163671E+01
 SKALA_GPW| Active atom-composite max gradient   6.8522346315742002E+00
    15 P_Mix/Diag. 0.10E+00  337.0     0.16855507       -90.5223047205 -7.04E-05
 SKALA_GPW| Atom-composite cross support/maxima   2.119019365127E+00   2.147528548023E+00   6.019763670328E+00   3.473328896067E+00
 SKALA_GPW| Active atom-composite XC energy  -1.9335152256751854E+01
 SKALA_GPW| Active atom-composite electrons   4.0032559606271114E+01
 SKALA_GPW| Active atom-composite density range   4.8507360213534417E-04   2.7873956823587855E+00
 SKALA_GPW| Active atom-composite tau range   8.3923899236582023E-04   3.6918058849717705E+00
 SKALA_GPW| Active atom-composite tau integral   4.9589986876951258E+01
 SKALA_GPW| Active atom-composite max gradient   6.8544607916171234E+00
    16 P_Mix/Diag. 0.10E+00  341.7     0.15157373       -90.5223794249 -7.47E-05
 SKALA_GPW| Atom-composite cross support/maxima   2.119019365127E+00   2.148086027068E+00   6.021353351535E+00   3.474439115579E+00
 SKALA_GPW| Active atom-composite XC energy  -1.9341345576176423E+01
 SKALA_GPW| Active atom-composite electrons   4.0032509806280750E+01
 SKALA_GPW| Active atom-composite density range   4.6004001645071508E-04   2.7881782751538515E+00
 SKALA_GPW| Active atom-composite tau range   8.4361587452459698E-04   3.6930782779107636E+00
 SKALA_GPW| Active atom-composite tau integral   4.9603621186991226E+01
 SKALA_GPW| Active atom-composite max gradient   6.8564521655235176E+00
    17 P_Mix/Diag. 0.10E+00  342.6     0.13630787       -90.5224563669 -7.69E-05
 SKALA_GPW| Atom-composite cross support/maxima   2.119019365127E+00   2.148582357823E+00   6.022767540008E+00   3.475424461492E+00
 SKALA_GPW| Active atom-composite XC energy  -1.9346828784957520E+01
 SKALA_GPW| Active atom-composite electrons   4.0032465821750755E+01
 SKALA_GPW| Active atom-composite density range   4.3747179134957835E-04   2.7888808735541426E+00
 SKALA_GPW| Active atom-composite tau range   8.4762185742637600E-04   3.6942115579480519E+00
 SKALA_GPW| Active atom-composite tau integral   4.9615398938842127E+01
 SKALA_GPW| Active atom-composite max gradient   6.8582324392538059E+00
    18 P_Mix/Diag. 0.10E+00  338.8     0.12258273       -90.5225338692 -7.75E-05
 SKALA_GPW| Atom-composite cross support/maxima   2.119019365127E+00   2.149023947167E+00   6.024024729737E+00   3.476298305059E+00
 SKALA_GPW| Active atom-composite XC energy  -1.9351695777985185E+01
 SKALA_GPW| Active atom-composite electrons   4.0032426854362065E+01
 SKALA_GPW| Active atom-composite density range   4.1712450849833692E-04   2.7895113266618283E+00
 SKALA_GPW| Active atom-composite tau range   8.5127990240367482E-04   3.6952202538944405E+00
 SKALA_GPW| Active atom-composite tau integral   4.9625608202258711E+01
 SKALA_GPW| Active atom-composite max gradient   6.8598230836887444E+00
    19 P_Mix/Diag. 0.10E+00  339.6     0.11024170       -90.5226105238 -7.67E-05
 SKALA_GPW| Atom-composite cross support/maxima   2.119019365127E+00   2.149416574631E+00   6.025141591777E+00   3.477072677714E+00
 SKALA_GPW| Active atom-composite XC energy  -1.9356025724619336E+01
 SKALA_GPW| Active atom-composite electrons   4.0032392236502382E+01
 SKALA_GPW| Active atom-composite density range   3.9877854104966538E-04   2.7900767702654417E+00
 SKALA_GPW| Active atom-composite tau range   8.5461357873082352E-04   3.6961174783006521E+00
 SKALA_GPW| Active atom-composite tau integral   4.9634486386078144E+01
 SKALA_GPW| Active atom-composite max gradient   6.8612435298938719E+00
    20 P_Mix/Diag. 0.10E+00  340.1     0.09914443       -90.5226852392 -7.47E-05
 SKALA_GPW| Atom-composite cross support/maxima   2.119019365127E+00   2.149765446099E+00   6.026133131990E+00   3.477758389467E+00
 SKALA_GPW| Active atom-composite XC energy  -1.9359885816481057E+01
 SKALA_GPW| Active atom-composite electrons   4.0032361406689823E+01
 SKALA_GPW| Active atom-composite density range   3.8223643118069558E-04   2.7905836814145184E+00
 SKALA_GPW| Active atom-composite tau range   8.5764640541851917E-04   3.6969150476360557E+00
 SKALA_GPW| Active atom-composite tau integral   4.9642230031196114E+01
 SKALA_GPW| Active atom-composite max gradient   6.8625113376268390E+00
    21 DIIS/Diag.  0.12E-04  336.5     0.08881714       -90.5227572724 -7.20E-05
 SKALA_GPW| Atom-composite cross support/maxima   2.119019365127E+00   2.152654754488E+00   6.034296874227E+00   3.483304718149E+00
 SKALA_GPW| Active atom-composite XC energy  -1.9392494261338605E+01
 SKALA_GPW| Active atom-composite electrons   4.0032101735194026E+01
 SKALA_GPW| Active atom-composite density range   2.3166142510509542E-04   2.7950339146059200E+00
 SKALA_GPW| Active atom-composite tau range   8.8672495625287439E-04   3.7035394253535783E+00
 SKALA_GPW| Active atom-composite tau integral   4.9698362615997560E+01
 SKALA_GPW| Active atom-composite max gradient   6.8733295952614872E+00
    22 DIIS/Diag.  0.11E-03  338.2     0.00010590       -90.5236222106 -8.65E-04
 SKALA_GPW| Atom-composite cross support/maxima   2.119019365127E+00   2.152671080121E+00   6.034346156722E+00   3.483344910247E+00
 SKALA_GPW| Active atom-composite XC energy  -1.9392599948567295E+01
 SKALA_GPW| Active atom-composite electrons   4.0032101058639725E+01
 SKALA_GPW| Active atom-composite density range   2.3174658653509473E-04   2.7950422612280228E+00
 SKALA_GPW| Active atom-composite tau range   8.8665201585329202E-04   3.7035756647442435E+00
 SKALA_GPW| Active atom-composite tau integral   4.9698984333186246E+01
 SKALA_GPW| Active atom-composite max gradient   6.8733693851490152E+00
    23 DIIS/Diag.  0.12E-03  342.5     0.00041262       -90.5236219132  2.97E-07
 SKALA_GPW| Atom-composite cross support/maxima   2.119019365127E+00   2.152718213293E+00   6.034489704688E+00   3.483463882145E+00
 SKALA_GPW| Active atom-composite XC energy  -1.9393309089140043E+01
 SKALA_GPW| Active atom-composite electrons   4.0032096037511735E+01
 SKALA_GPW| Active atom-composite density range   2.3208416463573820E-04   2.7950607073637510E+00
 SKALA_GPW| Active atom-composite tau range   8.8620522554761470E-04   3.7036795090804522E+00
 SKALA_GPW| Active atom-composite tau integral   4.9702302292348506E+01
 SKALA_GPW| Active atom-composite max gradient   6.8734776858284592E+00
    24 DIIS/Diag.  0.24E-03  336.7     0.00122917       -90.5236205356  1.38E-06
 SKALA_GPW| Atom-composite cross support/maxima   2.119019365127E+00   2.152878203496E+00   6.034975095360E+00   3.483862745936E+00
 SKALA_GPW| Active atom-composite XC energy  -1.9394992869033004E+01
 SKALA_GPW| Active atom-composite electrons   4.0032084853671023E+01
 SKALA_GPW| Active atom-composite density range   2.3317060871097474E-04   2.7951325722683178E+00
 SKALA_GPW| Active atom-composite tau range   8.8508145853704136E-04   3.7040330223992584E+00
 SKALA_GPW| Active atom-composite tau integral   4.9710931851640616E+01
 SKALA_GPW| Active atom-composite max gradient   6.8738563178769443E+00
    25 DIIS/Diag.  0.11E-02  335.5     0.00225746       -90.5236094827  1.11E-05
 SKALA_GPW| Atom-composite cross support/maxima   2.119019365127E+00   2.152405530060E+00   6.033556609314E+00   3.482723283650E+00
 SKALA_GPW| Active atom-composite XC energy  -1.9395605943410445E+01
 SKALA_GPW| Active atom-composite electrons   4.0032073329492952E+01
 SKALA_GPW| Active atom-composite density range   2.3054196570231162E-04   2.7948478244453643E+00
 SKALA_GPW| Active atom-composite tau range   8.8536846763697481E-04   3.7029800488512867E+00
 SKALA_GPW| Active atom-composite tau integral   4.9706072090219330E+01
 SKALA_GPW| Active atom-composite max gradient   6.8726527048200268E+00
    26 DIIS/Diag.  0.79E-04  341.8     0.00030772       -90.5236252584 -1.58E-05
 SKALA_GPW| Atom-composite cross support/maxima   2.119019365127E+00   2.152405706539E+00   6.033555156074E+00   3.482721999521E+00
 SKALA_GPW| Active atom-composite XC energy  -1.9394452319661802E+01
 SKALA_GPW| Active atom-composite electrons   4.0032082582029197E+01
 SKALA_GPW| Active atom-composite density range   2.3084453083268102E-04   2.7948550581064975E+00
 SKALA_GPW| Active atom-composite tau range   8.8587101022515491E-04   3.7029843630501422E+00
 SKALA_GPW| Active atom-composite tau integral   4.9701763582545361E+01
 SKALA_GPW| Active atom-composite max gradient   6.8726605691293354E+00
    27 DIIS/Diag.  0.85E-07  338.7     0.00002564       -90.5236260006 -7.42E-07
 SKALA_GPW| Atom-composite cross support/maxima   2.119019365127E+00   2.152409241310E+00   6.033565476683E+00   3.482729139513E+00
 SKALA_GPW| Active atom-composite XC energy  -1.9394480726969199E+01
 SKALA_GPW| Active atom-composite electrons   4.0032082406133348E+01
 SKALA_GPW| Active atom-composite density range   2.3088608572023101E-04   2.7948588716857987E+00
 SKALA_GPW| Active atom-composite tau range   8.8585177410412325E-04   3.7029916945048189E+00
 SKALA_GPW| Active atom-composite tau integral   4.9701868186389795E+01
 SKALA_GPW| Active atom-composite max gradient   6.8726716490473514E+00
    28 DIIS/Diag.  0.21E-07  349.5     0.00000615       -90.5236259797  2.09E-08
 SKALA_GPW| Atom-composite cross support/maxima   2.119019365127E+00   2.152409109837E+00   6.033565081995E+00   3.482728927690E+00
 SKALA_GPW| Active atom-composite XC energy  -1.9394461640725218E+01
 SKALA_GPW| Active atom-composite electrons   4.0032082560826531E+01
 SKALA_GPW| Active atom-composite density range   2.3089430731476753E-04   2.7948587151397715E+00
 SKALA_GPW| Active atom-composite tau range   8.8585923818274492E-04   3.7029914899718746E+00
 SKALA_GPW| Active atom-composite tau integral   4.9701797015453522E+01
 SKALA_GPW| Active atom-composite max gradient   6.8726711870233625E+00
    29 DIIS/Diag.  0.23E-10  340.6     0.00000025       -90.5236259693  1.04E-08

  *** SCF run converged in    29 steps ***


  Electronic density on regular grids:        -40.0000000000        0.0000000000
  Core density on regular grids:               40.0000000000       -0.0000000000
  Total charge density on r-space grids:       -0.0000000000
  Total charge density g-space grids:          -0.0000000000

  Overlap energy of the core charge distribution:               0.00000000000000
  Self energy of the core charge distribution:               -160.21131208692640
  Core Hamiltonian energy:                                     32.28491127170765
  Hartree energy:                                              56.90933209464579
  Exchange-correlation energy:                                  0.00000000000000
  Dispersion energy:                                           -0.11209560803386

  GAPW_XC| Exc from hard and soft atomic rho1:                -19.39446164072522

  Total energy:                                               -90.52362596933204

  outer SCF iter =    1 RMS gradient =   0.00E+00 energy =        -90.5236259693
  outer SCF loop converged in   1 iterations or   29 steps


 !-----------------------------------------------------------------------------!
                     Mulliken Population Analysis

 #  Atom  Element  Kind  Atomic population                           Net charge
       1     Li       1          2.356576                              0.643424
       2     Li       1          2.356575                              0.643425
       3     Li       1          2.356575                              0.643425
       4     Li       1          2.356575                              0.643425
       5     Cl       2          7.643424                             -0.643424
       6     Cl       2          7.643424                             -0.643424
       7     Cl       2          7.643424                             -0.643424
       8     Cl       2          7.643428                             -0.643428
 # Total charge                             40.000000                  0.000000

 !-----------------------------------------------------------------------------!

 !-----------------------------------------------------------------------------!
                           Hirshfeld Charges

  #Atom  Element  Kind  Ref Charge     Population                    Net charge
      1       Li     1       3.000          3.066                        -0.066
      2       Li     1       3.000          3.066                        -0.066
      3       Li     1       3.000          3.066                        -0.066
      4       Li     1       3.000          3.066                        -0.066
      5       Cl     2       7.000          6.934                         0.066
      6       Cl     2       7.000          6.934                         0.066
      7       Cl     2       7.000          6.934                         0.066
      8       Cl     2       7.000          6.934                         0.066

  Total Charge                                                           -0.000
 !-----------------------------------------------------------------------------!

 ENERGY| Total FORCE_EVAL ( QS ) energy [hartree]            -90.523625969332045

 -------------------------------------------------------------------------------
 -                                                                             -
 -                                DBCSR STATISTICS                             -
 -                                                                             -
 -------------------------------------------------------------------------------
 COUNTER                                    TOTAL       BLAS       SMM       ACC
 flops inhomo. stacks                           0       0.0%      0.0%      0.0%
 flops total                         0.000000E+00       0.0%      0.0%      0.0%
 flops max/rank                      0.000000E+00       0.0%      0.0%      0.0%
 matmuls inhomo. stacks                         0       0.0%      0.0%      0.0%
 matmuls total                                  0       0.0%      0.0%      0.0%
 number of processed stacks                     0       0.0%      0.0%      0.0%
 average stack size                                     0.0       0.0       0.0
 marketing flops                     0.000000E+00
 -------------------------------------------------------------------------------

 -------------------------------------------------------------------------------
 -                                                                             -
 -                                GRID STATISTICS                              -
 -                                                                             -
 -------------------------------------------------------------------------------
 LP    KERNEL             BACKEND                              COUNT     PERCENT
 4     collocate ortho    CPU                                 536280      17.16%
 4     integrate ortho    CPU                                 518404      16.58%
 5     collocate ortho    CPU                                 432720      13.84%
 5     integrate ortho    CPU                                 418296      13.38%
 6     collocate ortho    CPU                                 356160      11.39%
 6     integrate ortho    CPU                                 344288      11.01%
 7     collocate ortho    CPU                                 213360       6.83%
 7     integrate ortho    CPU                                 206248       6.60%
 8     collocate ortho    CPU                                  50880       1.63%
 8     integrate ortho    CPU                                  49184       1.57%
 0     collocate general  CPU                                     24       0.00%
 0     integrate general  CPU                                      8       0.00%
 -------------------------------------------------------------------------------

 -------------------------------------------------------------------------------
 -                                                                             -
 -                          OFFLOAD MEMPOOL STATISTICS                         -
 -                                                                             -
 -------------------------------------------------------------------------------
 Memory consumption                Number of allocations  Used [MiB]  Size [MiB]
 Host                                                  9          59          58
 -------------------------------------------------------------------------------

 MEMORY| Estimated peak process memory [MiB]                                4741

 -------------------------------------------------------------------------------
 ----                             MULTIGRID INFO                            ----
 -------------------------------------------------------------------------------
 count for grid        1:           5876          cutoff [a.u.]          400.00
 count for grid        2:          21584          cutoff [a.u.]          133.33
 count for grid        3:          10525          cutoff [a.u.]           44.44
 count for grid        4:          12489          cutoff [a.u.]           14.81
 count for grid        5:          10826          cutoff [a.u.]            4.94
 total gridlevel count  :          61300

 -------------------------------------------------------------------------------
 -                                                                             -
 -                           R E F E R E N C E S                               -
 -                                                                             -
 -------------------------------------------------------------------------------
 
 CP2K version 2026.2 (Development Version), the CP2K developers group (2026).
 CP2K is freely available from https://www.cp2k.org/ .
 
 M. Iannuzzi, J. Wilhelm, F. Stein, A. Bussy, H. Elgabarty, D. Golze, A. Hehn, 
 M. Graml, S. Marek, B. Sertcan Gökmen, C. Schran, H. Forbert, R. Z. 
 Khaliullin, A. Kozhevnikov, M. Taillefumier, R. Meli, V. V. Rybkin, M. Brehm, 
 R. Schade, O. Schütt, J. V. Pototschnig, H. Mirhosseini, A. Knüpfer, D. Marx, 
 M. Krack, J. Hutter, T. D. Kühne.
 J. Phys. Chem. B 130, 1237-1310 (2026).
 The CP2K Program Package Made Simple.
 https://doi.org/10.1021/acs.jpcb.5c05851

 L. Wittmann, I. Gordiy, M. Friede, B. Helmich-Paris, S. Grimme, A. Hansen, M. 
 Bursch.
 Phys. Chem. Chem. Phys. 26, 21379-21394 (2024).
 Extension of the D3 and D4 London dispersion corrections to the full actinides 
 series.
 https://doi.org/10.1039/d4cp01514b

 T. D. Kühne, M. Iannuzzi, M. Del Ben, V. V. Rybkin, P. Seewald, F. Stein, T. 
 Laino, R. Z. Khaliullin, O. Schütt, F. Schiffmann, D. Golze, J. Wilhelm, S. 
 Chulkov, M. H. Bani-Hashemian, V. Weber, U. Borstnik, M. Taillefumier, A. S. 
 Jakobovits, A. Lazzaro, H. Pabst, T. Müller, R. Schade, M. Guidon, S. 
 Andermatt, N. Holmberg, G. K. Schenter, A. Hehn, A. Bussy, F. Belleflamme, G. 
 Tabacchi, A. Glöß, M. Lass, I. Bethune, C. J. Mundy, C. Plessl, M. Watkins, 
 J. VandeVondele, M. Krack, J. Hutter.
 J. Chem. Phys. 152, 194103 (2020).
 CP2K: An electronic structure and molecular dynamics software package - 
 Quickstep: Efficient and accurate electronic structure calculations.
 https://doi.org/10.1063/5.0007045

 A. Togo, I. Tanaka.
 arXiv, 1808.01590 (2018).
 Spglib : a software library for crystal symmetry search.

 L. Goerigk, A. Hansen, C. Bauer, S. Ehrlich, A. Najibi, S. Grimme.
 Phys. Chem. Chem. Phys. 19, 32184-32215 (2017).
 A look at the density functional theory zoo with the advanced GMTKN55 database 
 for general main group thermochemistry, kinetics and noncovalent interactions.
 https://doi.org/10.1039/C7CP04913G

 O. Schuett, P. Messmer, J. Hutter, J. VandeVondele.
 Electronic Structure Calculations on Graphics Processing Units, 173-190 (2016).
 GPU-Accelerated Sparse Matrix-Matrix Multiplication for Linear Scaling Density 
 Functional Theory.
 https://doi.org/10.1002/9781118670712.ch8

 U. Borstnik, J. VandeVondele, V. Weber, J. Hutter.
 Parallel Comput. 40, 47-58 (2014).
 Sparse matrix multiplication: The distributed block-compressed sparse row 
 library.
 https://doi.org/10.1016/j.parco.2014.03.012

 S. Grimme, S. Ehrlich, L. Goerigk.
 J. Comput. Chem. 32, 1456 (2011).
 Effect of the damping function in dispersion corrected density functional 
 theory.
 https://doi.org/10.1002/jcc.21759

 S. Grimme, J. Antony, S. Ehrlich, H. Krieg.
 J. Chem. Phys. 132, 154104 (2010).
 A consistent and accurate ab initio parametrization of density functional 
 dispersion correction (DFT-D) for the 94 elements H-Pu.
 https://doi.org/10.1063/1.3382344

 J. VandeVondele, J. Hutter.
 J. Chem. Phys. 127, 114105 (2007).
 Gaussian basis sets for accurate calculations on molecular systems in gas and 
 condensed phases.
 https://doi.org/10.1063/1.2770708

 M. Krack.
 Theor. Chem. Acc. 114, 145-152 (2005).
 Pseudopotentials for H to Kr optimized for gradient-corrected 
 exchange-correlation functionals.
 https://doi.org/10.1007/s00214-005-0655-y

 M. Frigo, S. G. Johnson.
 Proc. IEEE 93, 216-231 (2005).
 The design and implementation of FFTW3.
 https://doi.org/10.1109/JPROC.2004.840301

 C. Hartwigsen, S. Goedecker, J. Hutter.
 Phys. Rev. B 58, 3641-3662 (1998).
 Relativistic separable dual-space Gaussian pseudopotentials from H to Rn.
 https://doi.org/10.1103/PhysRevB.58.3641

 S. Goedecker, M. Teter, J. Hutter.
 Phys. Rev. B 54, 1703-1710 (1996).
 Separable dual-space Gaussian pseudopotentials.
 https://doi.org/10.1103/PhysRevB.54.1703

 C.-L. Fu, K.-M. Ho.
 Phys. Rev. B 28, 5480-5486 (1983).
 First-principles calculation of the equilibrium ground-state properties of 
 transition metals: Applications to Nb and Mo.
 https://doi.org/10.1103/PhysRevB.28.5480

 T. G. Worlton, J. L. Warren.
 Comput. Phys. Commun. 3, 88-117 (1972).
 Group-theoretical analysis of lattice vibrations.
 https://doi.org/10.1016/0010-4655(72)90058-6


 -------------------------------------------------------------------------------
 -                                                                             -
 -                                T I M I N G                                  -
 -                                                                             -
 -------------------------------------------------------------------------------
 SUBROUTINE                       CALLS  ASD         SELF TIME        TOTAL TIME
                                MAXIMUM       AVERAGE  MAXIMUM  AVERAGE  MAXIMUM
 CP2K                                 1  1.0    0.030    0.030 9888.508 9888.508
 qs_energies                          1  2.0    0.001    0.001 9888.011 9888.011
 scf_env_do_scf                       1  3.0    0.000    0.000 9886.446 9886.446
 scf_env_do_scf_inner_loop           29  4.0    0.120    0.120 9886.445 9886.445
 qs_ks_update_qs_env                 29  5.0    0.000    0.000 9835.685 9835.685
 rebuild_ks_matrix                   29  6.0    0.000    0.000 9834.903 9834.903
 qs_ks_build_kohn_sham_matrix        29  7.0    0.028    0.028 9834.903 9834.903
 calculate_vxc_atom                  29  8.0 8309.902 8309.902 9803.795 9803.795
 skala_atom_torch_backward           87  9.0  690.971  690.971  690.971  690.971
 skala_atom_torch_forward            87  9.0    0.014    0.014  393.314  393.314
 torch_model_forward_mol_tensor      87 10.0  393.299  393.299  393.299  393.299
 -------------------------------------------------------------------------------

 The number of warnings for this run is : 1
 
 -------------------------------------------------------------------------------
  **** **** ******  **  PROGRAM ENDED AT                 2026-09-01 07:31:31.540
 ***** ** ***  *** **   PROGRAM RAN ON                                    cge061
 **    ****   ******    PROGRAM RAN BY                                  kuehne88
 ***** **    ** ** **   PROGRAM PROCESS ID                               1906580
  **** **  *******  **  PROGRAM STOPPED IN /data/home2/kuehne88/cp2k-native-skal
                                           a/goldzak12/runs/production/gapwxc-gt
                                           h/LiCl/v10
