 DBCSR| CPU Multiplication driver                                           BLAS (U)
 DBCSR| Multrec recursion limit                                              512 (U)
 DBCSR| Multiplication stack size                                           1000 (D)
 DBCSR| Maximum elements for images                                    UNLIMITED (U)
 DBCSR| Multiplicative factor virtual images                                   1 (U)
 DBCSR| Use multiplication densification                                       T (D)
 DBCSR| Multiplication size stacks                                             3 (U)
 DBCSR| Use memory pool for CPU allocation                                     F (U)
 DBCSR| Number of 3D layers                                               SINGLE (U)
 DBCSR| Use MPI memory allocation                                              F (U)
 DBCSR| Use RMA algorithm                                                      F (U)
 DBCSR| Use Communication thread                                               T (U)
 DBCSR| Communication thread load                                             60 (D)
 DBCSR| MPI: My process id                                                     0
 DBCSR| MPI: Number of processes                                               1
 DBCSR| OMP: Current number of threads                                         8
 DBCSR| OMP: Max number of threads                                             8
 DBCSR| Split modifier for TAS multiplication algorithm                  1.0E+00 (U)


  **** **** ******  **  PROGRAM STARTED AT               2026-08-26 23:23:23.063
 ***** ** ***  *** **   PROGRAM STARTED ON                                 terok
 **    ****   ******    PROGRAM STARTED BY                              kuehne88
 ***** **    ** ** **   PROGRAM PROCESS ID                               1387511
  **** **  *******  **  PROGRAM STARTED IN /home/kuehne88/work/native-skala-tero
                                           k/diet-production-p25/gapwxc-gth-one-
                                           center/0281f91ab5c4e8292ef61cb99f55e1
                                           efc9cb90d6

 CP2K| version string:                 CP2K version 2026.2 (Development Version)
 CP2K| source code revision number:                                   c1bff3eeb8
 CP2K| cp2kflags: omp fftw3 gauxc gauxc_mpi gauxc_onedft gauxc_host parallel sca
 CP2K|            lapack mpi_f08 openblas libtorch libtorch_cuda
 CP2K| is freely available from                            https://www.cp2k.org/
 CP2K| Program compiled at                                   2026-08-24 23:53:18
 CP2K| Program compiled on                                                 terok
 CP2K| Program compiled for                                               x86_64
 CP2K| Data directory path      /home/kuehne88/work/native-skala-terok/cp2k/data
 CP2K| Input file name                                             input.cpu.inp

 GLOBAL| Force Environment number                                              1
 GLOBAL| Basis set file name                             BASIS_MOLOPT_UZH_2026.2
 GLOBAL| Potential file name                                POTENTIAL_UZH_2026.2
 GLOBAL| MM Potential file name                                     MM_POTENTIAL
 GLOBAL| Coordinate file name                                      __STD_INPUT__
 GLOBAL| Method name                                                        CP2K
 GLOBAL| Project name                                0281f91ab5c4_gapwxc_gth_paw
 GLOBAL| Run type                                                         ENERGY
 GLOBAL| FFT library                                                       FFTW3
 GLOBAL| Diagonalization library                                       ScaLAPACK
 GLOBAL| Cholesky decomposition library                                ScaLAPACK
 GLOBAL| DGEMM library                                                      BLAS
 GLOBAL| Direct generalized diagonalization requested                          F
 GLOBAL| Orthonormality check for eigenvectors                          DISABLED
 GLOBAL| Matrix multiplication library                                 ScaLAPACK
 GLOBAL| All-to-all communication in single precision                          F
 GLOBAL| FFTs using library dependent lengths                                  F
 GLOBAL| Grid backend                                                       AUTO
 GLOBAL| Global print level                                               MEDIUM
 GLOBAL| MPI I/O enabled                                                       T
 GLOBAL| Total number of message passing processes                             1
 GLOBAL| Number of distributed systems (nodes)                                 1
 GLOBAL| Number of threads for this process                                    8
 GLOBAL| This output is from process                                           0
 GLOBAL| OpenMP stack size per thread (OMP_STACKSIZE)                       512M
 GLOBAL| CPU model name                                       AMD EPYC Processor

 MEMORY| system memory details [Kb]
 MEMORY|                        rank 0           min           max       average
 MEMORY| MemTotal            528104844     528104844     528104844     528104844
 MEMORY| MemFree             275623236     275623236     275623236     275623236
 MEMORY| Buffers                   668           668           668           668
 MEMORY| Cached               47969872      47969872      47969872      47969872
 MEMORY| Slab                 24103148      24103148      24103148      24103148
 MEMORY| SReclaimable         20178000      20178000      20178000      20178000
 MEMORY| MemLikelyFree       343771776     343771776     343771776     343771776


 *** Fundamental physical constants (SI units) ***

 *** Literature: B. J. Mohr and B. N. Taylor,
 ***             CODATA recommended values of the fundamental physical
 ***             constants: 2006, Web Version 5.1
 ***             http://physics.nist.gov/constants

 Speed of light in vacuum [m/s]                             2.99792458000000E+08
 Magnetic constant or permeability of vacuum [N/A**2]       1.25663706143592E-06
 Electric constant or permittivity of vacuum [F/m]          8.85418781762039E-12
 Planck constant (h) [J*s]                                  6.62606896000000E-34
 Planck constant (h-bar) [J*s]                              1.05457162825177E-34
 Elementary charge [C]                                      1.60217648700000E-19
 Electron mass [kg]                                         9.10938215000000E-31
 Electron g factor [ ]                                     -2.00231930436220E+00
 Proton mass [kg]                                           1.67262163700000E-27
 Fine-structure constant                                    7.29735253760000E-03
 Rydberg constant [1/m]                                     1.09737315685270E+07
 Avogadro constant [1/mol]                                  6.02214179000000E+23
 Boltzmann constant [J/K]                                   1.38065040000000E-23
 Atomic mass unit [kg]                                      1.66053878200000E-27
 Bohr radius [m]                                            5.29177208590000E-11

 *** Conversion factors ***

 [u] -> [a.u.]                                              1.82288848426455E+03
 [Angstrom] -> [Bohr] = [a.u.]                              1.88972613288564E+00
 [a.u.] = [Bohr] -> [Angstrom]                              5.29177208590000E-01
 [a.u.] -> [s]                                              2.41888432650478E-17
 [a.u.] -> [fs]                                             2.41888432650478E-02
 [a.u.] -> [J]                                              4.35974393937059E-18
 [a.u.] -> [N]                                              8.23872205491840E-08
 [a.u.] -> [K]                                              3.15774647902944E+05
 [a.u.] -> [kJ/mol]                                         2.62549961709828E+03
 [a.u.] -> [kcal/mol]                                       6.27509468713739E+02
 [a.u.] -> [Pa]                                             2.94210107994716E+13
 [a.u.] -> [bar]                                            2.94210107994716E+08
 [a.u.] -> [atm]                                            2.90362800883016E+08
 [a.u.] -> [eV]                                             2.72113838565563E+01
 [a.u.] -> [Hz]                                             6.57968392072181E+15
 [a.u.] -> [1/cm] (wave numbers)                            2.19474631370540E+05
 [a.u./Bohr**2] -> [1/cm]                                   5.14048714338585E+03
 

 CELL| Volume [angstrom^3]:                                         15625.000000
 CELL| Vector a [angstrom]:      25.000     0.000     0.000   |a| =    25.000000
 CELL| Vector b [angstrom]:       0.000    25.000     0.000   |b| =    25.000000
 CELL| Vector c [angstrom]:       0.000     0.000    25.000   |c| =    25.000000
 CELL| Angle (b,c), alpha [degree]:                                    90.000000
 CELL| Angle (a,c), beta  [degree]:                                    90.000000
 CELL| Angle (a,b), gamma [degree]:                                    90.000000
 CELL| Numerically orthorhombic:                                             YES
 CELL| Periodicity                                                          NONE

 CELL_REF| Volume [angstrom^3]:                                     15625.000000
 CELL_REF| Vector a [angstrom    25.000     0.000     0.000   |a| =    25.000000
 CELL_REF| Vector b [angstrom     0.000    25.000     0.000   |b| =    25.000000
 CELL_REF| Vector c [angstrom     0.000     0.000    25.000   |c| =    25.000000
 CELL_REF| Angle (b,c), alpha [degree]:                                90.000000
 CELL_REF| Angle (a,c), beta  [degree]:                                90.000000
 CELL_REF| Angle (a,b), gamma [degree]:                                90.000000
 CELL_REF| Numerically orthorhombic:                                         YES
 CELL_REF| Periodicity                                                      NONE

 GENERATE|  Preliminary Number of Bonds generated:                             0
 GENERATE|  Achieved consistency in connectivity generation.

 *******************************************************************************
 *******************************************************************************
 **                                                                           **
 **     #####                         ##              ##                      **
 **    ##   ##            ##          ##              ##                      **
 **   ##     ##                       ##            ######                    **
 **   ##     ##  ##   ##  ##   #####  ##  ##   ####   ##    #####    #####    **
 **   ##     ##  ##   ##  ##  ##      ## ##   ##      ##   ##   ##  ##   ##   **
 **   ##  ## ##  ##   ##  ##  ##      ####     ###    ##   ######   ######    **
 **    ##  ###   ##   ##  ##  ##      ## ##      ##   ##   ##       ##        **
 **     #######   #####   ##   #####  ##  ##  ####    ##    #####   ##        **
 **           ##                                                    ##        **
 **                                                                           **
 **                                                ... make the atoms dance   **
 **                                                                           **
 **            Copyright (C) by CP2K developers group (2000-2026)             **
 **                      J. Chem. Phys. 152, 194103 (2020)                    **
 **                                                                           **
 *******************************************************************************

 DFT| Spin unrestricted (spin-polarized) Kohn-Sham calculation               UKS
 DFT| Multiplicity                                                             2
 DFT| Number of spin states                                                    2
 DFT| Charge                                                                   0
 DFT| Self-interaction correction (SIC)                                       NO
 DFT| Cutoffs: density                                              1.000000E-10
 DFT|          gradient                                             1.000000E-10
 DFT|          tau                                                  1.000000E-10
 DFT|          cutoff_smoothing_range                               0.000000E+00
 DFT| XC density smoothing                                                  NONE
 DFT| XC derivatives                                                          PW

 FUNCTIONAL| GAUXC:
 FUNCTIONAL| Functional computed by GauXC Skala model SKALA                     

 vdW POTENTIAL|                                                   Pair Potential
 vdW POTENTIAL|          DFT-D3 (Version 3.1)
 vdW POTENTIAL|          Potential Form: S. Grimme et al, JCP 132: 154104 (2010)
 vdW POTENTIAL|          BJ Damping: S. Grimme et al, JCC 32: 1456 (2011)
 vdW POTENTIAL|          Cutoff Radius [Bohr]:                             37.79
 vdW POTENTIAL|          s6 Scaling Factor:                               1.0000
 vdW POTENTIAL|          a1 Damping Factor:                               0.3981
 vdW POTENTIAL|          s8 Scaling Factor:                               1.9889
 vdW POTENTIAL|          a2 Damping Factor:                               4.4211
 vdW POTENTIAL|          Cutoff for CN calculation:                   0.1000E-05

 QS| Method:                                                             GAPW_XC
 QS| Density plane wave grid type                        NON-SPHERICAL FULLSPACE
 QS| Number of grid levels:                                                    5
 QS| Density cutoff [a.u.]:                                                200.0
 QS| Multi grid cutoff [a.u.]: 1) grid level                               200.0
 QS|                           2) grid level                                66.7
 QS|                           3) grid level                                22.2
 QS|                           4) grid level                                 7.4
 QS|                           5) grid level                                 2.5
 QS| Grid level progression factor:                                          3.0
 QS| Relative density cutoff [a.u.]:                                        30.0
 QS| Interaction thresholds: eps_pgf_orb:                                1.0E-06
 QS|                         eps_filter_matrix:                          0.0E+00
 QS|                         eps_core_charge:                            1.0E-14
 QS|                         eps_rho_gspace:                             1.0E-12
 QS|                         eps_rho_rspace:                             1.0E-12
 QS|                         eps_gvg_rspace:                             1.0E-06
 QS|                         eps_ppl:                                    1.0E-02
 QS|                         eps_ppnl:                                   1.0E-08
 QS| GAPW_XC|      One center basis extended with primitives (small:s)
 QS| GAPW_XC|                eps_fit:                                    1.0E-04
 QS| GAPW_XC|                eps_iso:                                    1.0E-12
 QS| GAPW_XC|                eps_svd:                                    1.0E-08
 QS| GAPW_XC|atom-r-grid: quadrature:                 GC_LOG                        
 QS| GAPW_XC|   atom-s-grid:  max l :                                          6


 ATOMIC KIND INFORMATION

  1. Atomic kind: Cl                                    Number of atoms:       1

     Orbital Basis Set                                   TZV2P-MOLOPT-PBE-GTH-q7

       Number of orbital shell sets:                                           1
       Number of orbital shells:                                               9
       Number of primitive Cartesian functions:                                4
       Number of Cartesian basis functions:                                   34
       Number of spherical basis functions:                                   29
       Norm type:                                                              2

       Normalised Cartesian orbitals:

                        Set   Shell   Orbital            Exponent    Coefficient

                          1       1    2s                1.998248       0.474127
                                                         1.503631      -0.298602
                                                         0.406509      -0.170002
                                                         0.128538      -0.091923

                          1       2    3s                1.998248       0.878043
                                                         1.503631      -0.090105
                                                         0.406509      -0.545023
                                                         0.128538       0.260422

                          1       3    4s                1.998248       0.030172
                                                         1.503631      -1.270839
                                                         0.406509       0.168869
                                                         0.128538       0.050189

                          1       4    3px               1.998248       1.035211
                                                         1.503631      -1.044903
                                                         0.406509      -0.274741
                                                         0.128538      -0.041581
                          1       4    3py               1.998248       1.035211
                                                         1.503631      -1.044903
                                                         0.406509      -0.274741
                                                         0.128538      -0.041581
                          1       4    3pz               1.998248       1.035211
                                                         1.503631      -1.044903
                                                         0.406509      -0.274741
                                                         0.128538      -0.041581

                          1       5    4px               1.998248       0.846287
                                                         1.503631      -0.665007
                                                         0.406509      -0.214639
                                                         0.128538       0.137550
                          1       5    4py               1.998248       0.846287
                                                         1.503631      -0.665007
                                                         0.406509      -0.214639
                                                         0.128538       0.137550
                          1       5    4pz               1.998248       0.846287
                                                         1.503631      -0.665007
                                                         0.406509      -0.214639
                                                         0.128538       0.137550

                          1       6    5px               1.998248      -1.228895
                                                         1.503631      -1.929331
                                                         0.406509       0.181784
                                                         0.128538       0.003953
                          1       6    5py               1.998248      -1.228895
                                                         1.503631      -1.929331
                                                         0.406509       0.181784
                                                         0.128538       0.003953
                          1       6    5pz               1.998248      -1.228895
                                                         1.503631      -1.929331
                                                         0.406509       0.181784
                                                         0.128538       0.003953

                          1       7    4dx2              1.998248       0.400992
                                                         1.503631       0.768662
                                                         0.406509       0.256895
                                                         0.128538       0.005608
                          1       7    4dxy              1.998248       0.694538
                                                         1.503631       1.331361
                                                         0.406509       0.444955
                                                         0.128538       0.009714
                          1       7    4dxz              1.998248       0.694538
                                                         1.503631       1.331361
                                                         0.406509       0.444955
                                                         0.128538       0.009714
                          1       7    4dy2              1.998248       0.400992
                                                         1.503631       0.768662
                                                         0.406509       0.256895
                                                         0.128538       0.005608
                          1       7    4dyz              1.998248       0.694538
                                                         1.503631       1.331361
                                                         0.406509       0.444955
                                                         0.128538       0.009714
                          1       7    4dz2              1.998248       0.400992
                                                         1.503631       0.768662
                                                         0.406509       0.256895
                                                         0.128538       0.005608

                          1       8    5dx2              1.998248      -1.963226
                                                         1.503631       5.042957
                                                         0.406509      -0.158524
                                                         0.128538       0.012321
                          1       8    5dxy              1.998248      -3.400407
                                                         1.503631       8.734658
                                                         0.406509      -0.274571
                                                         0.128538       0.021341
                          1       8    5dxz              1.998248      -3.400407
                                                         1.503631       8.734658
                                                         0.406509      -0.274571
                                                         0.128538       0.021341
                          1       8    5dy2              1.998248      -1.963226
                                                         1.503631       5.042957
                                                         0.406509      -0.158524
                                                         0.128538       0.012321
                          1       8    5dyz              1.998248      -3.400407
                                                         1.503631       8.734658
                                                         0.406509      -0.274571
                                                         0.128538       0.021341
                          1       8    5dz2              1.998248      -1.963226
                                                         1.503631       5.042957
                                                         0.406509      -0.158524
                                                         0.128538       0.012321

                          1       9    5fx3              1.998248      -0.939013
                                                         1.503631       1.405782
                                                         0.406509       0.163556
                                                         0.128538       0.000428
                          1       9    5fx2y             1.998248      -2.099697
                                                         1.503631       3.143425
                                                         0.406509       0.365723
                                                         0.128538       0.000958
                          1       9    5fx2z             1.998248      -2.099697
                                                         1.503631       3.143425
                                                         0.406509       0.365723
                                                         0.128538       0.000958
                          1       9    5fxy2             1.998248      -2.099697
                                                         1.503631       3.143425
                                                         0.406509       0.365723
                                                         0.128538       0.000958
                          1       9    5fxyz             1.998248      -3.636782
                                                         1.503631       5.444571
                                                         0.406509       0.633451
                                                         0.128538       0.001659
                          1       9    5fxz2             1.998248      -2.099697
                                                         1.503631       3.143425
                                                         0.406509       0.365723
                                                         0.128538       0.000958
                          1       9    5fy3              1.998248      -0.939013
                                                         1.503631       1.405782
                                                         0.406509       0.163556
                                                         0.128538       0.000428
                          1       9    5fy2z             1.998248      -2.099697
                                                         1.503631       3.143425
                                                         0.406509       0.365723
                                                         0.128538       0.000958
                          1       9    5fyz2             1.998248      -2.099697
                                                         1.503631       3.143425
                                                         0.406509       0.365723
                                                         0.128538       0.000958
                          1       9    5fz3              1.998248      -0.939013
                                                         1.503631       1.405782
                                                         0.406509       0.163556
                                                         0.128538       0.000428

       Atomic covalent radius [Angstrom]:                                  0.990

       Atomic van der Waals radius [Angstrom]:                             1.750

     The atoms of this atomic kind are PAW atoms (GAPW):
       Hard Gaussian function radius:                                      1.600
       Rho0 radius:                                                        1.600
       Maximum GTO radius used for PAW projector construction:            24.566

     GAPW Soft Basis Set                            TZV2P-MOLOPT-PBE-GTH-q7_soft

       Number of orbital shell sets:                                           1
       Number of orbital shells:                                               9
       Number of primitive Cartesian functions:                                4
       Number of Cartesian basis functions:                                   34
       Number of spherical basis functions:                                   29
       Norm type:                                                              2

       Normalised Cartesian orbitals:

                        Set   Shell   Orbital            Exponent    Coefficient

                          1       1    2s                1.998248       0.474127
                                                         1.503631      -0.298602
                                                         0.406509      -0.170002
                                                         0.128538      -0.091923

                          1       2    3s                1.998248       0.878043
                                                         1.503631      -0.090105
                                                         0.406509      -0.545023
                                                         0.128538       0.260422

                          1       3    4s                1.998248       0.030172
                                                         1.503631      -1.270839
                                                         0.406509       0.168869
                                                         0.128538       0.050189

                          1       4    3px               1.998248       1.035211
                                                         1.503631      -1.044903
                                                         0.406509      -0.274741
                                                         0.128538      -0.041581
                          1       4    3py               1.998248       1.035211
                                                         1.503631      -1.044903
                                                         0.406509      -0.274741
                                                         0.128538      -0.041581
                          1       4    3pz               1.998248       1.035211
                                                         1.503631      -1.044903
                                                         0.406509      -0.274741
                                                         0.128538      -0.041581

                          1       5    4px               1.998248       0.846287
                                                         1.503631      -0.665007
                                                         0.406509      -0.214639
                                                         0.128538       0.137550
                          1       5    4py               1.998248       0.846287
                                                         1.503631      -0.665007
                                                         0.406509      -0.214639
                                                         0.128538       0.137550
                          1       5    4pz               1.998248       0.846287
                                                         1.503631      -0.665007
                                                         0.406509      -0.214639
                                                         0.128538       0.137550

                          1       6    5px               1.998248      -1.228895
                                                         1.503631      -1.929331
                                                         0.406509       0.181784
                                                         0.128538       0.003953
                          1       6    5py               1.998248      -1.228895
                                                         1.503631      -1.929331
                                                         0.406509       0.181784
                                                         0.128538       0.003953
                          1       6    5pz               1.998248      -1.228895
                                                         1.503631      -1.929331
                                                         0.406509       0.181784
                                                         0.128538       0.003953

                          1       7    4dx2              1.998248       0.400992
                                                         1.503631       0.768662
                                                         0.406509       0.256895
                                                         0.128538       0.005608
                          1       7    4dxy              1.998248       0.694538
                                                         1.503631       1.331361
                                                         0.406509       0.444955
                                                         0.128538       0.009714
                          1       7    4dxz              1.998248       0.694538
                                                         1.503631       1.331361
                                                         0.406509       0.444955
                                                         0.128538       0.009714
                          1       7    4dy2              1.998248       0.400992
                                                         1.503631       0.768662
                                                         0.406509       0.256895
                                                         0.128538       0.005608
                          1       7    4dyz              1.998248       0.694538
                                                         1.503631       1.331361
                                                         0.406509       0.444955
                                                         0.128538       0.009714
                          1       7    4dz2              1.998248       0.400992
                                                         1.503631       0.768662
                                                         0.406509       0.256895
                                                         0.128538       0.005608

                          1       8    5dx2              1.998248      -1.963226
                                                         1.503631       5.042957
                                                         0.406509      -0.158524
                                                         0.128538       0.012321
                          1       8    5dxy              1.998248      -3.400407
                                                         1.503631       8.734658
                                                         0.406509      -0.274571
                                                         0.128538       0.021341
                          1       8    5dxz              1.998248      -3.400407
                                                         1.503631       8.734658
                                                         0.406509      -0.274571
                                                         0.128538       0.021341
                          1       8    5dy2              1.998248      -1.963226
                                                         1.503631       5.042957
                                                         0.406509      -0.158524
                                                         0.128538       0.012321
                          1       8    5dyz              1.998248      -3.400407
                                                         1.503631       8.734658
                                                         0.406509      -0.274571
                                                         0.128538       0.021341
                          1       8    5dz2              1.998248      -1.963226
                                                         1.503631       5.042957
                                                         0.406509      -0.158524
                                                         0.128538       0.012321

                          1       9    5fx3              1.998248      -0.939013
                                                         1.503631       1.405782
                                                         0.406509       0.163556
                                                         0.128538       0.000428
                          1       9    5fx2y             1.998248      -2.099697
                                                         1.503631       3.143425
                                                         0.406509       0.365723
                                                         0.128538       0.000958
                          1       9    5fx2z             1.998248      -2.099697
                                                         1.503631       3.143425
                                                         0.406509       0.365723
                                                         0.128538       0.000958
                          1       9    5fxy2             1.998248      -2.099697
                                                         1.503631       3.143425
                                                         0.406509       0.365723
                                                         0.128538       0.000958
                          1       9    5fxyz             1.998248      -3.636782
                                                         1.503631       5.444571
                                                         0.406509       0.633451
                                                         0.128538       0.001659
                          1       9    5fxz2             1.998248      -2.099697
                                                         1.503631       3.143425
                                                         0.406509       0.365723
                                                         0.128538       0.000958
                          1       9    5fy3              1.998248      -0.939013
                                                         1.503631       1.405782
                                                         0.406509       0.163556
                                                         0.128538       0.000428
                          1       9    5fy2z             1.998248      -2.099697
                                                         1.503631       3.143425
                                                         0.406509       0.365723
                                                         0.128538       0.000958
                          1       9    5fyz2             1.998248      -2.099697
                                                         1.503631       3.143425
                                                         0.406509       0.365723
                                                         0.128538       0.000958
                          1       9    5fz3              1.998248      -0.939013
                                                         1.503631       1.405782
                                                         0.406509       0.163556
                                                         0.128538       0.000428

     GTH Potential information for                                    GTH-PBE-q7

       Description:                       Goedecker-Teter-Hutter pseudopotential
                                           Goedecker et al., PRB 54, 1703 (1996)
                                          Hartwigsen et al., PRB 58, 3641 (1998)
                                                      Krack, TCA 114, 145 (2005)

       Gaussian exponent of the core charge distribution:               2.972287
       Electronic configuration (s p d ...):                       2   5   0   0

       Parameters of the local part of the GTH pseudopotential:

                          rloc        C1          C2          C3          C4
                        0.410147   -6.378521

       Parameters of the non-local part of the GTH pseudopotential:

                   l      r(l)      h(i,j,l)

                   0    0.339553   15.219287   -4.934522
                                   -4.934522    6.370683
                   1    0.378489    4.338598


 MOLECULE KIND INFORMATION


 All atoms are their own molecule, skipping detailed information


 TOTAL NUMBERS AND MAXIMUM NUMBERS

  Total number of            - Atomic kinds:                                   1
                             - Atoms:                                          1
                             - Shell sets:                                     1
                             - Shells:                                         9
                             - Primitive Cartesian functions:                  4
                             - Cartesian basis functions:                     34
                             - Spherical basis functions:                     29

  Maximum angular momentum of- Orbital basis functions:                        3
                             - Local part of the GTH pseudopotential:          0
                             - Non-local part of the GTH pseudopotential:      2


 MODULE QUICKSTEP: ATOMIC COORDINATES IN ANGSTROM

   Atom Kind Element         X             Y             Z       Z(eff)     Mass
      1    1 Cl   17     12.500000     12.500000     12.500000   7.0000  35.4530



 SCF PARAMETERS         Density guess:                                    ATOMIC
                        --------------------------------------------------------
                        max_scf:                                             200
                        max_scf_history:                                       0
                        max_diis:                                              4
                        --------------------------------------------------------
                        eps_scf:                                        1.00E-07
                        eps_scf_history:                                0.00E+00
                        eps_diis:                                       0.00E+00
                        eps_eigval:                                     1.00E-05
                        --------------------------------------------------------
                        level_shift [a.u.]:                             0.000000
                        --------------------------------------------------------
                        Outer loop SCF in use 
                        No variables optimised in outer loop
                        eps_scf                                         1.00E-07
                        max_scf                                               20
                        No outer loop optimization
                        step_size                                       5.00E-01

 PW_GRID| Information for grid number                                          1
 PW_GRID| Cutoff [a.u.]                                                    200.0
 PW_GRID| spherical cutoff:                                                   NO
 PW_GRID|   Bounds   1           -160     159                Points:         320
 PW_GRID|   Bounds   2           -160     159                Points:         320
 PW_GRID|   Bounds   3           -160     159                Points:         320
 PW_GRID| Volume element (a.u.^3)  0.3218E-02     Volume (a.u.^3)    105442.7279
 PW_GRID| Grid span                                                    FULLSPACE

 PW_GRID| Information for grid number                                          2
 PW_GRID| Number of the reference grid                                         1
 PW_GRID| Cutoff [a.u.]                                                     66.7
 PW_GRID| spherical cutoff:                                                   NO
 PW_GRID|   Bounds   1            -90      89                Points:         180
 PW_GRID|   Bounds   2            -90      89                Points:         180
 PW_GRID|   Bounds   3            -90      89                Points:         180
 PW_GRID| Volume element (a.u.^3)  0.1808E-01     Volume (a.u.^3)    105442.7279
 PW_GRID| Grid span                                                    FULLSPACE

 PW_GRID| Information for grid number                                          3
 PW_GRID| Number of the reference grid                                         1
 PW_GRID| Cutoff [a.u.]                                                     22.2
 PW_GRID| spherical cutoff:                                                   NO
 PW_GRID|   Bounds   1            -54      53                Points:         108
 PW_GRID|   Bounds   2            -54      53                Points:         108
 PW_GRID|   Bounds   3            -54      53                Points:         108
 PW_GRID| Volume element (a.u.^3)  0.8370E-01     Volume (a.u.^3)    105442.7279
 PW_GRID| Grid span                                                    FULLSPACE

 PW_GRID| Information for grid number                                          4
 PW_GRID| Number of the reference grid                                         1
 PW_GRID| Cutoff [a.u.]                                                      7.4
 PW_GRID| spherical cutoff:                                                   NO
 PW_GRID|   Bounds   1            -30      29                Points:          60
 PW_GRID|   Bounds   2            -30      29                Points:          60
 PW_GRID|   Bounds   3            -30      29                Points:          60
 PW_GRID| Volume element (a.u.^3)  0.4882         Volume (a.u.^3)    105442.7279
 PW_GRID| Grid span                                                    FULLSPACE

 PW_GRID| Information for grid number                                          5
 PW_GRID| Number of the reference grid                                         1
 PW_GRID| Cutoff [a.u.]                                                      2.5
 PW_GRID| spherical cutoff:                                                   NO
 PW_GRID|   Bounds   1            -18      17                Points:          36
 PW_GRID|   Bounds   2            -18      17                Points:          36
 PW_GRID|   Bounds   3            -18      17                Points:          36
 PW_GRID| Volume element (a.u.^3)   2.260         Volume (a.u.^3)    105442.7279
 PW_GRID| Grid span                                                    FULLSPACE

 POISSON| Solver                                                        ANALYTIC
 POISSON| Periodicity                                                       NONE

 RS_GRID| Information for grid number                                          1
 RS_GRID|   Bounds   1           -160     159                Points:         320
 RS_GRID|   Bounds   2           -160     159                Points:         320
 RS_GRID|   Bounds   3           -160     159                Points:         320

 RS_GRID| Information for grid number                                          2
 RS_GRID|   Bounds   1            -90      89                Points:         180
 RS_GRID|   Bounds   2            -90      89                Points:         180
 RS_GRID|   Bounds   3            -90      89                Points:         180

 RS_GRID| Information for grid number                                          3
 RS_GRID|   Bounds   1            -54      53                Points:         108
 RS_GRID|   Bounds   2            -54      53                Points:         108
 RS_GRID|   Bounds   3            -54      53                Points:         108

 RS_GRID| Information for grid number                                          4
 RS_GRID|   Bounds   1            -30      29                Points:          60
 RS_GRID|   Bounds   2            -30      29                Points:          60
 RS_GRID|   Bounds   3            -30      29                Points:          60

 RS_GRID| Information for grid number                                          5
 RS_GRID|   Bounds   1            -18      17                Points:          36
 RS_GRID|   Bounds   2            -18      17                Points:          36
 RS_GRID|   Bounds   3            -18      17                Points:          36

 Extrapolation method: initial_guess

 Atomic guess: The first density matrix is obtained in terms of atomic orbitals
               and electronic configurations assigned to each atomic kind

 Guess for atomic kind: Cl

 Electronic structure
    Total number of core electrons                                         10.00
    Total number of valence electrons                                       7.00
    Total number of electrons                                              17.00
    Multiplicity                                                   not specified
    S   [  2.00  2.00] 2.00
    P   [  6.00] 5.00


 *******************************************************************************
                  Iteration          Convergence                     Energy [au]
 *******************************************************************************
                          1        0.221822E-01                 -14.771254732634
                          2        0.254082E-01                 -14.771350251321
                          3        0.626082E-03                 -14.771474988612
                          4        0.348199E-05                 -14.771475091459
                          5        0.279098E-08                 -14.771475091463

 Energy components [Hartree]           Total Energy ::          -14.771475091463
                                        Band Energy ::           -2.980459630123
                                     Kinetic Energy ::            5.565342680317
                                   Potential Energy ::          -20.336817771779
                                      Virial (-V/T) ::            3.654189677072
                                        Core Energy ::          -24.665063559671
                                          XC Energy ::           -2.740744659354
                                     Coulomb Energy ::           12.634333127562
                       Total Pseudopotential Energy ::          -30.289780942398
                       Local Pseudopotential Energy ::          -33.418312085125
                    Nonlocal Pseudopotential Energy ::            3.128531142726
                                        Confinement ::            0.593747024103

 Orbital energies  State     L     Occupation   Energy[a.u.]          Energy[eV]

                       1     0          2.000      -0.742513          -20.204799

                       1     1          5.000      -0.299087           -8.138566


 Total Electron Density at R=0:                                         0.000319

 Spin 1
 Re-scaling the density matrix to get the right number of electrons for spin 1
                  # Electrons              Trace(P)               Scaling factor
                            4                 3.500                        1.143

 Spin 2
 Re-scaling the density matrix to get the right number of electrons for spin 2
                  # Electrons              Trace(P)               Scaling factor
                            3                 3.500                        0.857

 Spin 1

 Number of electrons:                                                          4
 Number of occupied orbitals:                                                  4
 Number of molecular orbitals:                                                 4

 Spin 2

 Number of electrons:                                                          3
 Number of occupied orbitals:                                                  3
 Number of molecular orbitals:                                                 3

 Number of orbital functions:                                                 29
 Number of independent orbital functions:                                     29


 SCF WAVEFUNCTION OPTIMIZATION

  ----------------------------------- OT ---------------------------------------
  Minimizer      : DIIS                : direct inversion
                                         in the iterative subspace
                                         using   7 DIIS vectors
                                         safer DIIS on
  Preconditioner : FULL_ALL            : diagonalization, state selective
  Precond_solver : DEFAULT
  stepsize       :    0.10000000                  energy_gap     :    0.00100000
  eps_taylor     :   0.10000E-15                  max_taylor     :             4
  ----------------------------------- OT ---------------------------------------

  Step     Update method      Time    Convergence         Total energy    Change
  ------------------------------------------------------------------------------
 SKALA_GPW| Atom-composite cross support/maxima   0.000000000000E+00   0.000000000000E+00   0.000000000000E+00   0.000000000000E+00
 SKALA_GPW| Active atom-composite XC energy  -2.8505933229629341E+00
 SKALA_GPW| Active atom-composite electrons   6.9999999953460472E+00
 SKALA_GPW| Active atom-composite density range  -1.8089762747208895E-07   1.5024348453884923E-01
 SKALA_GPW| Active atom-composite tau range  -2.0567560598253803E-08   3.1786357560161616E-01
 SKALA_GPW| Active atom-composite tau integral   5.5803209159976923E+00
 SKALA_GPW| Active atom-composite max gradient   2.8510120906449887E-01
     1 OT DIIS     0.10E+00   34.2     0.02919577       -14.8917438319 -1.49E+01
 SKALA_GPW| Atom-composite cross support/maxima   0.000000000000E+00   0.000000000000E+00   0.000000000000E+00   0.000000000000E+00
 SKALA_GPW| Active atom-composite XC energy  -2.8518506456372910E+00
 SKALA_GPW| Active atom-composite electrons   6.9999999958316099E+00
 SKALA_GPW| Active atom-composite density range  -2.8174097183264587E-10   1.5586206643433773E-01
 SKALA_GPW| Active atom-composite tau range  -2.1543313767449712E-08   3.3252888977745676E-01
 SKALA_GPW| Active atom-composite tau integral   5.5789872592721892E+00
 SKALA_GPW| Active atom-composite max gradient   2.9171381394184992E-01
     2 OT DIIS     0.10E+00   50.6     0.02019455       -14.9063040881 -1.46E-02
 SKALA_GPW| Atom-composite cross support/maxima   0.000000000000E+00   0.000000000000E+00   0.000000000000E+00   0.000000000000E+00
 SKALA_GPW| Active atom-composite XC energy  -2.8557705527519452E+00
 SKALA_GPW| Active atom-composite electrons   6.9999999964881408E+00
 SKALA_GPW| Active atom-composite density range  -3.2020146796065679E-10   1.6520822805560445E-01
 SKALA_GPW| Active atom-composite tau range  -2.3467950934344511E-08   3.5556314759235230E-01
 SKALA_GPW| Active atom-composite tau integral   5.5815004157030534E+00
 SKALA_GPW| Active atom-composite max gradient   3.0192654066644137E-01
     3 OT DIIS     0.10E+00   50.9     0.00826926       -14.9200723623 -1.38E-02
 SKALA_GPW| Atom-composite cross support/maxima   0.000000000000E+00   0.000000000000E+00   0.000000000000E+00   0.000000000000E+00
 SKALA_GPW| Active atom-composite XC energy  -2.8576641447928770E+00
 SKALA_GPW| Active atom-composite electrons   6.9999999965318169E+00
 SKALA_GPW| Active atom-composite density range  -3.3422011599954701E-10   1.6321921283456309E-01
 SKALA_GPW| Active atom-composite tau range  -2.4423036064702320E-08   3.4459204411378264E-01
 SKALA_GPW| Active atom-composite tau integral   5.5797639538049850E+00
 SKALA_GPW| Active atom-composite max gradient   2.9690910436638202E-01
     4 OT DIIS     0.10E+00   46.8     0.00325328       -14.9237873283 -3.71E-03
 SKALA_GPW| Atom-composite cross support/maxima   0.000000000000E+00   0.000000000000E+00   0.000000000000E+00   0.000000000000E+00
 SKALA_GPW| Active atom-composite XC energy  -2.8594352378792776E+00
 SKALA_GPW| Active atom-composite electrons   6.9999999966231616E+00
 SKALA_GPW| Active atom-composite density range  -3.4685118338397188E-10   1.6427247789463170E-01
 SKALA_GPW| Active atom-composite tau range  -2.5104885890022786E-08   3.4508573597953257E-01
 SKALA_GPW| Active atom-composite tau integral   5.5832672513437931E+00
 SKALA_GPW| Active atom-composite max gradient   2.9743015443777859E-01
     5 OT DIIS     0.10E+00   55.6     0.00163035       -14.9242709123 -4.84E-04
 SKALA_GPW| Atom-composite cross support/maxima   0.000000000000E+00   0.000000000000E+00   0.000000000000E+00   0.000000000000E+00
 SKALA_GPW| Active atom-composite XC energy  -2.8602836264174174E+00
 SKALA_GPW| Active atom-composite electrons   6.9999999967309945E+00
 SKALA_GPW| Active atom-composite density range  -3.4815109121066995E-10   1.6358898681396963E-01
 SKALA_GPW| Active atom-composite tau range  -2.5108249848129225E-08   3.4257300750419695E-01
 SKALA_GPW| Active atom-composite tau integral   5.5854143973678987E+00
 SKALA_GPW| Active atom-composite max gradient   2.9653727730968060E-01
     6 OT DIIS     0.10E+00   50.0     0.00076262       -14.9243851225 -1.14E-04
 SKALA_GPW| Atom-composite cross support/maxima   0.000000000000E+00   0.000000000000E+00   0.000000000000E+00   0.000000000000E+00
 SKALA_GPW| Active atom-composite XC energy  -2.8609811413334141E+00
 SKALA_GPW| Active atom-composite electrons   6.9999999967846209E+00
 SKALA_GPW| Active atom-composite density range  -3.5044138556058583E-10   1.6312549578095323E-01
 SKALA_GPW| Active atom-composite tau range  -2.5214774545780311E-08   3.4005769946609793E-01
 SKALA_GPW| Active atom-composite tau integral   5.5868915450836152E+00
 SKALA_GPW| Active atom-composite max gradient   2.9556267115612095E-01
     7 OT DIIS     0.10E+00   52.8     0.00036098       -14.9244237889 -3.87E-05
 SKALA_GPW| Atom-composite cross support/maxima   0.000000000000E+00   0.000000000000E+00   0.000000000000E+00   0.000000000000E+00
 SKALA_GPW| Active atom-composite XC energy  -2.8603191455350374E+00
 SKALA_GPW| Active atom-composite electrons   6.9999999967035622E+00
 SKALA_GPW| Active atom-composite density range  -3.4775334952192760E-10   1.6314304044537867E-01
 SKALA_GPW| Active atom-composite tau range  -2.5128835194985611E-08   3.3886550305596036E-01
 SKALA_GPW| Active atom-composite tau integral   5.5847177833734216E+00
 SKALA_GPW| Active atom-composite max gradient   2.9487066846329574E-01
     8 OT DIIS     0.10E+00   51.2     0.00015925       -14.9244337108 -9.92E-06
 SKALA_GPW| Atom-composite cross support/maxima   0.000000000000E+00   0.000000000000E+00   0.000000000000E+00   0.000000000000E+00
 SKALA_GPW| Active atom-composite XC energy  -2.8604232877632003E+00
 SKALA_GPW| Active atom-composite electrons   6.9999999967151911E+00
 SKALA_GPW| Active atom-composite density range  -3.4789362171582449E-10   1.6321676632981105E-01
 SKALA_GPW| Active atom-composite tau range  -2.5137956368959014E-08   3.3839246060973194E-01
 SKALA_GPW| Active atom-composite tau integral   5.5850609166638616E+00
 SKALA_GPW| Active atom-composite max gradient   2.9462501526975993E-01
     9 OT DIIS     0.10E+00   42.6     0.00012227       -14.9244349097 -1.20E-06
 SKALA_GPW| Atom-composite cross support/maxima   0.000000000000E+00   0.000000000000E+00   0.000000000000E+00   0.000000000000E+00
 SKALA_GPW| Active atom-composite XC energy  -2.8605647933305947E+00
 SKALA_GPW| Active atom-composite electrons   6.9999999967422539E+00
 SKALA_GPW| Active atom-composite density range  -3.4793291102522135E-10   1.6311434770848482E-01
 SKALA_GPW| Active atom-composite tau range  -2.5130868840595989E-08   3.3822709804650819E-01
 SKALA_GPW| Active atom-composite tau integral   5.5857298712034735E+00
 SKALA_GPW| Active atom-composite max gradient   2.9446959584354920E-01
    10 OT DIIS     0.10E+00   56.1     0.00004995       -14.9244359232 -1.01E-06
 SKALA_GPW| Atom-composite cross support/maxima   0.000000000000E+00   0.000000000000E+00   0.000000000000E+00   0.000000000000E+00
 SKALA_GPW| Active atom-composite XC energy  -2.8605277173517232E+00
 SKALA_GPW| Active atom-composite electrons   6.9999999967357986E+00
 SKALA_GPW| Active atom-composite density range  -3.4795091154866046E-10   1.6308713412035764E-01
 SKALA_GPW| Active atom-composite tau range  -2.5130720247344981E-08   3.3813714494028729E-01
 SKALA_GPW| Active atom-composite tau integral   5.5855661682489375E+00
 SKALA_GPW| Active atom-composite max gradient   2.9436615892021856E-01
    11 OT DIIS     0.10E+00   51.5     0.00004139       -14.9244361136 -1.90E-07
 SKALA_GPW| Atom-composite cross support/maxima   0.000000000000E+00   0.000000000000E+00   0.000000000000E+00   0.000000000000E+00
 SKALA_GPW| Active atom-composite XC energy  -2.8605159498740442E+00
 SKALA_GPW| Active atom-composite electrons   6.9999999967340027E+00
 SKALA_GPW| Active atom-composite density range  -3.4795623228011427E-10   1.6307968488390315E-01
 SKALA_GPW| Active atom-composite tau range  -2.5130796112756923E-08   3.3812509560536552E-01
 SKALA_GPW| Active atom-composite tau integral   5.5855188903971520E+00
 SKALA_GPW| Active atom-composite max gradient   2.9434091258256945E-01
    12 OT DIIS     0.10E+00   53.9     0.00004063       -14.9244361787 -6.50E-08
 SKALA_GPW| Atom-composite cross support/maxima   0.000000000000E+00   0.000000000000E+00   0.000000000000E+00   0.000000000000E+00
 SKALA_GPW| Active atom-composite XC energy  -2.8605159052100055E+00
 SKALA_GPW| Active atom-composite electrons   6.9999999967340081E+00
 SKALA_GPW| Active atom-composite density range  -3.4797847319430898E-10   1.6308014551815556E-01
 SKALA_GPW| Active atom-composite tau range  -2.5132123406377598E-08   3.3812594687733311E-01
 SKALA_GPW| Active atom-composite tau integral   5.5855216561681695E+00
 SKALA_GPW| Active atom-composite max gradient   2.9430810458015477E-01
    13 OT DIIS     0.10E+00   54.0     0.00003986       -14.9244363055 -1.27E-07
 SKALA_GPW| Atom-composite cross support/maxima   0.000000000000E+00   0.000000000000E+00   0.000000000000E+00   0.000000000000E+00
 SKALA_GPW| Active atom-composite XC energy  -2.8605247012317703E+00
 SKALA_GPW| Active atom-composite electrons   6.9999999967351201E+00
 SKALA_GPW| Active atom-composite density range  -3.4808896022841078E-10   1.6308357357227293E-01
 SKALA_GPW| Active atom-composite tau range  -2.5137648147594872E-08   3.3813367582009279E-01
 SKALA_GPW| Active atom-composite tau integral   5.5855505938889252E+00
 SKALA_GPW| Active atom-composite max gradient   2.9424336688390107E-01
    14 OT DIIS     0.10E+00   52.2     0.00003881       -14.9244365839 -2.78E-07
 SKALA_GPW| Atom-composite cross support/maxima   0.000000000000E+00   0.000000000000E+00   0.000000000000E+00   0.000000000000E+00
 SKALA_GPW| Active atom-composite XC energy  -2.8605302631743275E+00
 SKALA_GPW| Active atom-composite electrons   6.9999999967357480E+00
 SKALA_GPW| Active atom-composite density range  -3.4815427868298523E-10   1.6308457059576228E-01
 SKALA_GPW| Active atom-composite tau range  -2.5140776506177371E-08   3.3812749687904586E-01
 SKALA_GPW| Active atom-composite tau integral   5.5855681657080360E+00
 SKALA_GPW| Active atom-composite max gradient   2.9421012421922788E-01
    15 OT DIIS     0.10E+00   54.6     0.00003851       -14.9244367201 -1.36E-07
 SKALA_GPW| Atom-composite cross support/maxima   0.000000000000E+00   0.000000000000E+00   0.000000000000E+00   0.000000000000E+00
 SKALA_GPW| Active atom-composite XC energy  -2.8605325734383893E+00
 SKALA_GPW| Active atom-composite electrons   6.9999999967361815E+00
 SKALA_GPW| Active atom-composite density range  -3.4822754688956033E-10   1.6308568601136070E-01
 SKALA_GPW| Active atom-composite tau range  -2.5144542664604087E-08   3.3812279737593220E-01
 SKALA_GPW| Active atom-composite tau integral   5.5855747272751710E+00
 SKALA_GPW| Active atom-composite max gradient   2.9417097429724404E-01
    16 OT DIIS     0.10E+00   45.0     0.00003809       -14.9244368863 -1.66E-07
 SKALA_GPW| Atom-composite cross support/maxima   0.000000000000E+00   0.000000000000E+00   0.000000000000E+00   0.000000000000E+00
 SKALA_GPW| Active atom-composite XC energy  -2.8605122395408955E+00
 SKALA_GPW| Active atom-composite electrons   6.9999999967342772E+00
 SKALA_GPW| Active atom-composite density range  -3.4846028723491068E-10   1.6308663776844476E-01
 SKALA_GPW| Active atom-composite tau range  -2.5158530621357317E-08   3.3810078057462900E-01
 SKALA_GPW| Active atom-composite tau integral   5.5855001792478616E+00
 SKALA_GPW| Active atom-composite max gradient   2.9400193727178825E-01
    17 OT DIIS     0.10E+00   46.2     0.00003444       -14.9244375741 -6.88E-07
 SKALA_GPW| Atom-composite cross support/maxima   0.000000000000E+00   0.000000000000E+00   0.000000000000E+00   0.000000000000E+00
 SKALA_GPW| Active atom-composite XC energy  -2.8605004599398978E+00
 SKALA_GPW| Active atom-composite electrons   6.9999999967339859E+00
 SKALA_GPW| Active atom-composite density range  -3.4878709088190559E-10   1.6309317762784276E-01
 SKALA_GPW| Active atom-composite tau range  -2.5177213453690099E-08   3.3812746375486002E-01
 SKALA_GPW| Active atom-composite tau integral   5.5854578735720324E+00
 SKALA_GPW| Active atom-composite max gradient   2.9382224689686226E-01
    18 OT DIIS     0.10E+00   51.3     0.00002591       -14.9244382384 -6.64E-07
 SKALA_GPW| Atom-composite cross support/maxima   0.000000000000E+00   0.000000000000E+00   0.000000000000E+00   0.000000000000E+00
 SKALA_GPW| Active atom-composite XC energy  -2.8605237700836339E+00
 SKALA_GPW| Active atom-composite electrons   6.9999999967385262E+00
 SKALA_GPW| Active atom-composite density range  -3.4893037097105648E-10   1.6309774986347145E-01
 SKALA_GPW| Active atom-composite tau range  -2.5185404533131752E-08   3.3811623636932575E-01
 SKALA_GPW| Active atom-composite tau integral   5.5855545051557121E+00
 SKALA_GPW| Active atom-composite max gradient   2.9376859927693300E-01
    19 OT DIIS     0.10E+00   47.8     0.00002041       -14.9244383779 -1.40E-07
 SKALA_GPW| Atom-composite cross support/maxima   0.000000000000E+00   0.000000000000E+00   0.000000000000E+00   0.000000000000E+00
 SKALA_GPW| Active atom-composite XC energy  -2.8605242643987649E+00
 SKALA_GPW| Active atom-composite electrons   6.9999999967392963E+00
 SKALA_GPW| Active atom-composite density range  -3.4909622825506754E-10   1.6309659647995720E-01
 SKALA_GPW| Active atom-composite tau range  -2.5194673074770119E-08   3.3810099832255680E-01
 SKALA_GPW| Active atom-composite tau integral   5.5855553891699143E+00
 SKALA_GPW| Active atom-composite max gradient   2.9367967278971396E-01
    20 OT SD       0.10E+00   44.2     0.00001571       -14.9244384949 -1.17E-07
 SKALA_GPW| Atom-composite cross support/maxima   0.000000000000E+00   0.000000000000E+00   0.000000000000E+00   0.000000000000E+00
 SKALA_GPW| Active atom-composite XC energy  -2.8605211025087769E+00
 SKALA_GPW| Active atom-composite electrons   6.9999999967388051E+00
 SKALA_GPW| Active atom-composite density range  -3.4909850058832544E-10   1.6309273252923184E-01
 SKALA_GPW| Active atom-composite tau range  -2.5194648065710535E-08   3.3809142304708284E-01
 SKALA_GPW| Active atom-composite tau integral   5.5855417617004246E+00
 SKALA_GPW| Active atom-composite max gradient   2.9367144917262161E-01
    21 OT DIIS     0.10E+00   43.6     0.00001333       -14.9244384955 -6.69E-10
 SKALA_GPW| Atom-composite cross support/maxima   0.000000000000E+00   0.000000000000E+00   0.000000000000E+00   0.000000000000E+00
 SKALA_GPW| Active atom-composite XC energy  -2.8605089502221066E+00
 SKALA_GPW| Active atom-composite electrons   6.9999999967375190E+00
 SKALA_GPW| Active atom-composite density range  -3.4917476893996442E-10   1.6307706209928888E-01
 SKALA_GPW| Active atom-composite tau range  -2.5198666530568411E-08   3.3803303764198694E-01
 SKALA_GPW| Active atom-composite tau integral   5.5854908807109176E+00
 SKALA_GPW| Active atom-composite max gradient   2.9358969558780290E-01
    22 OT DIIS     0.10E+00   46.7     0.00000439       -14.9244385282 -3.27E-08
 SKALA_GPW| Atom-composite cross support/maxima   0.000000000000E+00   0.000000000000E+00   0.000000000000E+00   0.000000000000E+00
 SKALA_GPW| Active atom-composite XC energy  -2.8605070905173311E+00
 SKALA_GPW| Active atom-composite electrons   6.9999999967375066E+00
 SKALA_GPW| Active atom-composite density range  -3.4916581434972526E-10   1.6307598096951650E-01
 SKALA_GPW| Active atom-composite tau range  -2.5198493043924736E-08   3.3802531076596909E-01
 SKALA_GPW| Active atom-composite tau integral   5.5854870558492848E+00
 SKALA_GPW| Active atom-composite max gradient   2.9357430726497868E-01
    23 OT DIIS     0.10E+00   44.9     0.00000317       -14.9244385275  6.30E-10
 SKALA_GPW| Atom-composite cross support/maxima   0.000000000000E+00   0.000000000000E+00   0.000000000000E+00   0.000000000000E+00
 SKALA_GPW| Active atom-composite XC energy  -2.8605087767869586E+00
 SKALA_GPW| Active atom-composite electrons   6.9999999967377748E+00
 SKALA_GPW| Active atom-composite density range  -3.4914941925553521E-10   1.6307568239583634E-01
 SKALA_GPW| Active atom-composite tau range  -2.5197501366537833E-08   3.3802573196823738E-01
 SKALA_GPW| Active atom-composite tau integral   5.5854945152812094E+00
 SKALA_GPW| Active atom-composite max gradient   2.9358033377587667E-01
    24 OT DIIS     0.10E+00   46.5     0.00000262       -14.9244385279 -3.95E-10
 SKALA_GPW| Atom-composite cross support/maxima   0.000000000000E+00   0.000000000000E+00   0.000000000000E+00   0.000000000000E+00
 SKALA_GPW| Active atom-composite XC energy  -2.8605119003098189E+00
 SKALA_GPW| Active atom-composite electrons   6.9999999967380937E+00
 SKALA_GPW| Active atom-composite density range  -3.4915851818724598E-10   1.6307550738957863E-01
 SKALA_GPW| Active atom-composite tau range  -2.5197718390650051E-08   3.3802612488503431E-01
 SKALA_GPW| Active atom-composite tau integral   5.5855058921445968E+00
 SKALA_GPW| Active atom-composite max gradient   2.9357862563778164E-01
    25 OT DIIS     0.10E+00   47.2     0.00000215       -14.9244385263  1.61E-09
 SKALA_GPW| Atom-composite cross support/maxima   0.000000000000E+00   0.000000000000E+00   0.000000000000E+00   0.000000000000E+00
 SKALA_GPW| Active atom-composite XC energy  -2.8605121003317913E+00
 SKALA_GPW| Active atom-composite electrons   6.9999999967381665E+00
 SKALA_GPW| Active atom-composite density range  -3.4915868950010748E-10   1.6307544498072038E-01
 SKALA_GPW| Active atom-composite tau range  -2.5197681094364108E-08   3.3802708939554099E-01
 SKALA_GPW| Active atom-composite tau integral   5.5855064453082246E+00
 SKALA_GPW| Active atom-composite max gradient   2.9357806775547396E-01
    26 OT DIIS     0.10E+00   41.7     0.00000204       -14.9244385293 -2.97E-09
 SKALA_GPW| Atom-composite cross support/maxima   0.000000000000E+00   0.000000000000E+00   0.000000000000E+00   0.000000000000E+00
 SKALA_GPW| Active atom-composite XC energy  -2.8605114319662710E+00
 SKALA_GPW| Active atom-composite electrons   6.9999999967381141E+00
 SKALA_GPW| Active atom-composite density range  -3.4915018514972003E-10   1.6307681516490205E-01
 SKALA_GPW| Active atom-composite tau range  -2.5197223392167356E-08   3.3803217023479226E-01
 SKALA_GPW| Active atom-composite tau integral   5.5855037889022414E+00
 SKALA_GPW| Active atom-composite max gradient   2.9357364857493351E-01
    27 OT DIIS     0.10E+00   46.7     0.00000152       -14.9244385299 -5.98E-10
 SKALA_GPW| Atom-composite cross support/maxima   0.000000000000E+00   0.000000000000E+00   0.000000000000E+00   0.000000000000E+00
 SKALA_GPW| Active atom-composite XC energy  -2.8605117469348533E+00
 SKALA_GPW| Active atom-composite electrons   6.9999999967380768E+00
 SKALA_GPW| Active atom-composite density range  -3.4914793050283184E-10   1.6307713977844548E-01
 SKALA_GPW| Active atom-composite tau range  -2.5197098733794994E-08   3.3803315241933424E-01
 SKALA_GPW| Active atom-composite tau integral   5.5855049908998957E+00
 SKALA_GPW| Active atom-composite max gradient   2.9357182568330387E-01
    28 OT DIIS     0.10E+00   41.8     0.00000136       -14.9244385306 -7.07E-10
 SKALA_GPW| Atom-composite cross support/maxima   0.000000000000E+00   0.000000000000E+00   0.000000000000E+00   0.000000000000E+00
 SKALA_GPW| Active atom-composite XC energy  -2.8605124133527733E+00
 SKALA_GPW| Active atom-composite electrons   6.9999999967383033E+00
 SKALA_GPW| Active atom-composite density range  -3.4913539428991896E-10   1.6307644307020622E-01
 SKALA_GPW| Active atom-composite tau range  -2.5196378351896504E-08   3.3803057916839546E-01
 SKALA_GPW| Active atom-composite tau integral   5.5855068585760179E+00
 SKALA_GPW| Active atom-composite max gradient   2.9356140822236421E-01
    29 OT DIIS     0.10E+00   52.3     0.00000055       -14.9244385340 -3.44E-09
 SKALA_GPW| Atom-composite cross support/maxima   0.000000000000E+00   0.000000000000E+00   0.000000000000E+00   0.000000000000E+00
 SKALA_GPW| Active atom-composite XC energy  -2.8605123009625650E+00
 SKALA_GPW| Active atom-composite electrons   6.9999999967382660E+00
 SKALA_GPW| Active atom-composite density range  -3.4913494871875791E-10   1.6307620208393678E-01
 SKALA_GPW| Active atom-composite tau range  -2.5196362943042840E-08   3.3802967630608971E-01
 SKALA_GPW| Active atom-composite tau integral   5.5855068216829231E+00
 SKALA_GPW| Active atom-composite max gradient   2.9355731808047902E-01
    30 OT DIIS     0.10E+00   43.5     0.00000024       -14.9244385312  2.80E-09
 SKALA_GPW| Atom-composite cross support/maxima   0.000000000000E+00   0.000000000000E+00   0.000000000000E+00   0.000000000000E+00
 SKALA_GPW| Active atom-composite XC energy  -2.8605123214985575E+00
 SKALA_GPW| Active atom-composite electrons   6.9999999967382385E+00
 SKALA_GPW| Active atom-composite density range  -3.4913545786589960E-10   1.6307620189970587E-01
 SKALA_GPW| Active atom-composite tau range  -2.5196389081704452E-08   3.3802962707975659E-01
 SKALA_GPW| Active atom-composite tau integral   5.5855069333981335E+00
 SKALA_GPW| Active atom-composite max gradient   2.9355714639105757E-01
    31 OT DIIS     0.10E+00   42.7     0.00000019       -14.9244385318 -5.90E-10
 SKALA_GPW| Atom-composite cross support/maxima   0.000000000000E+00   0.000000000000E+00   0.000000000000E+00   0.000000000000E+00
 SKALA_GPW| Active atom-composite XC energy  -2.8605122332192634E+00
 SKALA_GPW| Active atom-composite electrons   6.9999999967383015E+00
 SKALA_GPW| Active atom-composite density range  -3.4913598203986123E-10   1.6307622570246261E-01
 SKALA_GPW| Active atom-composite tau range  -2.5196420261848848E-08   3.3802920727888541E-01
 SKALA_GPW| Active atom-composite tau integral   5.5855066135001703E+00
 SKALA_GPW| Active atom-composite max gradient   2.9355740387905627E-01
    32 OT DIIS     0.10E+00   51.2     0.00000010       -14.9244385302  1.61E-09
 SKALA_GPW| Atom-composite cross support/maxima   0.000000000000E+00   0.000000000000E+00   0.000000000000E+00   0.000000000000E+00
 SKALA_GPW| Active atom-composite XC energy  -2.8605121878577355E+00
 SKALA_GPW| Active atom-composite electrons   6.9999999967383104E+00
 SKALA_GPW| Active atom-composite density range  -3.4913542522865220E-10   1.6307622245797457E-01
 SKALA_GPW| Active atom-composite tau range  -2.5196397933647675E-08   3.3802904736410766E-01
 SKALA_GPW| Active atom-composite tau integral   5.5855064474056428E+00
 SKALA_GPW| Active atom-composite max gradient   2.9355717151021865E-01
    33 OT DIIS     0.10E+00   39.1     0.00000008       -14.9244385308 -6.29E-10

  *** SCF run converged in    33 steps ***


  Electronic density on regular grids:         -7.0000000000       -0.0000000000
  Core density on regular grids:                7.0000000000       -0.0000000000
  Total charge density on r-space grids:       -0.0000000000
  Total charge density g-space grids:          -0.0000000000

  Overlap energy of the core charge distribution:               0.00000000000000
  Self energy of the core charge distribution:                -33.70167641876257
  Core Hamiltonian energy:                                      7.65994046476211
  Hartree energy:                                              13.97780961100888
  Exchange-correlation energy:                                  0.00000000000000

  GAPW_XC| Exc from hard and soft atomic rho1:                 -2.86051218785774

  Total energy:                                               -14.92443853084931

  outer SCF iter =    1 RMS gradient =   0.78E-07 energy =        -14.9244385308
  outer SCF loop converged in   1 iterations or   33 steps


  Integrated spin density:                                          1.0000000000
  Integrated absolute spin density:                                 1.1174834035
  Ideal and single determinant S**2 :                    0.750000       0.757725

 !-----------------------------------------------------------------------------!
                     Mulliken Population Analysis

 #  Atom  Element  Kind  Atomic population (alpha,beta) Net charge  Spin moment
       1     Cl       1         4.000000     3.000000    -0.000000     1.000000
 # Total charge and spin        4.000000     3.000000    -0.000000     1.000000

 !-----------------------------------------------------------------------------!

 !-----------------------------------------------------------------------------!
                           Hirshfeld Charges

  #Atom  Element  Kind  Ref Charge     Population       Spin moment  Net charge
      1       Cl     1       7.000    4.000   3.000            1.000      0.000

  Total Charge                                                            0.000
 !-----------------------------------------------------------------------------!

 ENERGY| Total FORCE_EVAL ( QS ) energy [hartree]            -14.924438530849308

 -------------------------------------------------------------------------------
 -                                                                             -
 -                                DBCSR STATISTICS                             -
 -                                                                             -
 -------------------------------------------------------------------------------
 COUNTER                                    TOTAL       BLAS       SMM       ACC
 flops     3 x     3 x     3                16092     100.0%      0.0%      0.0%     
 flops     4 x     4 x     4                44800     100.0%      0.0%      0.0%     
 flops     3 x     3 x    29                69426     100.0%      0.0%      0.0%     
 flops    29 x     3 x     3                86652     100.0%      0.0%      0.0%     
 flops     4 x     4 x    29               123424     100.0%      0.0%      0.0%     
 flops    29 x     4 x     4               154048     100.0%      0.0%      0.0%     
 flops    29 x    29 x     3               171564     100.0%      0.0%      0.0%     
 flops    29 x    29 x     4               228752     100.0%      0.0%      0.0%     
 flops    29 x     3 x    29               731670     100.0%      0.0%      0.0%     
 flops    29 x     4 x    29               968832     100.0%      0.0%      0.0%     
 flops inhomo. stacks                           0       0.0%      0.0%      0.0%
 flops total                         2.595260E+06     100.0%      0.0%      0.0%
 flops max/rank                      2.595260E+06     100.0%      0.0%      0.0%
 matmuls inhomo. stacks                         0       0.0%      0.0%      0.0%
 matmuls total                               1603     100.0%      0.0%      0.0%
 number of processed stacks                  1603     100.0%      0.0%      0.0%
 average stack size                                     1.0       0.0       0.0
 marketing flops                     2.596710E+06
 -------------------------------------------------------------------------------
 # multiplications                           1605
 max memory usage/rank              32.806011E+09
 # max total images/rank                        1
 # max 3D layers                                1
 # MPI messages exchanged                       0
 -------------------------------------------------------------------------------
 -                                                                             -
 -                      DBCSR MESSAGE PASSING PERFORMANCE                      -
 -                                                                             -
 -------------------------------------------------------------------------------
 ROUTINE             CALLS      AVE VOLUME [Bytes]
 MP_Bcast               11                     12.
 MP_Allreduce         7756                      8.
 MP_Alltoall          5172                    128.
 MP_ISend             6412                     20.
 MP_IRecv             6412                     20.
 -------------------------------------------------------------------------------

 -------------------------------------------------------------------------------
 -                                                                             -
 -                                GRID STATISTICS                              -
 -                                                                             -
 -------------------------------------------------------------------------------
 LP    KERNEL             BACKEND                              COUNT     PERCENT
 6     collocate ortho    CPU                                   2176      33.80%
 6     integrate ortho    CPU                                   2112      32.81%
 8     collocate ortho    CPU                                   1088      16.90%
 8     integrate ortho    CPU                                   1056      16.41%
 0     collocate general  CPU                                      3       0.05%
 0     integrate general  CPU                                      2       0.03%
 -------------------------------------------------------------------------------

 -------------------------------------------------------------------------------
 -                                                                             -
 -                          OFFLOAD MEMPOOL STATISTICS                         -
 -                                                                             -
 -------------------------------------------------------------------------------
 Memory consumption                Number of allocations  Used [MiB]  Size [MiB]
 Host                                                  9         306    90226682
 -------------------------------------------------------------------------------

 MEMORY| Estimated peak process memory [MiB]                               20620

 -------------------------------------------------------------------------------
 ----                             MULTIGRID INFO                            ----
 -------------------------------------------------------------------------------
 count for grid        1:           2442          cutoff [a.u.]          200.00
 count for grid        2:           2939          cutoff [a.u.]           66.67
 count for grid        3:           1266          cutoff [a.u.]           22.22
 count for grid        4:             45          cutoff [a.u.]            7.41
 count for grid        5:              0          cutoff [a.u.]            2.47
 total gridlevel count  :           6692

 -------------------------------------------------------------------------------
 -                                                                             -
 -                         MESSAGE PASSING PERFORMANCE                         -
 -                                                                             -
 -------------------------------------------------------------------------------

 ROUTINE             CALLS      AVE VOLUME [Bytes]
 MP_Group               38
 MP_Bcast              482                  19978.
 MP_Allreduce         3433               50473945.
 MP_Sync                47
 MP_comm_split          42
 -------------------------------------------------------------------------------


 -------------------------------------------------------------------------------
 -                                                                             -
 -                           R E F E R E N C E S                               -
 -                                                                             -
 -------------------------------------------------------------------------------
 
 CP2K version 2026.2 (Development Version), the CP2K developers group (2026).
 CP2K is freely available from https://www.cp2k.org/ .
 
 M. Iannuzzi, J. Wilhelm, F. Stein, A. Bussy, H. Elgabarty, D. Golze, A. Hehn, 
 M. Graml, S. Marek, B. Sertcan Gökmen, C. Schran, H. Forbert, R. Z. 
 Khaliullin, A. Kozhevnikov, M. Taillefumier, R. Meli, V. V. Rybkin, M. Brehm, 
 R. Schade, O. Schütt, J. V. Pototschnig, H. Mirhosseini, A. Knüpfer, D. Marx, 
 M. Krack, J. Hutter, T. D. Kühne.
 J. Phys. Chem. B 130, 1237-1310 (2026).
 The CP2K Program Package Made Simple.
 https://doi.org/10.1021/acs.jpcb.5c05851

 L. Wittmann, I. Gordiy, M. Friede, B. Helmich-Paris, S. Grimme, A. Hansen, M. 
 Bursch.
 Phys. Chem. Chem. Phys. 26, 21379-21394 (2024).
 Extension of the D3 and D4 London dispersion corrections to the full actinides 
 series.
 https://doi.org/10.1039/d4cp01514b

 T. D. Kühne, M. Iannuzzi, M. Del Ben, V. V. Rybkin, P. Seewald, F. Stein, T. 
 Laino, R. Z. Khaliullin, O. Schütt, F. Schiffmann, D. Golze, J. Wilhelm, S. 
 Chulkov, M. H. Bani-Hashemian, V. Weber, U. Borstnik, M. Taillefumier, A. S. 
 Jakobovits, A. Lazzaro, H. Pabst, T. Müller, R. Schade, M. Guidon, S. 
 Andermatt, N. Holmberg, G. K. Schenter, A. Hehn, A. Bussy, F. Belleflamme, G. 
 Tabacchi, A. Glöß, M. Lass, I. Bethune, C. J. Mundy, C. Plessl, M. Watkins, 
 J. VandeVondele, M. Krack, J. Hutter.
 J. Chem. Phys. 152, 194103 (2020).
 CP2K: An electronic structure and molecular dynamics software package - 
 Quickstep: Efficient and accurate electronic structure calculations.
 https://doi.org/10.1063/5.0007045

 L. Goerigk, A. Hansen, C. Bauer, S. Ehrlich, A. Najibi, S. Grimme.
 Phys. Chem. Chem. Phys. 19, 32184-32215 (2017).
 A look at the density functional theory zoo with the advanced GMTKN55 database 
 for general main group thermochemistry, kinetics and noncovalent interactions.
 https://doi.org/10.1039/C7CP04913G

 O. Schuett, P. Messmer, J. Hutter, J. VandeVondele.
 Electronic Structure Calculations on Graphics Processing Units, 173-190 (2016).
 GPU-Accelerated Sparse Matrix-Matrix Multiplication for Linear Scaling Density 
 Functional Theory.
 https://doi.org/10.1002/9781118670712.ch8

 U. Borstnik, J. VandeVondele, V. Weber, J. Hutter.
 Parallel Comput. 40, 47-58 (2014).
 Sparse matrix multiplication: The distributed block-compressed sparse row 
 library.
 https://doi.org/10.1016/j.parco.2014.03.012

 S. Grimme, S. Ehrlich, L. Goerigk.
 J. Comput. Chem. 32, 1456 (2011).
 Effect of the damping function in dispersion corrected density functional 
 theory.
 https://doi.org/10.1002/jcc.21759

 S. Grimme, J. Antony, S. Ehrlich, H. Krieg.
 J. Chem. Phys. 132, 154104 (2010).
 A consistent and accurate ab initio parametrization of density functional 
 dispersion correction (DFT-D) for the 94 elements H-Pu.
 https://doi.org/10.1063/1.3382344

 J. VandeVondele, J. Hutter.
 J. Chem. Phys. 127, 114105 (2007).
 Gaussian basis sets for accurate calculations on molecular systems in gas and 
 condensed phases.
 https://doi.org/10.1063/1.2770708

 M. Krack.
 Theor. Chem. Acc. 114, 145-152 (2005).
 Pseudopotentials for H to Kr optimized for gradient-corrected 
 exchange-correlation functionals.
 https://doi.org/10.1007/s00214-005-0655-y

 M. Frigo, S. G. Johnson.
 Proc. IEEE 93, 216-231 (2005).
 The design and implementation of FFTW3.
 https://doi.org/10.1109/JPROC.2004.840301

 J. VandeVondele, J. Hutter.
 J. Chem. Phys. 118, 4365-4369 (2003).
 An efficient orbital transformation method for electronic structure 
 calculations.
 https://doi.org/10.1063/1.1543154

 C. Hartwigsen, S. Goedecker, J. Hutter.
 Phys. Rev. B 58, 3641-3662 (1998).
 Relativistic separable dual-space Gaussian pseudopotentials from H to Rn.
 https://doi.org/10.1103/PhysRevB.58.3641

 S. Goedecker, M. Teter, J. Hutter.
 Phys. Rev. B 54, 1703-1710 (1996).
 Separable dual-space Gaussian pseudopotentials.
 https://doi.org/10.1103/PhysRevB.54.1703


 -------------------------------------------------------------------------------
 -                                                                             -
 -                                T I M I N G                                  -
 -                                                                             -
 -------------------------------------------------------------------------------
 SUBROUTINE                       CALLS  ASD         SELF TIME        TOTAL TIME
                                MAXIMUM       AVERAGE  MAXIMUM  AVERAGE  MAXIMUM
 CP2K                                 1  1.0    0.077    0.077 1624.202 1624.202
 qs_energies                          1  2.0    0.000    0.000 1613.876 1613.876
 scf_env_do_scf                       1  3.0    0.000    0.000 1590.153 1590.153
 scf_env_do_scf_inner_loop           33  4.0    0.004    0.004 1556.009 1556.009
 qs_ks_update_qs_env                 34  5.0    0.000    0.000 1155.283 1155.283
 rebuild_ks_matrix                   33  6.0    0.000    0.000 1155.279 1155.279
 qs_ks_build_kohn_sham_matrix        33  7.0    0.010    0.010 1155.279 1155.279
 fft_wrap_pw1pw2                   2710  9.5    0.073    0.073  962.306  962.306
 fft_wrap_pw1pw2_200               1102 10.6   71.816   71.816  904.415  904.415
 calculate_vxc_atom                  33  8.0  329.162  329.162  874.030  874.030
 fft3d_s                           2711 11.5  563.465  563.465  563.485  563.485
 qs_rho_update_rho_low               34  5.0    0.003    0.003  453.805  453.805
 calculate_rho_elec                 204  6.0   17.807   17.807  453.726  453.726
 density_rs2pw                      204  7.0    0.022    0.022  392.177  392.177
 xc_pw_derive                       396  9.5    0.008    0.008  339.911  339.911
 xc_pw_divergence                    66  9.0    0.004    0.004  240.675  240.675
 sum_up_and_integrate                33  8.0    0.003    0.003  233.010  233.010
 integrate_v_rspace                 198  9.0    0.033    0.033  230.567  230.567
 potential_pw2rs                    198 10.0    1.909    1.909  229.373  229.373
 pw_gather_s                       1417 10.8  187.273  187.273  187.273  187.273
 pw_scatter_s                      1293 12.2  100.423  100.423  100.423  100.423
 fft_wrap_pw1pw2_70                 402 10.5    5.410    5.410   49.547   49.547
 grid_collocate_task_list           204  7.0   43.742   43.742   43.742   43.742
 skala_atom_torch_backward           33  9.0   42.080   42.080   42.080   42.080
 calc_tau_atom                       99  9.0   36.433   36.433   36.433   36.433
 init_scf_loop                        1  4.0    0.000    0.000   34.143   34.143
 -------------------------------------------------------------------------------

 The number of warnings for this run is : 0
 
 -------------------------------------------------------------------------------
  **** **** ******  **  PROGRAM ENDED AT                 2026-08-26 23:50:28.852
 ***** ** ***  *** **   PROGRAM RAN ON                                     terok
 **    ****   ******    PROGRAM RAN BY                                  kuehne88
 ***** **    ** ** **   PROGRAM PROCESS ID                               1387511
  **** **  *******  **  PROGRAM STOPPED IN /home/kuehne88/work/native-skala-tero
                                           k/diet-production-p25/gapwxc-gth-one-
                                           center/0281f91ab5c4e8292ef61cb99f55e1
                                           efc9cb90d6
