 DBCSR| CPU Multiplication driver                                           BLAS (U)
 DBCSR| Multrec recursion limit                                              512 (U)
 DBCSR| Multiplication stack size                                           1000 (D)
 DBCSR| Maximum elements for images                                    UNLIMITED (U)
 DBCSR| Multiplicative factor virtual images                                   1 (U)
 DBCSR| Use multiplication densification                                       T (D)
 DBCSR| Multiplication size stacks                                             3 (U)
 DBCSR| Use memory pool for CPU allocation                                     F (U)
 DBCSR| Number of 3D layers                                               SINGLE (U)
 DBCSR| Use MPI memory allocation                                              F (U)
 DBCSR| Use RMA algorithm                                                      F (U)
 DBCSR| Use Communication thread                                               T (U)
 DBCSR| Communication thread load                                             45 (D)
 DBCSR| MPI: My process id                                                     0
 DBCSR| MPI: Number of processes                                               1
 DBCSR| OMP: Current number of threads                                        12
 DBCSR| OMP: Max number of threads                                            12
 DBCSR| Split modifier for TAS multiplication algorithm                  1.0E+00 (U)


  **** **** ******  **  PROGRAM STARTED AT               2026-08-25 02:44:11.955
 ***** ** ***  *** **   PROGRAM STARTED ON                                 terok
 **    ****   ******    PROGRAM STARTED BY                              kuehne88
 ***** **    ** ** **   PROGRAM PROCESS ID                               2441564
  **** **  *******  **  PROGRAM STARTED IN /home/kuehne88/work/native-skala-tero
                                           k/diet-production-p25/gapwxc-gth-one-
                                           center/435dcfec2baff1096f952206ad475f
                                           6f9b4242b2

 CP2K| version string:                 CP2K version 2026.2 (Development Version)
 CP2K| source code revision number:                                   c1bff3eeb8
 CP2K| cp2kflags: omp fftw3 gauxc gauxc_mpi gauxc_onedft gauxc_host parallel sca
 CP2K|            lapack mpi_f08 openblas libtorch libtorch_cuda
 CP2K| is freely available from                            https://www.cp2k.org/
 CP2K| Program compiled at                                   2026-08-24 23:53:18
 CP2K| Program compiled on                                                 terok
 CP2K| Program compiled for                                               x86_64
 CP2K| Data directory path      /home/kuehne88/work/native-skala-terok/cp2k/data
 CP2K| Input file name                                             input.cpu.inp

 GLOBAL| Force Environment number                                              1
 GLOBAL| Basis set file name                             BASIS_MOLOPT_UZH_2026.2
 GLOBAL| Potential file name                                POTENTIAL_UZH_2026.2
 GLOBAL| MM Potential file name                                     MM_POTENTIAL
 GLOBAL| Coordinate file name                                      __STD_INPUT__
 GLOBAL| Method name                                                        CP2K
 GLOBAL| Project name                                435dcfec2baf_gapwxc_gth_paw
 GLOBAL| Run type                                                         ENERGY
 GLOBAL| FFT library                                                       FFTW3
 GLOBAL| Diagonalization library                                       ScaLAPACK
 GLOBAL| Cholesky decomposition library                                ScaLAPACK
 GLOBAL| DGEMM library                                                      BLAS
 GLOBAL| Direct generalized diagonalization requested                          F
 GLOBAL| Orthonormality check for eigenvectors                          DISABLED
 GLOBAL| Matrix multiplication library                                 ScaLAPACK
 GLOBAL| All-to-all communication in single precision                          F
 GLOBAL| FFTs using library dependent lengths                                  F
 GLOBAL| Grid backend                                                       AUTO
 GLOBAL| Global print level                                               MEDIUM
 GLOBAL| MPI I/O enabled                                                       T
 GLOBAL| Total number of message passing processes                             1
 GLOBAL| Number of distributed systems (nodes)                                 1
 GLOBAL| Number of threads for this process                                   12
 GLOBAL| This output is from process                                           0
 GLOBAL| OpenMP stack size per thread (OMP_STACKSIZE)                       512M
 GLOBAL| CPU model name                                       AMD EPYC Processor

 MEMORY| system memory details [Kb]
 MEMORY|                        rank 0           min           max       average
 MEMORY| MemTotal            528104844     528104844     528104844     528104844
 MEMORY| MemFree             381165804     381165804     381165804     381165804
 MEMORY| Buffers                   672           672           672           672
 MEMORY| Cached               79943844      79943844      79943844      79943844
 MEMORY| Slab                  6297732       6297732       6297732       6297732
 MEMORY| SReclaimable          4388920       4388920       4388920       4388920
 MEMORY| MemLikelyFree       465499240     465499240     465499240     465499240


 *** Fundamental physical constants (SI units) ***

 *** Literature: B. J. Mohr and B. N. Taylor,
 ***             CODATA recommended values of the fundamental physical
 ***             constants: 2006, Web Version 5.1
 ***             http://physics.nist.gov/constants

 Speed of light in vacuum [m/s]                             2.99792458000000E+08
 Magnetic constant or permeability of vacuum [N/A**2]       1.25663706143592E-06
 Electric constant or permittivity of vacuum [F/m]          8.85418781762039E-12
 Planck constant (h) [J*s]                                  6.62606896000000E-34
 Planck constant (h-bar) [J*s]                              1.05457162825177E-34
 Elementary charge [C]                                      1.60217648700000E-19
 Electron mass [kg]                                         9.10938215000000E-31
 Electron g factor [ ]                                     -2.00231930436220E+00
 Proton mass [kg]                                           1.67262163700000E-27
 Fine-structure constant                                    7.29735253760000E-03
 Rydberg constant [1/m]                                     1.09737315685270E+07
 Avogadro constant [1/mol]                                  6.02214179000000E+23
 Boltzmann constant [J/K]                                   1.38065040000000E-23
 Atomic mass unit [kg]                                      1.66053878200000E-27
 Bohr radius [m]                                            5.29177208590000E-11

 *** Conversion factors ***

 [u] -> [a.u.]                                              1.82288848426455E+03
 [Angstrom] -> [Bohr] = [a.u.]                              1.88972613288564E+00
 [a.u.] = [Bohr] -> [Angstrom]                              5.29177208590000E-01
 [a.u.] -> [s]                                              2.41888432650478E-17
 [a.u.] -> [fs]                                             2.41888432650478E-02
 [a.u.] -> [J]                                              4.35974393937059E-18
 [a.u.] -> [N]                                              8.23872205491840E-08
 [a.u.] -> [K]                                              3.15774647902944E+05
 [a.u.] -> [kJ/mol]                                         2.62549961709828E+03
 [a.u.] -> [kcal/mol]                                       6.27509468713739E+02
 [a.u.] -> [Pa]                                             2.94210107994716E+13
 [a.u.] -> [bar]                                            2.94210107994716E+08
 [a.u.] -> [atm]                                            2.90362800883016E+08
 [a.u.] -> [eV]                                             2.72113838565563E+01
 [a.u.] -> [Hz]                                             6.57968392072181E+15
 [a.u.] -> [1/cm] (wave numbers)                            2.19474631370540E+05
 [a.u./Bohr**2] -> [1/cm]                                   5.14048714338585E+03
 

 CELL| Volume [angstrom^3]:                                         16875.000000
 CELL| Vector a [angstrom]:      25.000     0.000     0.000   |a| =    25.000000
 CELL| Vector b [angstrom]:       0.000    25.000     0.000   |b| =    25.000000
 CELL| Vector c [angstrom]:       0.000     0.000    27.000   |c| =    27.000000
 CELL| Angle (b,c), alpha [degree]:                                    90.000000
 CELL| Angle (a,c), beta  [degree]:                                    90.000000
 CELL| Angle (a,b), gamma [degree]:                                    90.000000
 CELL| Numerically orthorhombic:                                             YES
 CELL| Periodicity                                                          NONE

 CELL_REF| Volume [angstrom^3]:                                     16875.000000
 CELL_REF| Vector a [angstrom    25.000     0.000     0.000   |a| =    25.000000
 CELL_REF| Vector b [angstrom     0.000    25.000     0.000   |b| =    25.000000
 CELL_REF| Vector c [angstrom     0.000     0.000    27.000   |c| =    27.000000
 CELL_REF| Angle (b,c), alpha [degree]:                                90.000000
 CELL_REF| Angle (a,c), beta  [degree]:                                90.000000
 CELL_REF| Angle (a,b), gamma [degree]:                                90.000000
 CELL_REF| Numerically orthorhombic:                                         YES
 CELL_REF| Periodicity                                                      NONE

 GENERATE|  Preliminary Number of Bonds generated:                             0
 GENERATE|  Achieved consistency in connectivity generation.

 *******************************************************************************
 *******************************************************************************
 **                                                                           **
 **     #####                         ##              ##                      **
 **    ##   ##            ##          ##              ##                      **
 **   ##     ##                       ##            ######                    **
 **   ##     ##  ##   ##  ##   #####  ##  ##   ####   ##    #####    #####    **
 **   ##     ##  ##   ##  ##  ##      ## ##   ##      ##   ##   ##  ##   ##   **
 **   ##  ## ##  ##   ##  ##  ##      ####     ###    ##   ######   ######    **
 **    ##  ###   ##   ##  ##  ##      ## ##      ##   ##   ##       ##        **
 **     #######   #####   ##   #####  ##  ##  ####    ##    #####   ##        **
 **           ##                                                    ##        **
 **                                                                           **
 **                                                ... make the atoms dance   **
 **                                                                           **
 **            Copyright (C) by CP2K developers group (2000-2026)             **
 **                      J. Chem. Phys. 152, 194103 (2020)                    **
 **                                                                           **
 *******************************************************************************

 DFT| Spin restricted Kohn-Sham (RKS) calculation                            RKS
 DFT| Multiplicity                                                             1
 DFT| Number of spin states                                                    1
 DFT| Charge                                                                   0
 DFT| Self-interaction correction (SIC)                                       NO
 DFT| Cutoffs: density                                              1.000000E-10
 DFT|          gradient                                             1.000000E-10
 DFT|          tau                                                  1.000000E-10
 DFT|          cutoff_smoothing_range                               0.000000E+00
 DFT| XC density smoothing                                                  NONE
 DFT| XC derivatives                                                          PW

 FUNCTIONAL| GAUXC:
 FUNCTIONAL| Functional computed by GauXC Skala model SKALA                     

 vdW POTENTIAL|                                                   Pair Potential
 vdW POTENTIAL|          DFT-D3 (Version 3.1)
 vdW POTENTIAL|          Potential Form: S. Grimme et al, JCP 132: 154104 (2010)
 vdW POTENTIAL|          BJ Damping: S. Grimme et al, JCC 32: 1456 (2011)
 vdW POTENTIAL|          Cutoff Radius [Bohr]:                             37.79
 vdW POTENTIAL|          s6 Scaling Factor:                               1.0000
 vdW POTENTIAL|          a1 Damping Factor:                               0.3981
 vdW POTENTIAL|          s8 Scaling Factor:                               1.9889
 vdW POTENTIAL|          a2 Damping Factor:                               4.4211
 vdW POTENTIAL|          Cutoff for CN calculation:                   0.1000E-05

 QS| Method:                                                             GAPW_XC
 QS| Density plane wave grid type                        NON-SPHERICAL FULLSPACE
 QS| Number of grid levels:                                                    5
 QS| Density cutoff [a.u.]:                                                200.0
 QS| Multi grid cutoff [a.u.]: 1) grid level                               200.0
 QS|                           2) grid level                                66.7
 QS|                           3) grid level                                22.2
 QS|                           4) grid level                                 7.4
 QS|                           5) grid level                                 2.5
 QS| Grid level progression factor:                                          3.0
 QS| Relative density cutoff [a.u.]:                                        30.0
 QS| Interaction thresholds: eps_pgf_orb:                                1.0E-06
 QS|                         eps_filter_matrix:                          0.0E+00
 QS|                         eps_core_charge:                            1.0E-14
 QS|                         eps_rho_gspace:                             1.0E-12
 QS|                         eps_rho_rspace:                             1.0E-12
 QS|                         eps_gvg_rspace:                             1.0E-06
 QS|                         eps_ppl:                                    1.0E-02
 QS|                         eps_ppnl:                                   1.0E-08
 QS| GAPW_XC|      One center basis extended with primitives (small:s)
 QS| GAPW_XC|                eps_fit:                                    1.0E-04
 QS| GAPW_XC|                eps_iso:                                    1.0E-12
 QS| GAPW_XC|                eps_svd:                                    1.0E-08
 QS| GAPW_XC|atom-r-grid: quadrature:                 GC_LOG                        
 QS| GAPW_XC|   atom-s-grid:  max l :                                          6


 ATOMIC KIND INFORMATION

  1. Atomic kind: Cl                                    Number of atoms:       1

     Orbital Basis Set                                   TZV2P-MOLOPT-PBE-GTH-q7

       Number of orbital shell sets:                                           1
       Number of orbital shells:                                               9
       Number of primitive Cartesian functions:                                4
       Number of Cartesian basis functions:                                   34
       Number of spherical basis functions:                                   29
       Norm type:                                                              2

       Normalised Cartesian orbitals:

                        Set   Shell   Orbital            Exponent    Coefficient

                          1       1    2s                1.998248       0.474127
                                                         1.503631      -0.298602
                                                         0.406509      -0.170002
                                                         0.128538      -0.091923

                          1       2    3s                1.998248       0.878043
                                                         1.503631      -0.090105
                                                         0.406509      -0.545023
                                                         0.128538       0.260422

                          1       3    4s                1.998248       0.030172
                                                         1.503631      -1.270839
                                                         0.406509       0.168869
                                                         0.128538       0.050189

                          1       4    3px               1.998248       1.035211
                                                         1.503631      -1.044903
                                                         0.406509      -0.274741
                                                         0.128538      -0.041581
                          1       4    3py               1.998248       1.035211
                                                         1.503631      -1.044903
                                                         0.406509      -0.274741
                                                         0.128538      -0.041581
                          1       4    3pz               1.998248       1.035211
                                                         1.503631      -1.044903
                                                         0.406509      -0.274741
                                                         0.128538      -0.041581

                          1       5    4px               1.998248       0.846287
                                                         1.503631      -0.665007
                                                         0.406509      -0.214639
                                                         0.128538       0.137550
                          1       5    4py               1.998248       0.846287
                                                         1.503631      -0.665007
                                                         0.406509      -0.214639
                                                         0.128538       0.137550
                          1       5    4pz               1.998248       0.846287
                                                         1.503631      -0.665007
                                                         0.406509      -0.214639
                                                         0.128538       0.137550

                          1       6    5px               1.998248      -1.228895
                                                         1.503631      -1.929331
                                                         0.406509       0.181784
                                                         0.128538       0.003953
                          1       6    5py               1.998248      -1.228895
                                                         1.503631      -1.929331
                                                         0.406509       0.181784
                                                         0.128538       0.003953
                          1       6    5pz               1.998248      -1.228895
                                                         1.503631      -1.929331
                                                         0.406509       0.181784
                                                         0.128538       0.003953

                          1       7    4dx2              1.998248       0.400992
                                                         1.503631       0.768662
                                                         0.406509       0.256895
                                                         0.128538       0.005608
                          1       7    4dxy              1.998248       0.694538
                                                         1.503631       1.331361
                                                         0.406509       0.444955
                                                         0.128538       0.009714
                          1       7    4dxz              1.998248       0.694538
                                                         1.503631       1.331361
                                                         0.406509       0.444955
                                                         0.128538       0.009714
                          1       7    4dy2              1.998248       0.400992
                                                         1.503631       0.768662
                                                         0.406509       0.256895
                                                         0.128538       0.005608
                          1       7    4dyz              1.998248       0.694538
                                                         1.503631       1.331361
                                                         0.406509       0.444955
                                                         0.128538       0.009714
                          1       7    4dz2              1.998248       0.400992
                                                         1.503631       0.768662
                                                         0.406509       0.256895
                                                         0.128538       0.005608

                          1       8    5dx2              1.998248      -1.963226
                                                         1.503631       5.042957
                                                         0.406509      -0.158524
                                                         0.128538       0.012321
                          1       8    5dxy              1.998248      -3.400407
                                                         1.503631       8.734658
                                                         0.406509      -0.274571
                                                         0.128538       0.021341
                          1       8    5dxz              1.998248      -3.400407
                                                         1.503631       8.734658
                                                         0.406509      -0.274571
                                                         0.128538       0.021341
                          1       8    5dy2              1.998248      -1.963226
                                                         1.503631       5.042957
                                                         0.406509      -0.158524
                                                         0.128538       0.012321
                          1       8    5dyz              1.998248      -3.400407
                                                         1.503631       8.734658
                                                         0.406509      -0.274571
                                                         0.128538       0.021341
                          1       8    5dz2              1.998248      -1.963226
                                                         1.503631       5.042957
                                                         0.406509      -0.158524
                                                         0.128538       0.012321

                          1       9    5fx3              1.998248      -0.939013
                                                         1.503631       1.405782
                                                         0.406509       0.163556
                                                         0.128538       0.000428
                          1       9    5fx2y             1.998248      -2.099697
                                                         1.503631       3.143425
                                                         0.406509       0.365723
                                                         0.128538       0.000958
                          1       9    5fx2z             1.998248      -2.099697
                                                         1.503631       3.143425
                                                         0.406509       0.365723
                                                         0.128538       0.000958
                          1       9    5fxy2             1.998248      -2.099697
                                                         1.503631       3.143425
                                                         0.406509       0.365723
                                                         0.128538       0.000958
                          1       9    5fxyz             1.998248      -3.636782
                                                         1.503631       5.444571
                                                         0.406509       0.633451
                                                         0.128538       0.001659
                          1       9    5fxz2             1.998248      -2.099697
                                                         1.503631       3.143425
                                                         0.406509       0.365723
                                                         0.128538       0.000958
                          1       9    5fy3              1.998248      -0.939013
                                                         1.503631       1.405782
                                                         0.406509       0.163556
                                                         0.128538       0.000428
                          1       9    5fy2z             1.998248      -2.099697
                                                         1.503631       3.143425
                                                         0.406509       0.365723
                                                         0.128538       0.000958
                          1       9    5fyz2             1.998248      -2.099697
                                                         1.503631       3.143425
                                                         0.406509       0.365723
                                                         0.128538       0.000958
                          1       9    5fz3              1.998248      -0.939013
                                                         1.503631       1.405782
                                                         0.406509       0.163556
                                                         0.128538       0.000428

       Atomic covalent radius [Angstrom]:                                  0.990

       Atomic van der Waals radius [Angstrom]:                             1.750

     The atoms of this atomic kind are PAW atoms (GAPW):
       Hard Gaussian function radius:                                      1.600
       Rho0 radius:                                                        1.600
       Maximum GTO radius used for PAW projector construction:            24.566

     GAPW Soft Basis Set                            TZV2P-MOLOPT-PBE-GTH-q7_soft

       Number of orbital shell sets:                                           1
       Number of orbital shells:                                               9
       Number of primitive Cartesian functions:                                4
       Number of Cartesian basis functions:                                   34
       Number of spherical basis functions:                                   29
       Norm type:                                                              2

       Normalised Cartesian orbitals:

                        Set   Shell   Orbital            Exponent    Coefficient

                          1       1    2s                1.998248       0.474127
                                                         1.503631      -0.298602
                                                         0.406509      -0.170002
                                                         0.128538      -0.091923

                          1       2    3s                1.998248       0.878043
                                                         1.503631      -0.090105
                                                         0.406509      -0.545023
                                                         0.128538       0.260422

                          1       3    4s                1.998248       0.030172
                                                         1.503631      -1.270839
                                                         0.406509       0.168869
                                                         0.128538       0.050189

                          1       4    3px               1.998248       1.035211
                                                         1.503631      -1.044903
                                                         0.406509      -0.274741
                                                         0.128538      -0.041581
                          1       4    3py               1.998248       1.035211
                                                         1.503631      -1.044903
                                                         0.406509      -0.274741
                                                         0.128538      -0.041581
                          1       4    3pz               1.998248       1.035211
                                                         1.503631      -1.044903
                                                         0.406509      -0.274741
                                                         0.128538      -0.041581

                          1       5    4px               1.998248       0.846287
                                                         1.503631      -0.665007
                                                         0.406509      -0.214639
                                                         0.128538       0.137550
                          1       5    4py               1.998248       0.846287
                                                         1.503631      -0.665007
                                                         0.406509      -0.214639
                                                         0.128538       0.137550
                          1       5    4pz               1.998248       0.846287
                                                         1.503631      -0.665007
                                                         0.406509      -0.214639
                                                         0.128538       0.137550

                          1       6    5px               1.998248      -1.228895
                                                         1.503631      -1.929331
                                                         0.406509       0.181784
                                                         0.128538       0.003953
                          1       6    5py               1.998248      -1.228895
                                                         1.503631      -1.929331
                                                         0.406509       0.181784
                                                         0.128538       0.003953
                          1       6    5pz               1.998248      -1.228895
                                                         1.503631      -1.929331
                                                         0.406509       0.181784
                                                         0.128538       0.003953

                          1       7    4dx2              1.998248       0.400992
                                                         1.503631       0.768662
                                                         0.406509       0.256895
                                                         0.128538       0.005608
                          1       7    4dxy              1.998248       0.694538
                                                         1.503631       1.331361
                                                         0.406509       0.444955
                                                         0.128538       0.009714
                          1       7    4dxz              1.998248       0.694538
                                                         1.503631       1.331361
                                                         0.406509       0.444955
                                                         0.128538       0.009714
                          1       7    4dy2              1.998248       0.400992
                                                         1.503631       0.768662
                                                         0.406509       0.256895
                                                         0.128538       0.005608
                          1       7    4dyz              1.998248       0.694538
                                                         1.503631       1.331361
                                                         0.406509       0.444955
                                                         0.128538       0.009714
                          1       7    4dz2              1.998248       0.400992
                                                         1.503631       0.768662
                                                         0.406509       0.256895
                                                         0.128538       0.005608

                          1       8    5dx2              1.998248      -1.963226
                                                         1.503631       5.042957
                                                         0.406509      -0.158524
                                                         0.128538       0.012321
                          1       8    5dxy              1.998248      -3.400407
                                                         1.503631       8.734658
                                                         0.406509      -0.274571
                                                         0.128538       0.021341
                          1       8    5dxz              1.998248      -3.400407
                                                         1.503631       8.734658
                                                         0.406509      -0.274571
                                                         0.128538       0.021341
                          1       8    5dy2              1.998248      -1.963226
                                                         1.503631       5.042957
                                                         0.406509      -0.158524
                                                         0.128538       0.012321
                          1       8    5dyz              1.998248      -3.400407
                                                         1.503631       8.734658
                                                         0.406509      -0.274571
                                                         0.128538       0.021341
                          1       8    5dz2              1.998248      -1.963226
                                                         1.503631       5.042957
                                                         0.406509      -0.158524
                                                         0.128538       0.012321

                          1       9    5fx3              1.998248      -0.939013
                                                         1.503631       1.405782
                                                         0.406509       0.163556
                                                         0.128538       0.000428
                          1       9    5fx2y             1.998248      -2.099697
                                                         1.503631       3.143425
                                                         0.406509       0.365723
                                                         0.128538       0.000958
                          1       9    5fx2z             1.998248      -2.099697
                                                         1.503631       3.143425
                                                         0.406509       0.365723
                                                         0.128538       0.000958
                          1       9    5fxy2             1.998248      -2.099697
                                                         1.503631       3.143425
                                                         0.406509       0.365723
                                                         0.128538       0.000958
                          1       9    5fxyz             1.998248      -3.636782
                                                         1.503631       5.444571
                                                         0.406509       0.633451
                                                         0.128538       0.001659
                          1       9    5fxz2             1.998248      -2.099697
                                                         1.503631       3.143425
                                                         0.406509       0.365723
                                                         0.128538       0.000958
                          1       9    5fy3              1.998248      -0.939013
                                                         1.503631       1.405782
                                                         0.406509       0.163556
                                                         0.128538       0.000428
                          1       9    5fy2z             1.998248      -2.099697
                                                         1.503631       3.143425
                                                         0.406509       0.365723
                                                         0.128538       0.000958
                          1       9    5fyz2             1.998248      -2.099697
                                                         1.503631       3.143425
                                                         0.406509       0.365723
                                                         0.128538       0.000958
                          1       9    5fz3              1.998248      -0.939013
                                                         1.503631       1.405782
                                                         0.406509       0.163556
                                                         0.128538       0.000428

     GTH Potential information for                                    GTH-PBE-q7

       Description:                       Goedecker-Teter-Hutter pseudopotential
                                           Goedecker et al., PRB 54, 1703 (1996)
                                          Hartwigsen et al., PRB 58, 3641 (1998)
                                                      Krack, TCA 114, 145 (2005)

       Gaussian exponent of the core charge distribution:               2.972287
       Electronic configuration (s p d ...):                       2   5   0   0

       Parameters of the local part of the GTH pseudopotential:

                          rloc        C1          C2          C3          C4
                        0.410147   -6.378521

       Parameters of the non-local part of the GTH pseudopotential:

                   l      r(l)      h(i,j,l)

                   0    0.339553   15.219287   -4.934522
                                   -4.934522    6.370683
                   1    0.378489    4.338598

  2. Atomic kind: H                                     Number of atoms:       1

     Orbital Basis Set                                   TZV2P-MOLOPT-PBE-GTH-q1

       Number of orbital shell sets:                                           1
       Number of orbital shells:                                               6
       Number of primitive Cartesian functions:                                5
       Number of Cartesian basis functions:                                   15
       Number of spherical basis functions:                                   14
       Norm type:                                                              2

       Normalised Cartesian orbitals:

                        Set   Shell   Orbital            Exponent    Coefficient

                          1       1    2s                9.586642       0.069481
                                                         2.202360       0.112147
                                                         0.604094       0.130550
                                                         0.146498       0.088477
                                                         0.139526       0.035929

                          1       2    3s                9.586642      -0.087313
                                                         2.202360      -0.117928
                                                         0.604094      -0.099372
                                                         0.146498      -0.105375
                                                         0.139526       0.287433

                          1       3    4s                9.586642       0.882480
                                                         2.202360       0.096105
                                                         0.604094      -0.739894
                                                         0.146498       0.120904
                                                         0.139526       0.013904

                          1       4    3px               9.586642      -2.186125
                                                         2.202360       1.112625
                                                         0.604094       0.330981
                                                         0.146498       0.087385
                                                         0.139526      -0.016905
                          1       4    3py               9.586642      -2.186125
                                                         2.202360       1.112625
                                                         0.604094       0.330981
                                                         0.146498       0.087385
                                                         0.139526      -0.016905
                          1       4    3pz               9.586642      -2.186125
                                                         2.202360       1.112625
                                                         0.604094       0.330981
                                                         0.146498       0.087385
                                                         0.139526      -0.016905

                          1       5    4px               9.586642       1.866908
                                                         2.202360       0.174551
                                                         0.604094       0.060190
                                                         0.146498       0.014182
                                                         0.139526       0.100545
                          1       5    4py               9.586642       1.866908
                                                         2.202360       0.174551
                                                         0.604094       0.060190
                                                         0.146498       0.014182
                                                         0.139526       0.100545
                          1       5    4pz               9.586642       1.866908
                                                         2.202360       0.174551
                                                         0.604094       0.060190
                                                         0.146498       0.014182
                                                         0.139526       0.100545

                          1       6    4dx2              9.586642       0.111501
                                                         2.202360      -0.020603
                                                         0.604094      -0.012612
                                                         0.146498      -0.000171
                                                         0.139526       0.052995
                          1       6    4dxy              9.586642       0.193125
                                                         2.202360      -0.035686
                                                         0.604094      -0.021844
                                                         0.146498      -0.000296
                                                         0.139526       0.091790
                          1       6    4dxz              9.586642       0.193125
                                                         2.202360      -0.035686
                                                         0.604094      -0.021844
                                                         0.146498      -0.000296
                                                         0.139526       0.091790
                          1       6    4dy2              9.586642       0.111501
                                                         2.202360      -0.020603
                                                         0.604094      -0.012612
                                                         0.146498      -0.000171
                                                         0.139526       0.052995
                          1       6    4dyz              9.586642       0.193125
                                                         2.202360      -0.035686
                                                         0.604094      -0.021844
                                                         0.146498      -0.000296
                                                         0.139526       0.091790
                          1       6    4dz2              9.586642       0.111501
                                                         2.202360      -0.020603
                                                         0.604094      -0.012612
                                                         0.146498      -0.000171
                                                         0.139526       0.052995

       Atomic covalent radius [Angstrom]:                                  0.320

       Atomic van der Waals radius [Angstrom]:                             1.090

     The atoms of this atomic kind are PAW atoms (GAPW):
       Hard Gaussian function radius:                                      1.000
       Rho0 radius:                                                        1.000
       Maximum GTO radius used for PAW projector construction:            24.566

     GAPW Soft Basis Set                            TZV2P-MOLOPT-PBE-GTH-q1_soft

       Number of orbital shell sets:                                           1
       Number of orbital shells:                                               6
       Number of primitive Cartesian functions:                                4
       Number of Cartesian basis functions:                                   15
       Number of spherical basis functions:                                   14
       Norm type:                                                              2

       Normalised Cartesian orbitals:

                        Set   Shell   Orbital            Exponent    Coefficient

                          1       1    2s                2.202360       0.112147
                                                         0.604094       0.130550
                                                         0.146498       0.088477
                                                         0.139526       0.035929

                          1       2    3s                2.202360      -0.117928
                                                         0.604094      -0.099372
                                                         0.146498      -0.105375
                                                         0.139526       0.287433

                          1       3    4s                2.202360       0.096105
                                                         0.604094      -0.739894
                                                         0.146498       0.120904
                                                         0.139526       0.013904

                          1       4    3px               2.202360       1.112625
                                                         0.604094       0.330981
                                                         0.146498       0.087385
                                                         0.139526      -0.016905
                          1       4    3py               2.202360       1.112625
                                                         0.604094       0.330981
                                                         0.146498       0.087385
                                                         0.139526      -0.016905
                          1       4    3pz               2.202360       1.112625
                                                         0.604094       0.330981
                                                         0.146498       0.087385
                                                         0.139526      -0.016905

                          1       5    4px               2.202360       0.174551
                                                         0.604094       0.060190
                                                         0.146498       0.014182
                                                         0.139526       0.100545
                          1       5    4py               2.202360       0.174551
                                                         0.604094       0.060190
                                                         0.146498       0.014182
                                                         0.139526       0.100545
                          1       5    4pz               2.202360       0.174551
                                                         0.604094       0.060190
                                                         0.146498       0.014182
                                                         0.139526       0.100545

                          1       6    4dx2              2.202360      -0.020603
                                                         0.604094      -0.012612
                                                         0.146498      -0.000171
                                                         0.139526       0.052995
                          1       6    4dxy              2.202360      -0.035686
                                                         0.604094      -0.021844
                                                         0.146498      -0.000296
                                                         0.139526       0.091790
                          1       6    4dxz              2.202360      -0.035686
                                                         0.604094      -0.021844
                                                         0.146498      -0.000296
                                                         0.139526       0.091790
                          1       6    4dy2              2.202360      -0.020603
                                                         0.604094      -0.012612
                                                         0.146498      -0.000171
                                                         0.139526       0.052995
                          1       6    4dyz              2.202360      -0.035686
                                                         0.604094      -0.021844
                                                         0.146498      -0.000296
                                                         0.139526       0.091790
                          1       6    4dz2              2.202360      -0.020603
                                                         0.604094      -0.012612
                                                         0.146498      -0.000171
                                                         0.139526       0.052995

     GTH Potential information for                                    GTH-PBE-q1

       Description:                       Goedecker-Teter-Hutter pseudopotential
                                           Goedecker et al., PRB 54, 1703 (1996)
                                          Hartwigsen et al., PRB 58, 3641 (1998)
                                                      Krack, TCA 114, 145 (2005)

       Gaussian exponent of the core charge distribution:              12.426182
       Electronic configuration (s p d ...):                       1   0   0   0

       Parameters of the local part of the GTH pseudopotential:

                          rloc        C1          C2          C3          C4
                        0.200593   -4.178068    0.724409


 MOLECULE KIND INFORMATION


 All atoms are their own molecule, skipping detailed information


 TOTAL NUMBERS AND MAXIMUM NUMBERS

  Total number of            - Atomic kinds:                                   2
                             - Atoms:                                          2
                             - Shell sets:                                     2
                             - Shells:                                        15
                             - Primitive Cartesian functions:                  9
                             - Cartesian basis functions:                     49
                             - Spherical basis functions:                     43

  Maximum angular momentum of- Orbital basis functions:                        3
                             - Local part of the GTH pseudopotential:          2
                             - Non-local part of the GTH pseudopotential:      2


 MODULE QUICKSTEP: ATOMIC COORDINATES IN ANGSTROM

   Atom Kind Element         X             Y             Z       Z(eff)     Mass
      1    1 Cl   17     12.500000     12.500000     12.853370   7.0000  35.4530
      2    2 H     1     12.500000     12.500000     14.146630   1.0000   1.0079



 SCF PARAMETERS         Density guess:                                    ATOMIC
                        --------------------------------------------------------
                        max_scf:                                             200
                        max_scf_history:                                       0
                        max_diis:                                              4
                        --------------------------------------------------------
                        eps_scf:                                        1.00E-07
                        eps_scf_history:                                0.00E+00
                        eps_diis:                                       0.00E+00
                        eps_eigval:                                     1.00E-05
                        --------------------------------------------------------
                        level_shift [a.u.]:                             0.000000
                        --------------------------------------------------------
                        Outer loop SCF in use 
                        No variables optimised in outer loop
                        eps_scf                                         1.00E-07
                        max_scf                                               20
                        No outer loop optimization
                        step_size                                       5.00E-01

 PW_GRID| Information for grid number                                          1
 PW_GRID| Cutoff [a.u.]                                                    200.0
 PW_GRID| spherical cutoff:                                                   NO
 PW_GRID|   Bounds   1           -160     159                Points:         320
 PW_GRID|   Bounds   2           -160     159                Points:         320
 PW_GRID|   Bounds   3           -180     179                Points:         360
 PW_GRID| Volume element (a.u.^3)  0.3089E-02     Volume (a.u.^3)    113878.1461
 PW_GRID| Grid span                                                    FULLSPACE

 PW_GRID| Information for grid number                                          2
 PW_GRID| Number of the reference grid                                         1
 PW_GRID| Cutoff [a.u.]                                                     66.7
 PW_GRID| spherical cutoff:                                                   NO
 PW_GRID|   Bounds   1            -90      89                Points:         180
 PW_GRID|   Bounds   2            -90      89                Points:         180
 PW_GRID|   Bounds   3            -96      95                Points:         192
 PW_GRID| Volume element (a.u.^3)  0.1831E-01     Volume (a.u.^3)    113878.1461
 PW_GRID| Grid span                                                    FULLSPACE

 PW_GRID| Information for grid number                                          3
 PW_GRID| Number of the reference grid                                         1
 PW_GRID| Cutoff [a.u.]                                                     22.2
 PW_GRID| spherical cutoff:                                                   NO
 PW_GRID|   Bounds   1            -54      53                Points:         108
 PW_GRID|   Bounds   2            -54      53                Points:         108
 PW_GRID|   Bounds   3            -60      59                Points:         120
 PW_GRID| Volume element (a.u.^3)  0.8136E-01     Volume (a.u.^3)    113878.1461
 PW_GRID| Grid span                                                    FULLSPACE

 PW_GRID| Information for grid number                                          4
 PW_GRID| Number of the reference grid                                         1
 PW_GRID| Cutoff [a.u.]                                                      7.4
 PW_GRID| spherical cutoff:                                                   NO
 PW_GRID|   Bounds   1            -30      29                Points:          60
 PW_GRID|   Bounds   2            -30      29                Points:          60
 PW_GRID|   Bounds   3            -32      31                Points:          64
 PW_GRID| Volume element (a.u.^3)  0.4943         Volume (a.u.^3)    113878.1461
 PW_GRID| Grid span                                                    FULLSPACE

 PW_GRID| Information for grid number                                          5
 PW_GRID| Number of the reference grid                                         1
 PW_GRID| Cutoff [a.u.]                                                      2.5
 PW_GRID| spherical cutoff:                                                   NO
 PW_GRID|   Bounds   1            -18      17                Points:          36
 PW_GRID|   Bounds   2            -18      17                Points:          36
 PW_GRID|   Bounds   3            -20      19                Points:          40
 PW_GRID| Volume element (a.u.^3)   2.197         Volume (a.u.^3)    113878.1461
 PW_GRID| Grid span                                                    FULLSPACE

 POISSON| Solver                                                        ANALYTIC
 POISSON| Periodicity                                                       NONE

 RS_GRID| Information for grid number                                          1
 RS_GRID|   Bounds   1           -160     159                Points:         320
 RS_GRID|   Bounds   2           -160     159                Points:         320
 RS_GRID|   Bounds   3           -180     179                Points:         360

 RS_GRID| Information for grid number                                          2
 RS_GRID|   Bounds   1            -90      89                Points:         180
 RS_GRID|   Bounds   2            -90      89                Points:         180
 RS_GRID|   Bounds   3            -96      95                Points:         192

 RS_GRID| Information for grid number                                          3
 RS_GRID|   Bounds   1            -54      53                Points:         108
 RS_GRID|   Bounds   2            -54      53                Points:         108
 RS_GRID|   Bounds   3            -60      59                Points:         120

 RS_GRID| Information for grid number                                          4
 RS_GRID|   Bounds   1            -30      29                Points:          60
 RS_GRID|   Bounds   2            -30      29                Points:          60
 RS_GRID|   Bounds   3            -32      31                Points:          64

 RS_GRID| Information for grid number                                          5
 RS_GRID|   Bounds   1            -18      17                Points:          36
 RS_GRID|   Bounds   2            -18      17                Points:          36
 RS_GRID|   Bounds   3            -20      19                Points:          40

 Extrapolation method: initial_guess

 Atomic guess: The first density matrix is obtained in terms of atomic orbitals
               and electronic configurations assigned to each atomic kind

 Guess for atomic kind: Cl

 Electronic structure
    Total number of core electrons                                         10.00
    Total number of valence electrons                                       7.00
    Total number of electrons                                              17.00
    Multiplicity                                                   not specified
    S   [  2.00  2.00] 2.00
    P   [  6.00] 5.00


 *******************************************************************************
                  Iteration          Convergence                     Energy [au]
 *******************************************************************************
                          1        0.221822E-01                 -14.771254732634
                          2        0.254082E-01                 -14.771350251321
                          3        0.626082E-03                 -14.771474988612
                          4        0.348199E-05                 -14.771475091459
                          5        0.279098E-08                 -14.771475091463

 Energy components [Hartree]           Total Energy ::          -14.771475091463
                                        Band Energy ::           -2.980459630123
                                     Kinetic Energy ::            5.565342680317
                                   Potential Energy ::          -20.336817771779
                                      Virial (-V/T) ::            3.654189677072
                                        Core Energy ::          -24.665063559671
                                          XC Energy ::           -2.740744659354
                                     Coulomb Energy ::           12.634333127562
                       Total Pseudopotential Energy ::          -30.289780942398
                       Local Pseudopotential Energy ::          -33.418312085125
                    Nonlocal Pseudopotential Energy ::            3.128531142726
                                        Confinement ::            0.593747024103

 Orbital energies  State     L     Occupation   Energy[a.u.]          Energy[eV]

                       1     0          2.000      -0.742513          -20.204799

                       1     1          5.000      -0.299087           -8.138566


 Total Electron Density at R=0:                                         0.000319

 Guess for atomic kind: H

 Electronic structure
    Total number of core electrons                                          0.00
    Total number of valence electrons                                       1.00
    Total number of electrons                                               1.00
    Multiplicity                                                   not specified
    S      1.00


 *******************************************************************************
                  Iteration          Convergence                     Energy [au]
 *******************************************************************************
                          1        0.471942E-02                  -0.424095106469
                          2        0.464819E-03                  -0.424113671871
                          3        0.190364E-04                  -0.424114007136
                          4        0.633677E-08                  -0.424114007691

 Energy components [Hartree]           Total Energy ::           -0.424114007691
                                        Band Energy ::           -0.198799540676
                                     Kinetic Energy ::            0.462903625467
                                   Potential Energy ::           -0.887017633158
                                      Virial (-V/T) ::            1.916203685515
                                        Core Energy ::           -0.479182004469
                                          XC Energy ::           -0.244447840446
                                     Coulomb Energy ::            0.299515837225
                       Total Pseudopotential Energy ::           -0.960851778720
                       Local Pseudopotential Energy ::           -0.960851778720
                    Nonlocal Pseudopotential Energy ::            0.000000000000
                                        Confinement ::            0.187661487833

 Orbital energies  State     L     Occupation   Energy[a.u.]          Energy[eV]

                       1     0          1.000      -0.198800           -5.409611


 Total Electron Density at R=0:                                         0.230125
 Re-scaling the density matrix to get the right number of electrons
                  # Electrons              Trace(P)               Scaling factor
                            8                 8.000                        1.000

 Number of electrons:                                                          8
 Number of occupied orbitals:                                                  4
 Number of molecular orbitals:                                                 4

 Number of orbital functions:                                                 43
 Number of independent orbital functions:                                     43


 SCF WAVEFUNCTION OPTIMIZATION

  ----------------------------------- OT ---------------------------------------
  Minimizer      : DIIS                : direct inversion
                                         in the iterative subspace
                                         using   7 DIIS vectors
                                         safer DIIS on
  Preconditioner : FULL_ALL            : diagonalization, state selective
  Precond_solver : DEFAULT
  stepsize       :    0.10000000                  energy_gap     :    0.00100000
  eps_taylor     :   0.10000E-15                  max_taylor     :             4
  ----------------------------------- OT ---------------------------------------

  Step     Update method      Time    Convergence         Total energy    Change
  ------------------------------------------------------------------------------
 SKALA_GPW| Atom-composite cross support/maxima   1.926008776013E+00   7.701621657146E-02   2.065154194305E-01   1.086258629986E-01
 SKALA_GPW| Active atom-composite XC energy  -3.1958915856632846E+00
 SKALA_GPW| Active atom-composite electrons   8.0000000146884176E+00
 SKALA_GPW| Active atom-composite density range  -1.8626443958441450E-09   2.4804945177965954E-01
 SKALA_GPW| Active atom-composite tau range  -2.9610732812054563E-08   3.5888023434479976E-01
 SKALA_GPW| Active atom-composite tau integral   6.8030344973362853E+00
 SKALA_GPW| Active atom-composite max gradient   4.0956544167912035E-01
     1 OT DIIS     0.10E+00   19.1     0.21952265       -14.7869027400 -1.48E+01
 SKALA_GPW| Atom-composite cross support/maxima   1.926008776013E+00   1.995052574222E-02   5.551000170854E-02   1.826828005383E-02
 SKALA_GPW| Active atom-composite XC energy  -3.3179492801464017E+00
 SKALA_GPW| Active atom-composite electrons   8.0000000231159003E+00
 SKALA_GPW| Active atom-composite density range  -9.6053002509747041E-10   1.8809338105714571E-01
 SKALA_GPW| Active atom-composite tau range  -2.3739212483439356E-08   3.8570433590577147E-01
 SKALA_GPW| Active atom-composite tau integral   6.5252260750520152E+00
 SKALA_GPW| Active atom-composite max gradient   3.5063781492967055E-01
     2 OT DIIS     0.10E+00   22.3     0.17026770       -15.3785954353 -5.92E-01
 SKALA_GPW| Atom-composite cross support/maxima   1.926008776013E+00   4.498745445450E-02   1.234566989953E-01   4.278430108338E-02
 SKALA_GPW| Active atom-composite XC energy  -3.2093350055004835E+00
 SKALA_GPW| Active atom-composite electrons   8.0000000225077841E+00
 SKALA_GPW| Active atom-composite density range  -7.3785352078984236E-10   1.5490513343033396E-01
 SKALA_GPW| Active atom-composite tau range  -2.1607610183081905E-08   2.9399559851235196E-01
 SKALA_GPW| Active atom-composite tau integral   6.0684953948084859E+00
 SKALA_GPW| Active atom-composite max gradient   2.9009219910929107E-01
     3 OT DIIS     0.10E+00   24.4     0.06173923       -15.5609754334 -1.82E-01
 SKALA_GPW| Atom-composite cross support/maxima   1.926008776013E+00   4.722777990163E-02   1.306783901209E-01   4.765605927605E-02
 SKALA_GPW| Active atom-composite XC energy  -3.2324042648374669E+00
 SKALA_GPW| Active atom-composite electrons   8.0000000215124629E+00
 SKALA_GPW| Active atom-composite density range  -8.6660347380966151E-10   1.5953189859839406E-01
 SKALA_GPW| Active atom-composite tau range  -2.1953040083172790E-08   3.0096778550005571E-01
 SKALA_GPW| Active atom-composite tau integral   6.1317300439096032E+00
 SKALA_GPW| Active atom-composite max gradient   2.8182195177260277E-01
     4 OT DIIS     0.10E+00   23.8     0.04225715       -15.5841546111 -2.32E-02
 SKALA_GPW| Atom-composite cross support/maxima   1.926008776013E+00   4.093963600929E-02   1.139029916709E-01   4.198531121541E-02
 SKALA_GPW| Active atom-composite XC energy  -3.2565463132540291E+00
 SKALA_GPW| Active atom-composite electrons   8.0000000233390871E+00
 SKALA_GPW| Active atom-composite density range  -9.6136613166044068E-10   1.5164853463413405E-01
 SKALA_GPW| Active atom-composite tau range  -2.2033167784892145E-08   3.1426371567597727E-01
 SKALA_GPW| Active atom-composite tau integral   6.2064521813360933E+00
 SKALA_GPW| Active atom-composite max gradient   2.8800248019732172E-01
     5 OT DIIS     0.10E+00   26.0     0.04334429       -15.5845791629 -4.25E-04
 SKALA_GPW| Atom-composite cross support/maxima   1.926008776013E+00   5.128643566899E-02   1.433237487923E-01   5.349520569946E-02
 SKALA_GPW| Active atom-composite XC energy  -3.2442999734480393E+00
 SKALA_GPW| Active atom-composite electrons   8.0000000217317027E+00
 SKALA_GPW| Active atom-composite density range  -1.0155497929056373E-09   1.7091308308806180E-01
 SKALA_GPW| Active atom-composite tau range  -2.1717445829304182E-08   3.0126929503664807E-01
 SKALA_GPW| Active atom-composite tau integral   6.1639221710652574E+00
 SKALA_GPW| Active atom-composite max gradient   2.8451028061559519E-01
     6 OT DIIS     0.10E+00   24.2     0.01868918       -15.5955701860 -1.10E-02
 SKALA_GPW| Atom-composite cross support/maxima   1.926008776013E+00   4.836918592938E-02   1.353060578680E-01   5.082033512202E-02
 SKALA_GPW| Active atom-composite XC energy  -3.2532083703984975E+00
 SKALA_GPW| Active atom-composite electrons   8.0000000224736763E+00
 SKALA_GPW| Active atom-composite density range  -1.0418830923675580E-09   1.6255247366616843E-01
 SKALA_GPW| Active atom-composite tau range  -2.1700158048969347E-08   3.0523404668735188E-01
 SKALA_GPW| Active atom-composite tau integral   6.1905540156403980E+00
 SKALA_GPW| Active atom-composite max gradient   2.7278781770407606E-01
     7 OT DIIS     0.10E+00   26.0     0.00688688       -15.5969913104 -1.42E-03
 SKALA_GPW| Atom-composite cross support/maxima   1.926008776013E+00   4.906489650530E-02   1.373085365213E-01   5.157489051498E-02
 SKALA_GPW| Active atom-composite XC energy  -3.2525276410364099E+00
 SKALA_GPW| Active atom-composite electrons   8.0000000224306991E+00
 SKALA_GPW| Active atom-composite density range  -1.0425391780072349E-09   1.6485154806371299E-01
 SKALA_GPW| Active atom-composite tau range  -2.1599810854011454E-08   3.0321728658879876E-01
 SKALA_GPW| Active atom-composite tau integral   6.1880910145975561E+00
 SKALA_GPW| Active atom-composite max gradient   2.7504523147996812E-01
     8 OT DIIS     0.10E+00   25.7     0.00209325       -15.5972650582 -2.74E-04
 SKALA_GPW| Atom-composite cross support/maxima   1.926008776013E+00   4.933756870174E-02   1.380956303435E-01   5.183359516419E-02
 SKALA_GPW| Active atom-composite XC energy  -3.2519593979931747E+00
 SKALA_GPW| Active atom-composite electrons   8.0000000224139924E+00
 SKALA_GPW| Active atom-composite density range  -1.0416140682774601E-09   1.6579912256527513E-01
 SKALA_GPW| Active atom-composite tau range  -2.1562020276532611E-08   3.0241081093952238E-01
 SKALA_GPW| Active atom-composite tau integral   6.1861873883010192E+00
 SKALA_GPW| Active atom-composite max gradient   2.7651894953134948E-01
     9 OT DIIS     0.10E+00   23.9     0.00026946       -15.5972917691 -2.67E-05
 SKALA_GPW| Atom-composite cross support/maxima   1.926008776013E+00   4.927437088278E-02   1.379271704315E-01   5.174951745514E-02
 SKALA_GPW| Active atom-composite XC energy  -3.2518793790461582E+00
 SKALA_GPW| Active atom-composite electrons   8.0000000224626238E+00
 SKALA_GPW| Active atom-composite density range  -1.0435215080301809E-09   1.6568167426571490E-01
 SKALA_GPW| Active atom-composite tau range  -2.1549145020724186E-08   3.0236195713500008E-01
 SKALA_GPW| Active atom-composite tau integral   6.1858525316180426E+00
 SKALA_GPW| Active atom-composite max gradient   2.7623362561666820E-01
    10 OT DIIS     0.10E+00   26.6     0.00011613       -15.5972934580 -1.69E-06
 SKALA_GPW| Atom-composite cross support/maxima   1.926008776013E+00   4.927305649230E-02   1.379180236721E-01   5.175165205575E-02
 SKALA_GPW| Active atom-composite XC energy  -3.2518777663012082E+00
 SKALA_GPW| Active atom-composite electrons   8.0000000224862031E+00
 SKALA_GPW| Active atom-composite density range  -1.0445794800273998E-09   1.6567920271313041E-01
 SKALA_GPW| Active atom-composite tau range  -2.1549373567076494E-08   3.0235643467124823E-01
 SKALA_GPW| Active atom-composite tau integral   6.1858560243488485E+00
 SKALA_GPW| Active atom-composite max gradient   2.7622692835170942E-01
    11 OT DIIS     0.10E+00   22.9     0.00003566       -15.5972936607 -2.03E-07
 SKALA_GPW| Atom-composite cross support/maxima   1.926008776013E+00   4.927063977571E-02   1.379045754088E-01   5.175300172439E-02
 SKALA_GPW| Active atom-composite XC energy  -3.2518809976148741E+00
 SKALA_GPW| Active atom-composite electrons   8.0000000224992771E+00
 SKALA_GPW| Active atom-composite density range  -1.0449683144923741E-09   1.6566422132778325E-01
 SKALA_GPW| Active atom-composite tau range  -2.1549677254586457E-08   3.0237390939936637E-01
 SKALA_GPW| Active atom-composite tau integral   6.1858797545555841E+00
 SKALA_GPW| Active atom-composite max gradient   2.7620572093599738E-01
    12 OT DIIS     0.10E+00   26.3     0.00001224       -15.5972936937 -3.30E-08
 SKALA_GPW| Atom-composite cross support/maxima   1.926008776013E+00   4.927064455379E-02   1.379033474138E-01   5.175353346818E-02
 SKALA_GPW| Active atom-composite XC energy  -3.2518755225397302E+00
 SKALA_GPW| Active atom-composite electrons   8.0000000225000782E+00
 SKALA_GPW| Active atom-composite density range  -1.0449234759719594E-09   1.6566330483638736E-01
 SKALA_GPW| Active atom-composite tau range  -2.1549686940138773E-08   3.0237616098865761E-01
 SKALA_GPW| Active atom-composite tau integral   6.1858650198837903E+00
 SKALA_GPW| Active atom-composite max gradient   2.7620444216147821E-01
    13 OT DIIS     0.10E+00   23.7     0.00000508       -15.5972936920  1.78E-09
 SKALA_GPW| Atom-composite cross support/maxima   1.926008776013E+00   4.927012603636E-02   1.379019134890E-01   5.175269442493E-02
 SKALA_GPW| Active atom-composite XC energy  -3.2518737488907350E+00
 SKALA_GPW| Active atom-composite electrons   8.0000000224995649E+00
 SKALA_GPW| Active atom-composite density range  -1.0448560096201846E-09   1.6566285073027617E-01
 SKALA_GPW| Active atom-composite tau range  -2.1549593906165343E-08   3.0237771100052457E-01
 SKALA_GPW| Active atom-composite tau integral   6.1858613184229148E+00
 SKALA_GPW| Active atom-composite max gradient   2.7620255727232201E-01
    14 OT DIIS     0.10E+00   26.1     0.00000173       -15.5972936992 -7.26E-09
 SKALA_GPW| Atom-composite cross support/maxima   1.926008776013E+00   4.927021169357E-02   1.379022120426E-01   5.175267792449E-02
 SKALA_GPW| Active atom-composite XC energy  -3.2518745016774129E+00
 SKALA_GPW| Active atom-composite electrons   8.0000000224996359E+00
 SKALA_GPW| Active atom-composite density range  -1.0448460913403638E-09   1.6566358094351891E-01
 SKALA_GPW| Active atom-composite tau range  -2.1549590675440006E-08   3.0237829778861408E-01
 SKALA_GPW| Active atom-composite tau integral   6.1858651101311013E+00
 SKALA_GPW| Active atom-composite max gradient   2.7620350335815136E-01
    15 OT DIIS     0.10E+00   23.4     0.00000069       -15.5972936939  5.29E-09
 SKALA_GPW| Atom-composite cross support/maxima   1.926008776013E+00   4.927022225422E-02   1.379021867937E-01   5.175271106828E-02
 SKALA_GPW| Active atom-composite XC energy  -3.2518751143392794E+00
 SKALA_GPW| Active atom-composite electrons   8.0000000224995329E+00
 SKALA_GPW| Active atom-composite density range  -1.0448485696532277E-09   1.6566369593000924E-01
 SKALA_GPW| Active atom-composite tau range  -2.1549580665740391E-08   3.0237863822815286E-01
 SKALA_GPW| Active atom-composite tau integral   6.1858675894169624E+00
 SKALA_GPW| Active atom-composite max gradient   2.7620371166297963E-01
    16 OT DIIS     0.10E+00   27.8     0.00000030       -15.5972936983 -4.32E-09
 SKALA_GPW| Atom-composite cross support/maxima   1.926008776013E+00   4.927025819940E-02   1.379022500951E-01   5.175275753885E-02
 SKALA_GPW| Active atom-composite XC energy  -3.2518749832524274E+00
 SKALA_GPW| Active atom-composite electrons   8.0000000224995471E+00
 SKALA_GPW| Active atom-composite density range  -1.0448481760274477E-09   1.6566380565750888E-01
 SKALA_GPW| Active atom-composite tau range  -2.1549566256986774E-08   3.0237861634024765E-01
 SKALA_GPW| Active atom-composite tau integral   6.1858671909839442E+00
 SKALA_GPW| Active atom-composite max gradient   2.7620387801146873E-01
    17 OT DIIS     0.10E+00   24.3     0.00000020       -15.5972937006 -2.32E-09
 SKALA_GPW| Atom-composite cross support/maxima   1.926008776013E+00   4.927022750703E-02   1.379021088106E-01   5.175275380136E-02
 SKALA_GPW| Active atom-composite XC energy  -3.2518749880817519E+00
 SKALA_GPW| Active atom-composite electrons   8.0000000224995755E+00
 SKALA_GPW| Active atom-composite density range  -1.0448487305884870E-09   1.6566368736318818E-01
 SKALA_GPW| Active atom-composite tau range  -2.1549550144395099E-08   3.0237868571491527E-01
 SKALA_GPW| Active atom-composite tau integral   6.1858672195000066E+00
 SKALA_GPW| Active atom-composite max gradient   2.7620369892646990E-01
    18 OT DIIS     0.10E+00   28.9     0.00000006       -15.5972936959  4.68E-09

  *** SCF run converged in    18 steps ***


  Electronic density on regular grids:         -8.0000000000       -0.0000000000
  Core density on regular grids:                8.0000000000       -0.0000000000
  Total charge density on r-space grids:       -0.0000000000
  Total charge density g-space grids:          -0.0000000000

  Overlap energy of the core charge distribution:               0.00000024815470
  Self energy of the core charge distribution:                -35.10797947250061
  Core Hamiltonian energy:                                      8.15204482763460
  Hartree energy:                                              14.61107767770137
  Exchange-correlation energy:                                  0.00000000000000
  Dispersion energy:                                           -0.00056198880262

  GAPW_XC| Exc from hard and soft atomic rho1:                 -3.25187498808175

  Total energy:                                               -15.59729369589432

  outer SCF iter =    1 RMS gradient =   0.62E-07 energy =        -15.5972936959
  outer SCF loop converged in   1 iterations or   18 steps


 !-----------------------------------------------------------------------------!
                     Mulliken Population Analysis

 #  Atom  Element  Kind  Atomic population                           Net charge
       1     Cl       1          7.157347                             -0.157347
       2     H        2          0.842653                              0.157347
 # Total charge                              8.000000                 -0.000000

 !-----------------------------------------------------------------------------!

 !-----------------------------------------------------------------------------!
                           Hirshfeld Charges

  #Atom  Element  Kind  Ref Charge     Population                    Net charge
      1       Cl     1       7.000          7.576                        -0.576
      2       H      2       1.000          0.424                         0.576

  Total Charge                                                            0.000
 !-----------------------------------------------------------------------------!

 ENERGY| Total FORCE_EVAL ( QS ) energy [hartree]            -15.597293695894317

 -------------------------------------------------------------------------------
 -                                                                             -
 -                                DBCSR STATISTICS                             -
 -                                                                             -
 -------------------------------------------------------------------------------
 COUNTER                                    TOTAL       BLAS       SMM       ACC
 flops     4 x     4 x     4                19968     100.0%      0.0%      0.0%     
 flops    14 x    14 x     4                29792     100.0%      0.0%      0.0%     
 flops    14 x     4 x     4                40768     100.0%      0.0%      0.0%     
 flops    14 x    29 x     4                61712     100.0%      0.0%      0.0%     
 flops    14 x     4 x    14                70560     100.0%      0.0%      0.0%     
 flops    29 x     4 x     4                84448     100.0%      0.0%      0.0%     
 flops     4 x     4 x    43               100448     100.0%      0.0%      0.0%     
 flops    29 x    29 x     4               127832     100.0%      0.0%      0.0%     
 flops    29 x     4 x    14               146160     100.0%      0.0%      0.0%     
 flops    14 x     4 x    29               146160     100.0%      0.0%      0.0%     
 flops    14 x     4 x    43               183008     100.0%      0.0%      0.0%     
 flops    29 x     4 x    29               302760     100.0%      0.0%      0.0%     
 flops    29 x     4 x    43               379088     100.0%      0.0%      0.0%     
 flops inhomo. stacks                           0       0.0%      0.0%      0.0%
 flops total                         1.692704E+06     100.0%      0.0%      0.0%
 flops max/rank                      1.692704E+06     100.0%      0.0%      0.0%
 matmuls inhomo. stacks                         0       0.0%      0.0%      0.0%
 matmuls total                                724     100.0%      0.0%      0.0%
 number of processed stacks                   724     100.0%      0.0%      0.0%
 average stack size                                     1.0       0.0       0.0
 marketing flops                     1.755792E+06
 -------------------------------------------------------------------------------
 # multiplications                            423
 max memory usage/rank              34.744893E+09
 # max total images/rank                        1
 # max 3D layers                                1
 # MPI messages exchanged                       0
 -------------------------------------------------------------------------------
 -                                                                             -
 -                      DBCSR MESSAGE PASSING PERFORMANCE                      -
 -                                                                             -
 -------------------------------------------------------------------------------
 ROUTINE             CALLS      AVE VOLUME [Bytes]
 MP_Bcast               14                     12.
 MP_Allreduce         2069                      8.
 MP_Alltoall          1604                    331.
 MP_ISend             1688                     34.
 MP_IRecv             1688                     34.
 -------------------------------------------------------------------------------

 -------------------------------------------------------------------------------
 -                                                                             -
 -                                GRID STATISTICS                              -
 -                                                                             -
 -------------------------------------------------------------------------------
 LP    KERNEL             BACKEND                              COUNT     PERCENT
 6     collocate ortho    CPU                                    912      15.68%
 6     integrate ortho    CPU                                    864      14.85%
 4     collocate ortho    CPU                                    779      13.39%
 4     integrate ortho    CPU                                    738      12.69%
 5     collocate ortho    CPU                                    684      11.76%
 5     integrate ortho    CPU                                    648      11.14%
 7     collocate ortho    CPU                                    304       5.23%
 8     collocate ortho    CPU                                    304       5.23%
 7     integrate ortho    CPU                                    288       4.95%
 8     integrate ortho    CPU                                    288       4.95%
 0     collocate general  CPU                                      6       0.10%
 0     integrate general  CPU                                      2       0.03%
 -------------------------------------------------------------------------------

 -------------------------------------------------------------------------------
 -                                                                             -
 -                          OFFLOAD MEMPOOL STATISTICS                         -
 -                                                                             -
 -------------------------------------------------------------------------------
 Memory consumption                Number of allocations  Used [MiB]  Size [MiB]
 Host                                                  9         342    89713663
 -------------------------------------------------------------------------------

 MEMORY| Estimated peak process memory [MiB]                               20654

 -------------------------------------------------------------------------------
 ----                             MULTIGRID INFO                            ----
 -------------------------------------------------------------------------------
 count for grid        1:          10249          cutoff [a.u.]          200.00
 count for grid        2:           7131          cutoff [a.u.]           66.67
 count for grid        3:           4734          cutoff [a.u.]           22.22
 count for grid        4:            105          cutoff [a.u.]            7.41
 count for grid        5:              0          cutoff [a.u.]            2.47
 total gridlevel count  :          22219

 -------------------------------------------------------------------------------
 -                                                                             -
 -                         MESSAGE PASSING PERFORMANCE                         -
 -                                                                             -
 -------------------------------------------------------------------------------

 ROUTINE             CALLS      AVE VOLUME [Bytes]
 MP_Group               41
 MP_Bcast              245                  22210.
 MP_Allreduce         1670               31870044.
 MP_Sync                27
 MP_comm_split          22
 -------------------------------------------------------------------------------


 -------------------------------------------------------------------------------
 -                                                                             -
 -                           R E F E R E N C E S                               -
 -                                                                             -
 -------------------------------------------------------------------------------
 
 CP2K version 2026.2 (Development Version), the CP2K developers group (2026).
 CP2K is freely available from https://www.cp2k.org/ .
 
 M. Iannuzzi, J. Wilhelm, F. Stein, A. Bussy, H. Elgabarty, D. Golze, A. Hehn, 
 M. Graml, S. Marek, B. Sertcan Gökmen, C. Schran, H. Forbert, R. Z. 
 Khaliullin, A. Kozhevnikov, M. Taillefumier, R. Meli, V. V. Rybkin, M. Brehm, 
 R. Schade, O. Schütt, J. V. Pototschnig, H. Mirhosseini, A. Knüpfer, D. Marx, 
 M. Krack, J. Hutter, T. D. Kühne.
 J. Phys. Chem. B 130, 1237-1310 (2026).
 The CP2K Program Package Made Simple.
 https://doi.org/10.1021/acs.jpcb.5c05851

 L. Wittmann, I. Gordiy, M. Friede, B. Helmich-Paris, S. Grimme, A. Hansen, M. 
 Bursch.
 Phys. Chem. Chem. Phys. 26, 21379-21394 (2024).
 Extension of the D3 and D4 London dispersion corrections to the full actinides 
 series.
 https://doi.org/10.1039/d4cp01514b

 T. D. Kühne, M. Iannuzzi, M. Del Ben, V. V. Rybkin, P. Seewald, F. Stein, T. 
 Laino, R. Z. Khaliullin, O. Schütt, F. Schiffmann, D. Golze, J. Wilhelm, S. 
 Chulkov, M. H. Bani-Hashemian, V. Weber, U. Borstnik, M. Taillefumier, A. S. 
 Jakobovits, A. Lazzaro, H. Pabst, T. Müller, R. Schade, M. Guidon, S. 
 Andermatt, N. Holmberg, G. K. Schenter, A. Hehn, A. Bussy, F. Belleflamme, G. 
 Tabacchi, A. Glöß, M. Lass, I. Bethune, C. J. Mundy, C. Plessl, M. Watkins, 
 J. VandeVondele, M. Krack, J. Hutter.
 J. Chem. Phys. 152, 194103 (2020).
 CP2K: An electronic structure and molecular dynamics software package - 
 Quickstep: Efficient and accurate electronic structure calculations.
 https://doi.org/10.1063/5.0007045

 L. Goerigk, A. Hansen, C. Bauer, S. Ehrlich, A. Najibi, S. Grimme.
 Phys. Chem. Chem. Phys. 19, 32184-32215 (2017).
 A look at the density functional theory zoo with the advanced GMTKN55 database 
 for general main group thermochemistry, kinetics and noncovalent interactions.
 https://doi.org/10.1039/C7CP04913G

 O. Schuett, P. Messmer, J. Hutter, J. VandeVondele.
 Electronic Structure Calculations on Graphics Processing Units, 173-190 (2016).
 GPU-Accelerated Sparse Matrix-Matrix Multiplication for Linear Scaling Density 
 Functional Theory.
 https://doi.org/10.1002/9781118670712.ch8

 U. Borstnik, J. VandeVondele, V. Weber, J. Hutter.
 Parallel Comput. 40, 47-58 (2014).
 Sparse matrix multiplication: The distributed block-compressed sparse row 
 library.
 https://doi.org/10.1016/j.parco.2014.03.012

 S. Grimme, S. Ehrlich, L. Goerigk.
 J. Comput. Chem. 32, 1456 (2011).
 Effect of the damping function in dispersion corrected density functional 
 theory.
 https://doi.org/10.1002/jcc.21759

 S. Grimme, J. Antony, S. Ehrlich, H. Krieg.
 J. Chem. Phys. 132, 154104 (2010).
 A consistent and accurate ab initio parametrization of density functional 
 dispersion correction (DFT-D) for the 94 elements H-Pu.
 https://doi.org/10.1063/1.3382344

 J. VandeVondele, J. Hutter.
 J. Chem. Phys. 127, 114105 (2007).
 Gaussian basis sets for accurate calculations on molecular systems in gas and 
 condensed phases.
 https://doi.org/10.1063/1.2770708

 M. Krack.
 Theor. Chem. Acc. 114, 145-152 (2005).
 Pseudopotentials for H to Kr optimized for gradient-corrected 
 exchange-correlation functionals.
 https://doi.org/10.1007/s00214-005-0655-y

 M. Frigo, S. G. Johnson.
 Proc. IEEE 93, 216-231 (2005).
 The design and implementation of FFTW3.
 https://doi.org/10.1109/JPROC.2004.840301

 J. VandeVondele, J. Hutter.
 J. Chem. Phys. 118, 4365-4369 (2003).
 An efficient orbital transformation method for electronic structure 
 calculations.
 https://doi.org/10.1063/1.1543154

 C. Hartwigsen, S. Goedecker, J. Hutter.
 Phys. Rev. B 58, 3641-3662 (1998).
 Relativistic separable dual-space Gaussian pseudopotentials from H to Rn.
 https://doi.org/10.1103/PhysRevB.58.3641

 S. Goedecker, M. Teter, J. Hutter.
 Phys. Rev. B 54, 1703-1710 (1996).
 Separable dual-space Gaussian pseudopotentials.
 https://doi.org/10.1103/PhysRevB.54.1703


 -------------------------------------------------------------------------------
 -                                                                             -
 -                                T I M I N G                                  -
 -                                                                             -
 -------------------------------------------------------------------------------
 SUBROUTINE                       CALLS  ASD         SELF TIME        TOTAL TIME
                                MAXIMUM       AVERAGE  MAXIMUM  AVERAGE  MAXIMUM
 CP2K                                 1  1.0    0.067    0.067  465.994  465.994
 qs_energies                          1  2.0    0.000    0.000  459.713  459.713
 scf_env_do_scf                       1  3.0    0.000    0.000  451.454  451.454
 scf_env_do_scf_inner_loop           18  4.0    0.002    0.002  432.392  432.392
 qs_ks_update_qs_env                 19  5.0    0.000    0.000  351.171  351.171
 rebuild_ks_matrix                   18  6.0    0.000    0.000  351.169  351.169
 qs_ks_build_kohn_sham_matrix        18  7.0    0.005    0.005  351.168  351.168
 calculate_vxc_atom                  18  8.0   95.380   95.380  280.368  280.368
 fft_wrap_pw1pw2                    757  9.5    0.019    0.019  210.555  210.555
 fft_wrap_pw1pw2_200                313 10.5   21.274   21.274  198.150  198.150
 fft3d_s                            758 11.5  117.819  117.819  117.857  117.857
 qs_rho_update_rho_low               19  5.0    0.001    0.001  106.243  106.243
 calculate_rho_elec                  57  6.0    5.527    5.527  106.214  106.214
 density_rs2pw                       57  7.0    0.005    0.005   85.727   85.727
 xc_pw_derive                       108  9.5    0.002    0.002   72.224   72.224
 xc_pw_divergence                    18  9.0    0.001    0.001   51.523   51.523
 sum_up_and_integrate                18  8.0    0.001    0.001   48.705   48.705
 integrate_v_rspace                  54  9.0    0.008    0.008   48.228   48.228
 potential_pw2rs                     54 10.0    0.487    0.487   47.891   47.891
 skala_atom_torch_backward           18  9.0   38.564   38.564   38.564   38.564
 pw_gather_s                        394 10.8   35.665   35.665   35.665   35.665
 skala_atom_torch_forward            18  9.0    0.003    0.003   29.536   29.536
 torch_model_forward_mol_tensor      18 10.0   29.534   29.534   29.534   29.534
 pw_scatter_s                       363 12.2   26.215   26.215   26.215   26.215
 init_scf_loop                        1  4.0    0.000    0.000   19.061   19.061
 calc_tau_atom                      108  9.0   15.059   15.059   15.059   15.059
 grid_collocate_task_list            57  7.0   14.960   14.960   14.960   14.960
 pw_poisson_solve                    18  8.0    0.001    0.001   10.831   10.831
 fft_wrap_pw1pw2_70                 111 10.5    1.289    1.289   10.407   10.407
 -------------------------------------------------------------------------------

 The number of warnings for this run is : 0
 
 -------------------------------------------------------------------------------
  **** **** ******  **  PROGRAM ENDED AT                 2026-08-25 02:51:59.542
 ***** ** ***  *** **   PROGRAM RAN ON                                     terok
 **    ****   ******    PROGRAM RAN BY                                  kuehne88
 ***** **    ** ** **   PROGRAM PROCESS ID                               2441564
  **** **  *******  **  PROGRAM STOPPED IN /home/kuehne88/work/native-skala-tero
                                           k/diet-production-p25/gapwxc-gth-one-
                                           center/435dcfec2baff1096f952206ad475f
                                           6f9b4242b2
