 DBCSR| CPU Multiplication driver                                           BLAS (U)
 DBCSR| Multrec recursion limit                                              512 (U)
 DBCSR| Multiplication stack size                                           1000 (D)
 DBCSR| Maximum elements for images                                    UNLIMITED (U)
 DBCSR| Multiplicative factor virtual images                                   1 (U)
 DBCSR| Use multiplication densification                                       T (D)
 DBCSR| Multiplication size stacks                                             3 (U)
 DBCSR| Use memory pool for CPU allocation                                     F (U)
 DBCSR| OMP: Current number of threads                                         8
 DBCSR| OMP: Max number of threads                                             8
 DBCSR| Split modifier for TAS multiplication algorithm                  1.0E+00 (U)


  **** **** ******  **  PROGRAM STARTED AT               2026-09-01 17:17:40.715
 ***** ** ***  *** **   PROGRAM STARTED ON                                cge069
 **    ****   ******    PROGRAM STARTED BY                              kuehne88
 ***** **    ** ** **   PROGRAM PROCESS ID                               4192665
  **** **  *******  **  PROGRAM STARTED IN /data/home2/kuehne88/cp2k-native-skal
                                           a/goldzak12/runs/production/hybrid-di
                                           rect/LiCl/v10

 CP2K| version string:                 CP2K version 2026.2 (Development Version)
 CP2K| source code revision number:                                   c1bff3eeb8
 CP2K| cp2kflags: omp fftw3 spglib openblas libtorch libtorch_cuda              
 CP2K| is freely available from                            https://www.cp2k.org/
 CP2K| Program compiled at                                   2026-08-23 23:01:13
 CP2K| Program compiled on                                                cge022
 CP2K| Program compiled for                                               x86_64
 CP2K| Data directory path            /home/kuehne88/cp2k-native-skala/cp2k/data
 CP2K| Input file name                                          actual-input.inp

 GLOBAL| Force Environment number                                              1
 GLOBAL| Basis set file name                             BASIS_MOLOPT_UZH_2026.2
 GLOBAL| Potential file name                                POTENTIAL_UZH_2026.2
 GLOBAL| MM Potential file name                                     MM_POTENTIAL
 GLOBAL| Coordinate file name                                      __STD_INPUT__
 GLOBAL| Method name                                                        CP2K
 GLOBAL| Project name                   G12_LiCl_hybrid-direct_v1p1000000000_k55
 GLOBAL| Run type                                                         ENERGY
 GLOBAL| FFT library                                                       FFTW3
 GLOBAL| Diagonalization library                                       ScaLAPACK
 GLOBAL| Cholesky decomposition library                                ScaLAPACK
 GLOBAL| DGEMM library                                                      BLAS
 GLOBAL| Direct generalized diagonalization requested                          F
 GLOBAL| Orthonormality check for eigenvectors                          DISABLED
 GLOBAL| Matrix multiplication library                                 ScaLAPACK
 GLOBAL| All-to-all communication in single precision                          F
 GLOBAL| FFTs using library dependent lengths                                  F
 GLOBAL| Grid backend                                                       AUTO
 GLOBAL| Global print level                                               MEDIUM
 GLOBAL| MPI I/O enabled                                                       T
 GLOBAL| Total number of message passing processes                             1
 GLOBAL| Number of distributed systems (nodes)                                 1
 GLOBAL| Number of threads for this process                                    8
 GLOBAL| This output is from process                                           0
 GLOBAL| OpenMP stack size per thread (OMP_STACKSIZE)                       256M
 GLOBAL| CPU model name                          AMD EPYC 9654 96-Core Processor

 MEMORY| system memory details [Kb]
 MEMORY|                        rank 0           min           max       average
 MEMORY| MemTotal           1584791716    1584791716    1584791716    1584791716
 MEMORY| MemFree            1420898192    1420898192    1420898192    1420898192
 MEMORY| Buffers                     0             0             0             0
 MEMORY| Cached               11466988      11466988      11466988      11466988
 MEMORY| Slab                  4030296       4030296       4030296       4030296
 MEMORY| SReclaimable           912844        912844        912844        912844
 MEMORY| MemLikelyFree      1433278024    1433278024    1433278024    1433278024


 *** Fundamental physical constants (SI units) ***

 *** Literature: B. J. Mohr and B. N. Taylor,
 ***             CODATA recommended values of the fundamental physical
 ***             constants: 2006, Web Version 5.1
 ***             http://physics.nist.gov/constants

 Speed of light in vacuum [m/s]                             2.99792458000000E+08
 Magnetic constant or permeability of vacuum [N/A**2]       1.25663706143592E-06
 Electric constant or permittivity of vacuum [F/m]          8.85418781762039E-12
 Planck constant (h) [J*s]                                  6.62606896000000E-34
 Planck constant (h-bar) [J*s]                              1.05457162825177E-34
 Elementary charge [C]                                      1.60217648700000E-19
 Electron mass [kg]                                         9.10938215000000E-31
 Electron g factor [ ]                                     -2.00231930436220E+00
 Proton mass [kg]                                           1.67262163700000E-27
 Fine-structure constant                                    7.29735253760000E-03
 Rydberg constant [1/m]                                     1.09737315685270E+07
 Avogadro constant [1/mol]                                  6.02214179000000E+23
 Boltzmann constant [J/K]                                   1.38065040000000E-23
 Atomic mass unit [kg]                                      1.66053878200000E-27
 Bohr radius [m]                                            5.29177208590000E-11

 *** Conversion factors ***

 [u] -> [a.u.]                                              1.82288848426455E+03
 [Angstrom] -> [Bohr] = [a.u.]                              1.88972613288564E+00
 [a.u.] = [Bohr] -> [Angstrom]                              5.29177208590000E-01
 [a.u.] -> [s]                                              2.41888432650478E-17
 [a.u.] -> [fs]                                             2.41888432650478E-02
 [a.u.] -> [J]                                              4.35974393937059E-18
 [a.u.] -> [N]                                              8.23872205491840E-08
 [a.u.] -> [K]                                              3.15774647902944E+05
 [a.u.] -> [kJ/mol]                                         2.62549961709828E+03
 [a.u.] -> [kcal/mol]                                       6.27509468713739E+02
 [a.u.] -> [Pa]                                             2.94210107994716E+13
 [a.u.] -> [bar]                                            2.94210107994716E+08
 [a.u.] -> [atm]                                            2.90362800883016E+08
 [a.u.] -> [eV]                                             2.72113838565563E+01
 [a.u.] -> [Hz]                                             6.57968392072181E+15
 [a.u.] -> [1/cm] (wave numbers)                            2.19474631370540E+05
 [a.u./Bohr**2] -> [1/cm]                                   5.14048714338585E+03
 

 CELL| Volume [angstrom^3]:                                           143.525947
 CELL| Vector a [angstrom]:       5.236     0.000     0.000   |a| =     5.235725
 CELL| Vector b [angstrom]:       0.000     5.236     0.000   |b| =     5.235725
 CELL| Vector c [angstrom]:       0.000     0.000     5.236   |c| =     5.235725
 CELL| Angle (b,c), alpha [degree]:                                    90.000000
 CELL| Angle (a,c), beta  [degree]:                                    90.000000
 CELL| Angle (a,b), gamma [degree]:                                    90.000000
 CELL| Numerically orthorhombic:                                             YES
 CELL| Periodicity                                                           XYZ

 CELL_REF| Volume [angstrom^3]:                                       143.525947
 CELL_REF| Vector a [angstrom     5.236     0.000     0.000   |a| =     5.235725
 CELL_REF| Vector b [angstrom     0.000     5.236     0.000   |b| =     5.235725
 CELL_REF| Vector c [angstrom     0.000     0.000     5.236   |c| =     5.235725
 CELL_REF| Angle (b,c), alpha [degree]:                                90.000000
 CELL_REF| Angle (a,c), beta  [degree]:                                90.000000
 CELL_REF| Angle (a,b), gamma [degree]:                                90.000000
 CELL_REF| Numerically orthorhombic:                                         YES
 CELL_REF| Periodicity                                                       XYZ

 GENERATE|  Preliminary Number of Bonds generated:                             0
 GENERATE|  Achieved consistency in connectivity generation.

 *******************************************************************************
 *******************************************************************************
 **                                                                           **
 **     #####                         ##              ##                      **
 **    ##   ##            ##          ##              ##                      **
 **   ##     ##                       ##            ######                    **
 **   ##     ##  ##   ##  ##   #####  ##  ##   ####   ##    #####    #####    **
 **   ##     ##  ##   ##  ##  ##      ## ##   ##      ##   ##   ##  ##   ##   **
 **   ##  ## ##  ##   ##  ##  ##      ####     ###    ##   ######   ######    **
 **    ##  ###   ##   ##  ##  ##      ## ##      ##   ##   ##       ##        **
 **     #######   #####   ##   #####  ##  ##  ####    ##    #####   ##        **
 **           ##                                                    ##        **
 **                                                                           **
 **                                                ... make the atoms dance   **
 **                                                                           **
 **            Copyright (C) by CP2K developers group (2000-2026)             **
 **                      J. Chem. Phys. 152, 194103 (2020)                    **
 **                                                                           **
 *******************************************************************************

 DFT| Spin restricted Kohn-Sham (RKS) calculation                            RKS
 DFT| Multiplicity                                                             1
 DFT| Number of spin states                                                    1
 DFT| Charge                                                                   0
 DFT| Self-interaction correction (SIC)                                       NO
 DFT| Cutoffs: density                                              1.000000E-10
 DFT|          gradient                                             1.000000E-10
 DFT|          tau                                                  1.000000E-10
 DFT|          cutoff_smoothing_range                               0.000000E+00
 DFT| XC density smoothing                                                  NONE
 DFT| XC derivatives                                                          PW

 FUNCTIONAL| GAUXC:
 FUNCTIONAL| Functional computed by GauXC Skala model SKALA                     

 vdW POTENTIAL|                                                   Pair Potential
 vdW POTENTIAL|          DFT-D3 (Version 3.1)
 vdW POTENTIAL|          Potential Form: S. Grimme et al, JCP 132: 154104 (2010)
 vdW POTENTIAL|          BJ Damping: S. Grimme et al, JCC 32: 1456 (2011)
 vdW POTENTIAL|          Cutoff Radius [Bohr]:                             37.79
 vdW POTENTIAL|          s6 Scaling Factor:                               1.0000
 vdW POTENTIAL|          a1 Damping Factor:                               0.3981
 vdW POTENTIAL|          s8 Scaling Factor:                               1.9889
 vdW POTENTIAL|          a2 Damping Factor:                               4.4211
 vdW POTENTIAL|          Cutoff for CN calculation:                   0.1000E-05

 QS| Method:                                                                GAPW
 QS| Density plane wave grid type                        NON-SPHERICAL FULLSPACE
 QS| Number of grid levels:                                                    5
 QS| Density cutoff [a.u.]:                                                400.0
 QS| Multi grid cutoff [a.u.]: 1) grid level                               400.0
 QS|                           2) grid level                               133.3
 QS|                           3) grid level                                44.4
 QS|                           4) grid level                                14.8
 QS|                           5) grid level                                 4.9
 QS| Grid level progression factor:                                          3.0
 QS| Relative density cutoff [a.u.]:                                        30.0
 QS| Interaction thresholds: eps_pgf_orb:                                1.0E-06
 QS|                         eps_filter_matrix:                          0.0E+00
 QS|                         eps_core_charge:                            1.0E-14
 QS|                         eps_rho_gspace:                             1.0E-12
 QS|                         eps_rho_rspace:                             1.0E-12
 QS|                         eps_gvg_rspace:                             1.0E-06
 QS|                         eps_ppl:                                    1.0E-02
 QS|                         eps_ppnl:                                   1.0E-08
 QS| GAPW|      XC integration using accurate scheme: Ref. exponent     6.000000
 QS| GAPW|      One center basis extended with primitives (small:s)
 QS| GAPW|                   eps_fit:                                    1.0E-04
 QS| GAPW|                   eps_iso:                                    1.0E-12
 QS| GAPW|                   eps_svd:                                    1.0E-08
 QS| GAPW|                   eps_cpc:                                    1.0E-12
 QS| GAPW|   atom-r-grid: quadrature:                                     GC_LOG
 QS| GAPW|      atom-s-grid:  max l :                                          6
 QS| GAPW|      max_l_rho0 :                                                   4
 QS| GAPW|      At least one kind is NOT PAW, i.e. it has only soft AO 
 QS| GAPW|      The NOT PAW atoms are treated fully GPW


 ATOMIC KIND INFORMATION

  1. Atomic kind: Li                                    Number of atoms:       4

     Orbital Basis Set                                       TZVPP-MOLOPT-PBE-ae

       Number of orbital shell sets:                                           2
       Number of orbital shells:                                               9
       Number of primitive Cartesian functions:                               11
       Number of Cartesian basis functions:                                   20
       Number of spherical basis functions:                                   19
       Norm type:                                                              2

       Normalised Cartesian orbitals:

                        Set   Shell   Orbital            Exponent    Coefficient

                          1       1    1s             6269.059024       0.195526
                                                       940.419254       0.355467
                                                       214.089215       0.613400
                                                        60.725519       1.001660
                                                        18.086742       1.629632
                                                         5.657040       1.936268

                          2       1    1s                1.933558      -1.060981
                                                         0.680928       0.544799
                                                         0.237636      -0.232469
                                                         0.071007       0.213026
                                                         0.024646      -0.078105

                          2       2    2s                1.933558       0.593777
                                                         0.680928       0.156290
                                                         0.237636       0.022101
                                                         0.071007       0.022458
                                                         0.024646       0.006228

                          2       3    3s                1.933558      -0.462606
                                                         0.680928       0.047064
                                                         0.237636       0.065312
                                                         0.071007       0.033037
                                                         0.024646       0.023237

                          2       4    4s                1.933558       0.448387
                                                         0.680928      -0.668780
                                                         0.237636      -0.047989
                                                         0.071007       0.074011
                                                         0.024646       0.005162

                          2       5    2px               1.933558       5.053657
                                                         0.680928      -1.218050
                                                         0.237636       0.077898
                                                         0.071007      -0.000886
                                                         0.024646       0.000822
                          2       5    2py               1.933558       5.053657
                                                         0.680928      -1.218050
                                                         0.237636       0.077898
                                                         0.071007      -0.000886
                                                         0.024646       0.000822
                          2       5    2pz               1.933558       5.053657
                                                         0.680928      -1.218050
                                                         0.237636       0.077898
                                                         0.071007      -0.000886
                                                         0.024646       0.000822

                          2       6    3px               1.933558       0.147169
                                                         0.680928       0.093238
                                                         0.237636       0.080413
                                                         0.071007      -0.021942
                                                         0.024646      -0.010239
                          2       6    3py               1.933558       0.147169
                                                         0.680928       0.093238
                                                         0.237636       0.080413
                                                         0.071007      -0.021942
                                                         0.024646      -0.010239
                          2       6    3pz               1.933558       0.147169
                                                         0.680928       0.093238
                                                         0.237636       0.080413
                                                         0.071007      -0.021942
                                                         0.024646      -0.010239

                          2       7    4px               1.933558       0.036550
                                                         0.680928       0.121719
                                                         0.237636       0.129113
                                                         0.071007       0.023413
                                                         0.024646       0.000237
                          2       7    4py               1.933558       0.036550
                                                         0.680928       0.121719
                                                         0.237636       0.129113
                                                         0.071007       0.023413
                                                         0.024646       0.000237
                          2       7    4pz               1.933558       0.036550
                                                         0.680928       0.121719
                                                         0.237636       0.129113
                                                         0.071007       0.023413
                                                         0.024646       0.000237

                          2       8    3dx2              1.933558      -0.256537
                                                         0.680928       0.100225
                                                         0.237636       0.091398
                                                         0.071007       0.006388
                                                         0.024646      -0.000157
                          2       8    3dxy              1.933558      -0.444335
                                                         0.680928       0.173596
                                                         0.237636       0.158306
                                                         0.071007       0.011064
                                                         0.024646      -0.000271
                          2       8    3dxz              1.933558      -0.444335
                                                         0.680928       0.173596
                                                         0.237636       0.158306
                                                         0.071007       0.011064
                                                         0.024646      -0.000271
                          2       8    3dy2              1.933558      -0.256537
                                                         0.680928       0.100225
                                                         0.237636       0.091398
                                                         0.071007       0.006388
                                                         0.024646      -0.000157
                          2       8    3dyz              1.933558      -0.444335
                                                         0.680928       0.173596
                                                         0.237636       0.158306
                                                         0.071007       0.011064
                                                         0.024646      -0.000271
                          2       8    3dz2              1.933558      -0.256537
                                                         0.680928       0.100225
                                                         0.237636       0.091398
                                                         0.071007       0.006388
                                                         0.024646      -0.000157

       Atomic covalent radius [Angstrom]:                                  1.230

       Atomic van der Waals radius [Angstrom]:                             1.820

     The atoms of this atomic kind are PAW atoms (GAPW):
       Hard Gaussian function radius:                                      1.520
       Rho0 radius:                                                        1.520
       Maximum GTO radius used for PAW projector construction:            24.566

     GAPW Soft Basis Set                                TZVPP-MOLOPT-PBE-ae_soft

       Number of orbital shell sets:                                           2
       Number of orbital shells:                                               9
       Number of primitive Cartesian functions:                                5
       Number of Cartesian basis functions:                                   20
       Number of spherical basis functions:                                   19
       Norm type:                                                              2

       Normalised Cartesian orbitals:

                        Set   Shell   Orbital            Exponent    Coefficient

                          1       1    1s         

                          2       1    1s                1.933558      -1.060981
                                                         0.680928       0.544799
                                                         0.237636      -0.232469
                                                         0.071007       0.213026
                                                         0.024646      -0.078105

                          2       2    2s                1.933558       0.593777
                                                         0.680928       0.156290
                                                         0.237636       0.022101
                                                         0.071007       0.022458
                                                         0.024646       0.006228

                          2       3    3s                1.933558      -0.462606
                                                         0.680928       0.047064
                                                         0.237636       0.065312
                                                         0.071007       0.033037
                                                         0.024646       0.023237

                          2       4    4s                1.933558       0.448387
                                                         0.680928      -0.668780
                                                         0.237636      -0.047989
                                                         0.071007       0.074011
                                                         0.024646       0.005162

                          2       5    2px               1.933558       5.053657
                                                         0.680928      -1.218050
                                                         0.237636       0.077898
                                                         0.071007      -0.000886
                                                         0.024646       0.000822
                          2       5    2py               1.933558       5.053657
                                                         0.680928      -1.218050
                                                         0.237636       0.077898
                                                         0.071007      -0.000886
                                                         0.024646       0.000822
                          2       5    2pz               1.933558       5.053657
                                                         0.680928      -1.218050
                                                         0.237636       0.077898
                                                         0.071007      -0.000886
                                                         0.024646       0.000822

                          2       6    3px               1.933558       0.147169
                                                         0.680928       0.093238
                                                         0.237636       0.080413
                                                         0.071007      -0.021942
                                                         0.024646      -0.010239
                          2       6    3py               1.933558       0.147169
                                                         0.680928       0.093238
                                                         0.237636       0.080413
                                                         0.071007      -0.021942
                                                         0.024646      -0.010239
                          2       6    3pz               1.933558       0.147169
                                                         0.680928       0.093238
                                                         0.237636       0.080413
                                                         0.071007      -0.021942
                                                         0.024646      -0.010239

                          2       7    4px               1.933558       0.036550
                                                         0.680928       0.121719
                                                         0.237636       0.129113
                                                         0.071007       0.023413
                                                         0.024646       0.000237
                          2       7    4py               1.933558       0.036550
                                                         0.680928       0.121719
                                                         0.237636       0.129113
                                                         0.071007       0.023413
                                                         0.024646       0.000237
                          2       7    4pz               1.933558       0.036550
                                                         0.680928       0.121719
                                                         0.237636       0.129113
                                                         0.071007       0.023413
                                                         0.024646       0.000237

                          2       8    3dx2              1.933558      -0.256537
                                                         0.680928       0.100225
                                                         0.237636       0.091398
                                                         0.071007       0.006388
                                                         0.024646      -0.000157
                          2       8    3dxy              1.933558      -0.444335
                                                         0.680928       0.173596
                                                         0.237636       0.158306
                                                         0.071007       0.011064
                                                         0.024646      -0.000271
                          2       8    3dxz              1.933558      -0.444335
                                                         0.680928       0.173596
                                                         0.237636       0.158306
                                                         0.071007       0.011064
                                                         0.024646      -0.000271
                          2       8    3dy2              1.933558      -0.256537
                                                         0.680928       0.100225
                                                         0.237636       0.091398
                                                         0.071007       0.006388
                                                         0.024646      -0.000157
                          2       8    3dyz              1.933558      -0.444335
                                                         0.680928       0.173596
                                                         0.237636       0.158306
                                                         0.071007       0.011064
                                                         0.024646      -0.000271
                          2       8    3dz2              1.933558      -0.256537
                                                         0.680928       0.100225
                                                         0.237636       0.091398
                                                         0.071007       0.006388
                                                         0.024646      -0.000157

     AE Potential information for                                            ALL

       Description:                                       All-electron potential
                                          Krack, Parrinello, PCCP 2, 2105 (2000)

       Gaussian exponent of the core charge distribution:               3.125000
       Electronic configuration (s p d ...):                           3   0   0

  2. Atomic kind: Cl                                    Number of atoms:       4

     Orbital Basis Set                                   TZV2P-MOLOPT-PBE-GTH-q7

       Number of orbital shell sets:                                           1
       Number of orbital shells:                                               9
       Number of primitive Cartesian functions:                                4
       Number of Cartesian basis functions:                                   34
       Number of spherical basis functions:                                   29
       Norm type:                                                              2

       Normalised Cartesian orbitals:

                        Set   Shell   Orbital            Exponent    Coefficient

                          1       1    2s                1.998248       0.474127
                                                         1.503631      -0.298602
                                                         0.406509      -0.170002
                                                         0.128538      -0.091923

                          1       2    3s                1.998248       0.878043
                                                         1.503631      -0.090105
                                                         0.406509      -0.545023
                                                         0.128538       0.260422

                          1       3    4s                1.998248       0.030172
                                                         1.503631      -1.270839
                                                         0.406509       0.168869
                                                         0.128538       0.050189

                          1       4    3px               1.998248       1.035211
                                                         1.503631      -1.044903
                                                         0.406509      -0.274741
                                                         0.128538      -0.041581
                          1       4    3py               1.998248       1.035211
                                                         1.503631      -1.044903
                                                         0.406509      -0.274741
                                                         0.128538      -0.041581
                          1       4    3pz               1.998248       1.035211
                                                         1.503631      -1.044903
                                                         0.406509      -0.274741
                                                         0.128538      -0.041581

                          1       5    4px               1.998248       0.846287
                                                         1.503631      -0.665007
                                                         0.406509      -0.214639
                                                         0.128538       0.137550
                          1       5    4py               1.998248       0.846287
                                                         1.503631      -0.665007
                                                         0.406509      -0.214639
                                                         0.128538       0.137550
                          1       5    4pz               1.998248       0.846287
                                                         1.503631      -0.665007
                                                         0.406509      -0.214639
                                                         0.128538       0.137550

                          1       6    5px               1.998248      -1.228895
                                                         1.503631      -1.929331
                                                         0.406509       0.181784
                                                         0.128538       0.003953
                          1       6    5py               1.998248      -1.228895
                                                         1.503631      -1.929331
                                                         0.406509       0.181784
                                                         0.128538       0.003953
                          1       6    5pz               1.998248      -1.228895
                                                         1.503631      -1.929331
                                                         0.406509       0.181784
                                                         0.128538       0.003953

                          1       7    4dx2              1.998248       0.400992
                                                         1.503631       0.768662
                                                         0.406509       0.256895
                                                         0.128538       0.005608
                          1       7    4dxy              1.998248       0.694538
                                                         1.503631       1.331361
                                                         0.406509       0.444955
                                                         0.128538       0.009714
                          1       7    4dxz              1.998248       0.694538
                                                         1.503631       1.331361
                                                         0.406509       0.444955
                                                         0.128538       0.009714
                          1       7    4dy2              1.998248       0.400992
                                                         1.503631       0.768662
                                                         0.406509       0.256895
                                                         0.128538       0.005608
                          1       7    4dyz              1.998248       0.694538
                                                         1.503631       1.331361
                                                         0.406509       0.444955
                                                         0.128538       0.009714
                          1       7    4dz2              1.998248       0.400992
                                                         1.503631       0.768662
                                                         0.406509       0.256895
                                                         0.128538       0.005608

                          1       8    5dx2              1.998248      -1.963226
                                                         1.503631       5.042957
                                                         0.406509      -0.158524
                                                         0.128538       0.012321
                          1       8    5dxy              1.998248      -3.400407
                                                         1.503631       8.734658
                                                         0.406509      -0.274571
                                                         0.128538       0.021341
                          1       8    5dxz              1.998248      -3.400407
                                                         1.503631       8.734658
                                                         0.406509      -0.274571
                                                         0.128538       0.021341
                          1       8    5dy2              1.998248      -1.963226
                                                         1.503631       5.042957
                                                         0.406509      -0.158524
                                                         0.128538       0.012321
                          1       8    5dyz              1.998248      -3.400407
                                                         1.503631       8.734658
                                                         0.406509      -0.274571
                                                         0.128538       0.021341
                          1       8    5dz2              1.998248      -1.963226
                                                         1.503631       5.042957
                                                         0.406509      -0.158524
                                                         0.128538       0.012321

                          1       9    5fx3              1.998248      -0.939013
                                                         1.503631       1.405782
                                                         0.406509       0.163556
                                                         0.128538       0.000428
                          1       9    5fx2y             1.998248      -2.099697
                                                         1.503631       3.143425
                                                         0.406509       0.365723
                                                         0.128538       0.000958
                          1       9    5fx2z             1.998248      -2.099697
                                                         1.503631       3.143425
                                                         0.406509       0.365723
                                                         0.128538       0.000958
                          1       9    5fxy2             1.998248      -2.099697
                                                         1.503631       3.143425
                                                         0.406509       0.365723
                                                         0.128538       0.000958
                          1       9    5fxyz             1.998248      -3.636782
                                                         1.503631       5.444571
                                                         0.406509       0.633451
                                                         0.128538       0.001659
                          1       9    5fxz2             1.998248      -2.099697
                                                         1.503631       3.143425
                                                         0.406509       0.365723
                                                         0.128538       0.000958
                          1       9    5fy3              1.998248      -0.939013
                                                         1.503631       1.405782
                                                         0.406509       0.163556
                                                         0.128538       0.000428
                          1       9    5fy2z             1.998248      -2.099697
                                                         1.503631       3.143425
                                                         0.406509       0.365723
                                                         0.128538       0.000958
                          1       9    5fyz2             1.998248      -2.099697
                                                         1.503631       3.143425
                                                         0.406509       0.365723
                                                         0.128538       0.000958
                          1       9    5fz3              1.998248      -0.939013
                                                         1.503631       1.405782
                                                         0.406509       0.163556
                                                         0.128538       0.000428

       Atomic covalent radius [Angstrom]:                                  0.990

       Atomic van der Waals radius [Angstrom]:                             1.750

     GTH Potential information for                                    GTH-PBE-q7

       Description:                       Goedecker-Teter-Hutter pseudopotential
                                           Goedecker et al., PRB 54, 1703 (1996)
                                          Hartwigsen et al., PRB 58, 3641 (1998)
                                                      Krack, TCA 114, 145 (2005)

       Gaussian exponent of the core charge distribution:               2.972287
       Electronic configuration (s p d ...):                       2   5   0   0

       Parameters of the local part of the GTH pseudopotential:

                          rloc        C1          C2          C3          C4
                        0.410147   -6.378521

       Parameters of the non-local part of the GTH pseudopotential:

                   l      r(l)      h(i,j,l)

                   0    0.339553   15.219287   -4.934522
                                   -4.934522    6.370683
                   1    0.378489    4.338598


 MOLECULE KIND INFORMATION


 All atoms are their own molecule, skipping detailed information


 TOTAL NUMBERS AND MAXIMUM NUMBERS

  Total number of            - Atomic kinds:                                   2
                             - Atoms:                                          8
                             - Shell sets:                                    12
                             - Shells:                                        72
                             - Primitive Cartesian functions:                 60
                             - Cartesian basis functions:                    216
                             - Spherical basis functions:                    192

  Maximum angular momentum of- Orbital basis functions:                        3
                             - Local part of the GTH pseudopotential:          0
                             - Non-local part of the GTH pseudopotential:      2


 MODULE QUICKSTEP: ATOMIC COORDINATES IN ANGSTROM

   Atom Kind Element         X             Y             Z       Z(eff)     Mass
      1    1 Li    3      0.000000      0.000000      0.000000   3.0000   6.9410
      2    1 Li    3      0.000000      2.617862      2.617862   3.0000   6.9410
      3    1 Li    3      2.617862      0.000000      2.617862   3.0000   6.9410
      4    1 Li    3      2.617862      2.617862      0.000000   3.0000   6.9410
      5    2 Cl   17      2.617862      0.000000      0.000000   7.0000  35.4530
      6    2 Cl   17      0.000000      2.617862      0.000000   7.0000  35.4530
      7    2 Cl   17      0.000000      0.000000      2.617862   7.0000  35.4530
      8    2 Cl   17      2.617862      2.617862      2.617862   7.0000  35.4530



 SCF PARAMETERS         Density guess:                                    ATOMIC
                        --------------------------------------------------------
                        max_scf:                                             200
                        max_scf_history:                                       0
                        max_diis:                                              4
                        --------------------------------------------------------
                        eps_scf:                                        5.00E-06
                        eps_scf_history:                                0.00E+00
                        eps_diis:                                       1.00E-01
                        eps_eigval:                                     1.00E-05
                        --------------------------------------------------------
                        level_shift [a.u.]:                             0.000000
                        --------------------------------------------------------
                        Mixing method:                           DIRECT_P_MIXING
                        --------------------------------------------------------
                        Outer loop SCF in use 
                        No variables optimised in outer loop
                        eps_scf                                         5.00E-06
                        max_scf                                                5
                        No outer loop optimization
                        step_size                                       5.00E-01

 PW_GRID| Information for grid number                                          1
 PW_GRID| Cutoff [a.u.]                                                    400.0
 PW_GRID| spherical cutoff:                                                   NO
 PW_GRID|   Bounds   1            -45      44                Points:          90
 PW_GRID|   Bounds   2            -45      44                Points:          90
 PW_GRID|   Bounds   3            -45      44                Points:          90
 PW_GRID| Volume element (a.u.^3)  0.1329E-02     Volume (a.u.^3)       968.5611
 PW_GRID| Grid span                                                    FULLSPACE

 PW_GRID| Information for grid number                                          2
 PW_GRID| Number of the reference grid                                         1
 PW_GRID| Cutoff [a.u.]                                                    133.3
 PW_GRID| spherical cutoff:                                                   NO
 PW_GRID|   Bounds   1            -27      26                Points:          54
 PW_GRID|   Bounds   2            -27      26                Points:          54
 PW_GRID|   Bounds   3            -27      26                Points:          54
 PW_GRID| Volume element (a.u.^3)  0.6151E-02     Volume (a.u.^3)       968.5611
 PW_GRID| Grid span                                                    FULLSPACE

 PW_GRID| Information for grid number                                          3
 PW_GRID| Number of the reference grid                                         1
 PW_GRID| Cutoff [a.u.]                                                     44.4
 PW_GRID| spherical cutoff:                                                   NO
 PW_GRID|   Bounds   1            -15      14                Points:          30
 PW_GRID|   Bounds   2            -15      14                Points:          30
 PW_GRID|   Bounds   3            -15      14                Points:          30
 PW_GRID| Volume element (a.u.^3)  0.3587E-01     Volume (a.u.^3)       968.5611
 PW_GRID| Grid span                                                    FULLSPACE

 PW_GRID| Information for grid number                                          4
 PW_GRID| Number of the reference grid                                         1
 PW_GRID| Cutoff [a.u.]                                                     14.8
 PW_GRID| spherical cutoff:                                                   NO
 PW_GRID|   Bounds   1             -9       8                Points:          18
 PW_GRID|   Bounds   2             -9       8                Points:          18
 PW_GRID|   Bounds   3             -9       8                Points:          18
 PW_GRID| Volume element (a.u.^3)  0.1661         Volume (a.u.^3)       968.5611
 PW_GRID| Grid span                                                    FULLSPACE

 PW_GRID| Information for grid number                                          5
 PW_GRID| Number of the reference grid                                         1
 PW_GRID| Cutoff [a.u.]                                                      4.9
 PW_GRID| spherical cutoff:                                                   NO
 PW_GRID|   Bounds   1             -4       4                Points:           9
 PW_GRID|   Bounds   2             -4       4                Points:           9
 PW_GRID|   Bounds   3             -4       4                Points:           9
 PW_GRID| Volume element (a.u.^3)   1.329         Volume (a.u.^3)       968.5611
 PW_GRID| Grid span                                                    FULLSPACE

 POISSON| Solver                                                        PERIODIC
 POISSON| Periodicity                                                        XYZ

 RS_GRID| Information for grid number                                          1
 RS_GRID|   Bounds   1            -45      44                Points:          90
 RS_GRID|   Bounds   2            -45      44                Points:          90
 RS_GRID|   Bounds   3            -45      44                Points:          90

 RS_GRID| Information for grid number                                          2
 RS_GRID|   Bounds   1            -27      26                Points:          54
 RS_GRID|   Bounds   2            -27      26                Points:          54
 RS_GRID|   Bounds   3            -27      26                Points:          54

 RS_GRID| Information for grid number                                          3
 RS_GRID|   Bounds   1            -15      14                Points:          30
 RS_GRID|   Bounds   2            -15      14                Points:          30
 RS_GRID|   Bounds   3            -15      14                Points:          30

 RS_GRID| Information for grid number                                          4
 RS_GRID|   Bounds   1             -9       8                Points:          18
 RS_GRID|   Bounds   2             -9       8                Points:          18
 RS_GRID|   Bounds   3             -9       8                Points:          18

 RS_GRID| Information for grid number                                          5
 RS_GRID|   Bounds   1             -4       4                Points:           9
 RS_GRID|   Bounds   2             -4       4                Points:           9
 RS_GRID|   Bounds   3             -4       4                Points:           9

 *******************************************************************************
                                    Kpoints
 *******************************************************************************
 BRILLOUIN| K-point scheme                                        Monkhorst-Pack
 BRILLOUIN| K-Point grid                                             5    5    5
 BRILLOUIN| Gamma-centered k-point mesh                                     ON
 BRILLOUIN| K-point symmetry accuracy                               0.100000E-07
 BRILLOUIN| K-Point point group symmetrization                                ON
 BRILLOUIN| Symmetry backend                                               K290
 BRILLOUIN| Symmetry reduction method                                      K290
 BRILLOUIN| Wavefunction type                                            COMPLEX
 BRILLOUIN| List of Kpoints [2 Pi/Bohr]                                       10
 BRILLOUIN| Number           Weight            X              Y              Z
 BRILLOUIN|     1           0.06400       -0.40000       -0.40000       -0.40000
 BRILLOUIN|     2           0.19200       -0.40000       -0.40000       -0.20000
 BRILLOUIN|     3           0.09600       -0.40000       -0.40000        0.00000
 BRILLOUIN|     4           0.19200       -0.40000       -0.20000       -0.20000
 BRILLOUIN|     5           0.19200       -0.40000       -0.20000        0.00000
 BRILLOUIN|     6           0.04800       -0.40000        0.00000        0.00000
 BRILLOUIN|     7           0.06400       -0.20000       -0.20000       -0.20000
 BRILLOUIN|     8           0.09600       -0.20000       -0.20000        0.00000
 BRILLOUIN|     9           0.04800       -0.20000        0.00000        0.00000
 BRILLOUIN|    10           0.00800        0.00000        0.00000        0.00000
 *******************************************************************************

 Extrapolation method: initial_guess

 Atomic guess: The first density matrix is obtained in terms of atomic orbitals
               and electronic configurations assigned to each atomic kind

 Guess for atomic kind: Li

 Electronic structure
    Total number of core electrons                                          0.00
    Total number of valence electrons                                       3.00
    Total number of electrons                                               3.00
    Multiplicity                                                   not specified
    S      2.00  1.00


 *******************************************************************************
                  Iteration          Convergence                     Energy [au]
 *******************************************************************************
                          1        0.592964E-01                  -7.331097472699
                          2        0.143971E-01                  -7.331747780484
                          3        0.803097E-04                  -7.331782228116
                          4        0.825456E-05                  -7.331782257445
                          5        0.811740E-06                  -7.331782257491

 Energy components [Hartree]           Total Energy ::           -7.331782257491
                                        Band Energy ::           -3.806367302748
                                     Kinetic Energy ::            7.279362503968
                                   Potential Energy ::          -14.611144761459
                                      Virial (-V/T) ::            2.007201146185
                                        Core Energy ::           -9.716647912630
                                          XC Energy ::           -1.662459907451
                                     Coulomb Energy ::            4.047325562590

 Orbital energies  State     L     Occupation   Energy[a.u.]          Energy[eV]

                       1     0          2.000      -1.855112          -50.480164
                       2     0          1.000      -0.096143           -2.616194


 Total Electron Density at R=0:                                        13.312119

 Guess for atomic kind: Cl

 Electronic structure
    Total number of core electrons                                         10.00
    Total number of valence electrons                                       7.00
    Total number of electrons                                              17.00
    Multiplicity                                                   not specified
    S   [  2.00  2.00] 2.00
    P   [  6.00] 5.00


 *******************************************************************************
                  Iteration          Convergence                     Energy [au]
 *******************************************************************************
                          1        0.221822E-01                 -14.771254732634
                          2        0.254082E-01                 -14.771350251321
                          3        0.626082E-03                 -14.771474988612
                          4        0.348199E-05                 -14.771475091459
                          5        0.279098E-08                 -14.771475091463

 Energy components [Hartree]           Total Energy ::          -14.771475091463
                                        Band Energy ::           -2.980459630123
                                     Kinetic Energy ::            5.565342680317
                                   Potential Energy ::          -20.336817771779
                                      Virial (-V/T) ::            3.654189677072
                                        Core Energy ::          -24.665063559671
                                          XC Energy ::           -2.740744659354
                                     Coulomb Energy ::           12.634333127562
                       Total Pseudopotential Energy ::          -30.289780942398
                       Local Pseudopotential Energy ::          -33.418312085125
                    Nonlocal Pseudopotential Energy ::            3.128531142726
                                        Confinement ::            0.593747024103

 Orbital energies  State     L     Occupation   Energy[a.u.]          Energy[eV]

                       1     0          2.000      -0.742513          -20.204799

                       1     1          5.000      -0.299087           -8.138566


 Total Electron Density at R=0:                                         0.000319
 Re-scaling the density matrix to get the right number of electrons
                  # Electrons              Trace(P)               Scaling factor
                           40                40.000                        1.000

 Number of electrons:                                                         40
 Number of occupied orbitals:                                                 20
 Number of molecular orbitals:                                                20

 Number of orbital functions:                                                192
 Number of independent orbital functions:                                    192


 SCF WAVEFUNCTION OPTIMIZATION

  Step     Update method      Time    Convergence         Total energy    Change
  ------------------------------------------------------------------------------

 *** WARNING in qs_ks_methods.F:773 :: Native SKALA grid evaluation with   ***
 *** k-points is using the CPU TorchScript path. Use a mutually compatible ***
 *** BLAS, ScaLAPACK, OpenMP, and LibTorch runtime stack, or select        ***
 *** NATIVE_GRID_USE_CUDA T.                                               ***

 SKALA_GPW| Atom-composite cross support/maxima   2.298478252382E+00   4.255645542948E+00   2.440299260223E+01   2.058091949370E+01
 SKALA_GPW| Active atom-composite XC energy  -1.9120700396665693E+01
 SKALA_GPW| Active atom-composite electrons   4.0035595442617605E+01
 SKALA_GPW| Active atom-composite density range   1.5084515317329396E-03   6.6567731872865439E+00
 SKALA_GPW| Active atom-composite tau range   2.8368733833580915E-04   3.2512601593122810E+01
 SKALA_GPW| Active atom-composite tau integral   5.1396524077657240E+01
 SKALA_GPW| Active atom-composite max gradient   4.0591481406799218E+01
     1 P_Mix/Diag. 0.10E+00  381.0     0.54652739       -90.7604937239 -9.08E+01
 SKALA_GPW| Atom-composite cross support/maxima   2.298478252382E+00   4.260615657435E+00   2.442979751272E+01   2.059959325465E+01
 SKALA_GPW| Active atom-composite XC energy  -1.9182460152784220E+01
 SKALA_GPW| Active atom-composite electrons   4.0035043891351108E+01
 SKALA_GPW| Active atom-composite density range   1.3795232442017165E-03   6.6647045835937240E+00
 SKALA_GPW| Active atom-composite tau range   5.8306585649140266E-04   3.2540074221514608E+01
 SKALA_GPW| Active atom-composite tau integral   5.1607223731918559E+01
 SKALA_GPW| Active atom-composite max gradient   4.0633236611789243E+01
     2 P_Mix/Diag. 0.10E+00  337.9     0.49039034       -90.7588981727  1.60E-03
 SKALA_GPW| Atom-composite cross support/maxima   2.298478252382E+00   4.265081543196E+00   2.445379542904E+01   2.061611983576E+01
 SKALA_GPW| Active atom-composite XC energy  -1.9234201667315297E+01
 SKALA_GPW| Active atom-composite electrons   4.0034581856634993E+01
 SKALA_GPW| Active atom-composite density range   1.2640482195982242E-03   6.6718426506185011E+00
 SKALA_GPW| Active atom-composite tau range   7.2182046973484290E-04   3.2564327409058521E+01
 SKALA_GPW| Active atom-composite tau integral   5.1780115574883354E+01
 SKALA_GPW| Active atom-composite max gradient   4.0670518552652098E+01
     3 P_Mix/Diag. 0.10E+00  341.9     0.43993762       -90.7568398596  2.06E-03
 SKALA_GPW| Atom-composite cross support/maxima   2.298478252382E+00   4.269099383119E+00   2.447531301141E+01   2.063077936202E+01
 SKALA_GPW| Active atom-composite XC energy  -1.9277594299321244E+01
 SKALA_GPW| Active atom-composite electrons   4.0034194182841468E+01
 SKALA_GPW| Active atom-composite density range   1.1604829327815803E-03   6.6782740094844968E+00
 SKALA_GPW| Active atom-composite tau range   7.2822469449862004E-04   3.2585791993611167E+01
 SKALA_GPW| Active atom-composite tau integral   5.1922233470430328E+01
 SKALA_GPW| Active atom-composite max gradient   4.0703865059071781E+01
     4 P_Mix/Diag. 0.10E+00  336.0     0.39463810       -90.7546033507  2.24E-03
 SKALA_GPW| Atom-composite cross support/maxima   2.298478252382E+00   4.272718511653E+00   2.449463740132E+01   2.064381856599E+01
 SKALA_GPW| Active atom-composite XC energy  -1.9314063726332247E+01
 SKALA_GPW| Active atom-composite electrons   4.0033868173589596E+01
 SKALA_GPW| Active atom-composite density range   1.0675744481572008E-03   6.6840746626369807E+00
 SKALA_GPW| Active atom-composite tau range   7.3521761292464109E-04   3.2604847581054614E+01
 SKALA_GPW| Active atom-composite tau integral   5.2039300885468080E+01
 SKALA_GPW| Active atom-composite max gradient   4.0733749017447103E+01
     5 P_Mix/Diag. 0.10E+00  343.4     0.35400180       -90.7523686949  2.23E-03
 SKALA_GPW| Atom-composite cross support/maxima   2.298478252382E+00   4.275981031843E+00   2.451201207587E+01   2.065544329043E+01
 SKALA_GPW| Active atom-composite XC energy  -1.9344807324865197E+01
 SKALA_GPW| Active atom-composite electrons   4.0033593208918440E+01
 SKALA_GPW| Active atom-composite density range   9.8422825789173268E-04   6.6893096452743599E+00
 SKALA_GPW| Active atom-composite tau range   7.4250529850593630E-04   3.2621809392069252E+01
 SKALA_GPW| Active atom-composite tau integral   5.2135989812627436E+01
 SKALA_GPW| Active atom-composite max gradient   4.0760569238268445E+01
     6 P_Mix/Diag. 0.10E+00  340.7     0.31757661       -90.7502372558  2.13E-03
 SKALA_GPW| Atom-composite cross support/maxima   2.298478252382E+00   4.278922873319E+00   2.452764266006E+01   2.066582275148E+01
 SKALA_GPW| Active atom-composite XC energy  -1.9370828492529444E+01
 SKALA_GPW| Active atom-composite electrons   4.0033360428823251E+01
 SKALA_GPW| Active atom-composite density range   9.0939993009552845E-04   6.6940347156943849E+00
 SKALA_GPW| Active atom-composite tau range   7.4986523296278432E-04   3.2636934664985972E+01
 SKALA_GPW| Active atom-composite tau integral   5.2216138945776770E+01
 SKALA_GPW| Active atom-composite max gradient   4.0784659723770659E+01
     7 P_Mix/Diag. 0.10E+00  336.7     0.28492701       -90.7482616254  1.98E-03
 SKALA_GPW| Atom-composite cross support/maxima   2.298478252382E+00   4.281575152342E+00   2.454170518635E+01   2.067509741933E+01
 SKALA_GPW| Active atom-composite XC energy  -1.9392946207315457E+01
 SKALA_GPW| Active atom-composite electrons   4.0033162565742707E+01
 SKALA_GPW| Active atom-composite density range   8.4222428831092128E-04   6.6982984204019829E+00
 SKALA_GPW| Active atom-composite tau range   7.5712927472932690E-04   3.2650435189588691E+01
 SKALA_GPW| Active atom-composite tau integral   5.2282809501321722E+01
 SKALA_GPW| Active atom-composite max gradient   4.0806303802674840E+01
     8 P_Mix/Diag. 0.10E+00  337.1     0.25566199       -90.7464655671  1.80E-03
 SKALA_GPW| Atom-composite cross support/maxima   2.298478252382E+00   4.283965347532E+00   2.455435342894E+01   2.068338638330E+01
 SKALA_GPW| Active atom-composite XC energy  -1.9411830447879026E+01
 SKALA_GPW| Active atom-composite electrons   4.0032993641931142E+01
 SKALA_GPW| Active atom-composite density range   7.8192929121250409E-04   6.7021438524411057E+00
 SKALA_GPW| Active atom-composite tau range   7.6417539823872311E-04   3.2662489138817286E+01
 SKALA_GPW| Active atom-composite tau integral   5.2338474628215735E+01
 SKALA_GPW| Active atom-composite max gradient   4.0825746877790159E+01
     9 P_Mix/Diag. 0.10E+00  335.4     0.22943057       -90.7448529437  1.61E-03
 SKALA_GPW| Atom-composite cross support/maxima   2.298478252382E+00   4.286118055752E+00   2.456572374818E+01   2.069079246589E+01
 SKALA_GPW| Active atom-composite XC energy  -1.9428031110646433E+01
 SKALA_GPW| Active atom-composite electrons   4.0032848737865031E+01
 SKALA_GPW| Active atom-composite density range   7.2779640098446748E-04   6.7056097609058511E+00
 SKALA_GPW| Active atom-composite tau range   7.7091958195394728E-04   3.2673249339957181E+01
 SKALA_GPW| Active atom-composite tau integral   5.2385149286449533E+01
 SKALA_GPW| Active atom-composite max gradient   4.0843204987705214E+01
    10 P_Mix/Diag. 0.10E+00  334.0     0.20591570       -90.7434161208  1.44E-03
 SKALA_GPW| Atom-composite cross support/maxima   2.298478252382E+00   4.288055455819E+00   2.457593814338E+01   2.069740565773E+01
 SKALA_GPW| Active atom-composite XC energy  -1.9441997404279235E+01
 SKALA_GPW| Active atom-composite electrons   4.0032723820887767E+01
 SKALA_GPW| Active atom-composite density range   6.7916336013984632E-04   6.7087312149013405E+00
 SKALA_GPW| Active atom-composite tau range   7.7730785102265944E-04   3.2682848758061560E+01
 SKALA_GPW| Active atom-composite tau integral   5.2424471019274115E+01
 SKALA_GPW| Active atom-composite max gradient   4.0858870288101961E+01
    11 P_Mix/Diag. 0.10E+00  335.5     0.18483280       -90.7421409630  1.28E-03
 SKALA_GPW| Atom-composite cross support/maxima   2.298478252382E+00   4.289797637393E+00   2.458510643168E+01   2.070330540929E+01
 SKALA_GPW| Active atom-composite XC energy  -1.9454096349235876E+01
 SKALA_GPW| Active atom-composite electrons   4.0032615596262893E+01
 SKALA_GPW| Active atom-composite density range   6.3542619387815878E-04   6.7115400800316269E+00
 SKALA_GPW| Active atom-composite tau range   7.8330948619088155E-04   3.2691404389073142E+01
 SKALA_GPW| Active atom-composite tau integral   5.2457767152585298E+01
 SKALA_GPW| Active atom-composite max gradient   4.0872914942003952E+01
    12 P_Mix/Diag. 0.10E+00  335.2     0.16592580       -90.7410114882  1.13E-03
 SKALA_GPW| Atom-composite cross support/maxima   2.298478252382E+00   4.291362910423E+00   2.459332825838E+01   2.070856282027E+01
 SKALA_GPW| Active atom-composite XC energy  -1.9464625911405708E+01
 SKALA_GPW| Active atom-composite electrons   4.0032521386275548E+01
 SKALA_GPW| Active atom-composite density range   5.9605685864274986E-04   6.7140654662958257E+00
 SKALA_GPW| Active atom-composite tau range   7.8891050607925563E-04   3.2699020725795265E+01
 SKALA_GPW| Active atom-composite tau integral   5.2486100710311710E+01
 SKALA_GPW| Active atom-composite max gradient   4.0885494674636988E+01
    13 P_Mix/Diag. 0.10E+00  339.4     0.14896594       -90.7400119684  1.00E-03
 SKALA_GPW| Atom-composite cross support/maxima   2.298478252382E+00   4.292768037490E+00   2.460069457713E+01   2.071324226225E+01
 SKALA_GPW| Active atom-composite XC energy  -1.9473828583044408E+01
 SKALA_GPW| Active atom-composite electrons   4.0032439011962126E+01
 SKALA_GPW| Active atom-composite density range   5.6059739987016804E-04   6.7163340635828517E+00
 SKALA_GPW| Active atom-composite tau range   7.9410896390036336E-04   3.2705792214242180E+01
 SKALA_GPW| Active atom-composite tau integral   5.2510322730738459E+01
 SKALA_GPW| Active atom-composite max gradient   4.0896751365702073E+01
    14 P_Mix/Diag. 0.10E+00  334.0     0.13374942       -90.7391278731  8.84E-04
 SKALA_GPW| Atom-composite cross support/maxima   2.298478252382E+00   4.294028386637E+00   2.460728862021E+01   2.071740232730E+01
 SKALA_GPW| Active atom-composite XC energy  -1.9481902535569922E+01
 SKALA_GPW| Active atom-composite electrons   4.0032366692228010E+01
 SKALA_GPW| Active atom-composite density range   5.2864746767297037E-04   6.7183703674378279E+00
 SKALA_GPW| Active atom-composite tau range   7.9891156349146445E-04   3.2711804817543580E+01
 SKALA_GPW| Active atom-composite tau integral   5.2531118379483836E+01
 SKALA_GPW| Active atom-composite max gradient   4.0906814721651955E+01
    15 P_Mix/Diag. 0.10E+00  334.4     0.12009471       -90.7383457620  7.82E-04
 SKALA_GPW| Atom-composite cross support/maxima   2.298478252382E+00   4.295158029237E+00   2.461318649448E+01   2.072109638830E+01
 SKALA_GPW| Active atom-composite XC energy  -1.9489010940492680E+01
 SKALA_GPW| Active atom-composite electrons   4.0032302962993782E+01
 SKALA_GPW| Active atom-composite density range   4.9985299781263141E-04   6.7201968244877923E+00
 SKALA_GPW| Active atom-composite tau range   8.0333115290194025E-04   3.2717136859218044E+01
 SKALA_GPW| Active atom-composite tau integral   5.2549043268115419E+01
 SKALA_GPW| Active atom-composite max gradient   4.0915803273783126E+01
    16 P_Mix/Diag. 0.10E+00  333.8     0.10783982       -90.7376535336  6.92E-04
 SKALA_GPW| Atom-composite cross support/maxima   2.298478252382E+00   4.296169815351E+00   2.461845761234E+01   2.072437294782E+01
 SKALA_GPW| Active atom-composite XC energy  -1.9495289147187542E+01
 SKALA_GPW| Active atom-composite electrons   4.0032246613983403E+01
 SKALA_GPW| Active atom-composite density range   4.7389808815273240E-04   6.7218339477404134E+00
 SKALA_GPW| Active atom-composite tau range   8.0738480110226121E-04   3.2721859539199599E+01
 SKALA_GPW| Active atom-composite tau integral   5.2564550940288584E+01
 SKALA_GPW| Active atom-composite max gradient   4.0923825066078322E+01
    17 P_Mix/Diag. 0.10E+00  342.1     0.09683999       -90.7370405305  6.13E-04
 SKALA_GPW| Atom-composite cross support/maxima   2.298478252382E+00   4.297075468418E+00   2.462316524190E+01   2.072727610339E+01
 SKALA_GPW| Active atom-composite XC energy  -1.9500849923444402E+01
 SKALA_GPW| Active atom-composite electrons   4.0032196639025543E+01
 SKALA_GPW| Active atom-composite density range   4.5049973715525360E-04   6.7233004617261605E+00
 SKALA_GPW| Active atom-composite tau range   8.1109229045954348E-04   3.2726037592921472E+01
 SKALA_GPW| Active atom-composite tau integral   5.2578013666929877E+01
 SKALA_GPW| Active atom-composite max gradient   4.0930978548252817E+01
    18 DIIS/Diag.  0.31E-04  343.2     0.08611708       -90.7364972479  5.43E-04
 SKALA_GPW| Atom-composite cross support/maxima   2.298478252382E+00   4.304970378327E+00   2.466368043022E+01   2.075111264598E+01
 SKALA_GPW| Active atom-composite XC energy  -1.9546931546237282E+01
 SKALA_GPW| Active atom-composite electrons   4.0031778791225676E+01
 SKALA_GPW| Active atom-composite density range   2.3796335315574981E-04   6.7361397876349516E+00
 SKALA_GPW| Active atom-composite tau range   8.4711234579298899E-04   3.2760017792772103E+01
 SKALA_GPW| Active atom-composite tau integral   5.2676796130111882E+01
 SKALA_GPW| Active atom-composite max gradient   4.0992007473509780E+01
    19 DIIS/Diag.  0.28E-03  339.1     0.00025794       -90.7319928293  4.50E-03
 SKALA_GPW| Atom-composite cross support/maxima   2.298478252382E+00   4.305020891991E+00   2.466401704662E+01   2.075148362465E+01
 SKALA_GPW| Active atom-composite XC energy  -1.9546969564233088E+01
 SKALA_GPW| Active atom-composite electrons   4.0031779458636635E+01
 SKALA_GPW| Active atom-composite density range   2.3825836896092115E-04   6.7362141098246573E+00
 SKALA_GPW| Active atom-composite tau range   8.4707085572447306E-04   3.2760601018534729E+01
 SKALA_GPW| Active atom-composite tau integral   5.2677644219929704E+01
 SKALA_GPW| Active atom-composite max gradient   4.0992596560777663E+01
    20 DIIS/Diag.  0.36E-03  335.1     0.00044527       -90.7319910508  1.78E-06
 SKALA_GPW| Atom-composite cross support/maxima   2.298478252382E+00   4.305037333056E+00   2.466416625725E+01   2.075171487445E+01
 SKALA_GPW| Active atom-composite XC energy  -1.9548288726942257E+01
 SKALA_GPW| Active atom-composite electrons   4.0031769822564662E+01
 SKALA_GPW| Active atom-composite density range   2.3846545977972762E-04   6.7362336548474353E+00
 SKALA_GPW| Active atom-composite tau range   8.4639439093228078E-04   3.2760969616801795E+01
 SKALA_GPW| Active atom-composite tau integral   5.2682898152507242E+01
 SKALA_GPW| Active atom-composite max gradient   4.0992886891543435E+01
    21 DIIS/Diag.  0.62E-03  336.0     0.00149731       -90.7319891908  1.86E-06
 SKALA_GPW| Atom-composite cross support/maxima   2.298478252382E+00   4.305167721783E+00   2.466512849912E+01   2.075293202995E+01
 SKALA_GPW| Active atom-composite XC energy  -1.9551471339745003E+01
 SKALA_GPW| Active atom-composite electrons   4.0031748631338026E+01
 SKALA_GPW| Active atom-composite density range   2.3954212985486168E-04   6.7364146602050443E+00
 SKALA_GPW| Active atom-composite tau range   8.4471582166333579E-04   3.2762892987188152E+01
 SKALA_GPW| Active atom-composite tau integral   5.2696939420301426E+01
 SKALA_GPW| Active atom-composite max gradient   4.0994638263761026E+01
    22 DIIS/Diag.  0.26E-02  334.8     0.00343448       -90.7319680999  2.11E-05
 SKALA_GPW| Atom-composite cross support/maxima   2.298478252382E+00   4.304514778953E+00   2.466076054805E+01   2.074809018639E+01
 SKALA_GPW| Active atom-composite XC energy  -1.9550356968910023E+01
 SKALA_GPW| Active atom-composite electrons   4.0031744687601979E+01
 SKALA_GPW| Active atom-composite density range   2.3573422366701376E-04   6.7354558767368786E+00
 SKALA_GPW| Active atom-composite tau range   8.4555546238613459E-04   3.2755280452915741E+01
 SKALA_GPW| Active atom-composite tau integral   5.2683579175766297E+01
 SKALA_GPW| Active atom-composite max gradient   4.0986982785032147E+01
    23 DIIS/Diag.  0.97E-04  332.6     0.00032441       -90.7319997487 -3.16E-05
 SKALA_GPW| Atom-composite cross support/maxima   2.298478252382E+00   4.304551083907E+00   2.466098263140E+01   2.074830563471E+01
 SKALA_GPW| Active atom-composite XC energy  -1.9549061894246083E+01
 SKALA_GPW| Active atom-composite electrons   4.0031754736143704E+01
 SKALA_GPW| Active atom-composite density range   2.3609092506057678E-04   6.7355109994898887E+00
 SKALA_GPW| Active atom-composite tau range   8.4607659668792040E-04   3.2755632486394127E+01
 SKALA_GPW| Active atom-composite tau integral   5.2678798025018693E+01
 SKALA_GPW| Active atom-composite max gradient   4.0987366100786268E+01
    24 DIIS/Diag.  0.89E-07  332.2     0.00003679       -90.7320006142 -8.65E-07
 SKALA_GPW| Atom-composite cross support/maxima   2.298478252382E+00   4.304553993836E+00   2.466100108877E+01   2.074832471783E+01
 SKALA_GPW| Active atom-composite XC energy  -1.9549151742243467E+01
 SKALA_GPW| Active atom-composite electrons   4.0031754050529230E+01
 SKALA_GPW| Active atom-composite density range   2.3612392590793935E-04   6.7355153335802038E+00
 SKALA_GPW| Active atom-composite tau range   8.4603085086070915E-04   3.2755663019695255E+01
 SKALA_GPW| Active atom-composite tau integral   5.2679110049211758E+01
 SKALA_GPW| Active atom-composite max gradient   4.0987398423563619E+01
    25 DIIS/Diag.  0.36E-07  335.3     0.00000671       -90.7320006189 -4.67E-09
 SKALA_GPW| Atom-composite cross support/maxima   2.298478252382E+00   4.304553979113E+00   2.466100086434E+01   2.074832424286E+01
 SKALA_GPW| Active atom-composite XC energy  -1.9549129411045421E+01
 SKALA_GPW| Active atom-composite electrons   4.0031754227262446E+01
 SKALA_GPW| Active atom-composite density range   2.3613274216911464E-04   6.7355153294006396E+00
 SKALA_GPW| Active atom-composite tau range   8.4603923077263400E-04   3.2755662269980995E+01
 SKALA_GPW| Active atom-composite tau integral   5.2679027402969453E+01
 SKALA_GPW| Active atom-composite max gradient   4.0987397904061154E+01
    26 DIIS/Diag.  0.33E-09  337.7     0.00000067       -90.7320006212 -2.27E-09

  *** SCF run converged in    26 steps ***


  Electronic density on regular grids:        -36.6248263594        3.3751736406
  Core density on regular grids:               28.0000000000      -12.0000000000
  Hard and soft densities (Lebedev):          -22.5632624378      -19.1880887975
  Total Rho_soft + Rho1_hard - Rho1_soft      -39.9999999998
  Total charge density (r-space):             -11.9999999998
  Total Rho_soft + Rho0_soft (g-space):        -0.0000000035

  Overlap energy of the core charge distribution:               0.00000000000000
  Self energy of the core charge distribution:               -160.19523693469932
  Core Hamiltonian energy:                                     32.13913680946131
  Hartree energy:                                              61.71833186772248
  Exchange-correlation energy:                                  0.00000000000000
  Dispersion energy:                                           -0.11209560803386

  GAPW| Exc from hard and soft atomic rho1:                   -19.54912941104542
  GAPW| local Eh = 1 center integrals:                         -4.73300734456540

  Total energy:                                               -90.73200062116021

  outer SCF iter =    1 RMS gradient =   0.00E+00 energy =        -90.7320006212
  outer SCF loop converged in   1 iterations or   26 steps


 !-----------------------------------------------------------------------------!
                     Mulliken Population Analysis

 #  Atom  Element  Kind  Atomic population                           Net charge
       1     Li       1          2.174882                              0.825118
       2     Li       1          2.174898                              0.825102
       3     Li       1          2.174898                              0.825102
       4     Li       1          2.174898                              0.825102
       5     Cl       2          7.825105                             -0.825105
       6     Cl       2          7.825105                             -0.825105
       7     Cl       2          7.825105                             -0.825105
       8     Cl       2          7.825109                             -0.825109
 # Total charge                             40.000000                 -0.000000

 !-----------------------------------------------------------------------------!

 !-----------------------------------------------------------------------------!
                           Hirshfeld Charges

  #Atom  Element  Kind  Ref Charge     Population                    Net charge
      1       Li     1       3.000          3.071                        -0.071
      2       Li     1       3.000          3.071                        -0.071
      3       Li     1       3.000          3.071                        -0.071
      4       Li     1       3.000          3.071                        -0.071
      5       Cl     2       7.000          6.929                         0.071
      6       Cl     2       7.000          6.929                         0.071
      7       Cl     2       7.000          6.929                         0.071
      8       Cl     2       7.000          6.929                         0.071

  Total Charge                                                            0.000
 !-----------------------------------------------------------------------------!

 ENERGY| Total FORCE_EVAL ( QS ) energy [hartree]            -90.732000621160211

 -------------------------------------------------------------------------------
 -                                                                             -
 -                                DBCSR STATISTICS                             -
 -                                                                             -
 -------------------------------------------------------------------------------
 COUNTER                                    TOTAL       BLAS       SMM       ACC
 flops inhomo. stacks                           0       0.0%      0.0%      0.0%
 flops total                         0.000000E+00       0.0%      0.0%      0.0%
 flops max/rank                      0.000000E+00       0.0%      0.0%      0.0%
 matmuls inhomo. stacks                         0       0.0%      0.0%      0.0%
 matmuls total                                  0       0.0%      0.0%      0.0%
 number of processed stacks                     0       0.0%      0.0%      0.0%
 average stack size                                     0.0       0.0       0.0
 marketing flops                     0.000000E+00
 -------------------------------------------------------------------------------

 -------------------------------------------------------------------------------
 -                                                                             -
 -                                GRID STATISTICS                              -
 -                                                                             -
 -------------------------------------------------------------------------------
 LP    KERNEL             BACKEND                              COUNT     PERCENT
 6     collocate ortho    CPU                                 532764      16.42%
 6     integrate ortho    CPU                                 513032      15.81%
 4     collocate ortho    CPU                                 486972      15.01%
 4     integrate ortho    CPU                                 468936      14.45%
 5     collocate ortho    CPU                                 293760       9.05%
 7     collocate ortho    CPU                                 293760       9.05%
 5     integrate ortho    CPU                                 282880       8.72%
 7     integrate ortho    CPU                                 282880       8.72%
 8     collocate ortho    CPU                                  45792       1.41%
 8     integrate ortho    CPU                                  44096       1.36%
 4     collocate general  CPU                                    104       0.00%
 4     integrate general  CPU                                    104       0.00%
 0     collocate general  CPU                                     16       0.00%
 0     integrate general  CPU                                      8       0.00%
 -------------------------------------------------------------------------------

 -------------------------------------------------------------------------------
 -                                                                             -
 -                          OFFLOAD MEMPOOL STATISTICS                         -
 -                                                                             -
 -------------------------------------------------------------------------------
 Memory consumption                Number of allocations  Used [MiB]  Size [MiB]
 Host                                                  8          60          58
 -------------------------------------------------------------------------------

 MEMORY| Estimated peak process memory [MiB]                                5857

 -------------------------------------------------------------------------------
 ----                             MULTIGRID INFO                            ----
 -------------------------------------------------------------------------------
 count for grid        1:           4773          cutoff [a.u.]          400.00
 count for grid        2:          23178          cutoff [a.u.]          133.33
 count for grid        3:           9583          cutoff [a.u.]           44.44
 count for grid        4:          13282          cutoff [a.u.]           14.81
 count for grid        5:          13853          cutoff [a.u.]            4.94
 total gridlevel count  :          64669

 -------------------------------------------------------------------------------
 -                                                                             -
 -                           R E F E R E N C E S                               -
 -                                                                             -
 -------------------------------------------------------------------------------
 
 CP2K version 2026.2 (Development Version), the CP2K developers group (2026).
 CP2K is freely available from https://www.cp2k.org/ .
 
 M. Iannuzzi, J. Wilhelm, F. Stein, A. Bussy, H. Elgabarty, D. Golze, A. Hehn, 
 M. Graml, S. Marek, B. Sertcan Gökmen, C. Schran, H. Forbert, R. Z. 
 Khaliullin, A. Kozhevnikov, M. Taillefumier, R. Meli, V. V. Rybkin, M. Brehm, 
 R. Schade, O. Schütt, J. V. Pototschnig, H. Mirhosseini, A. Knüpfer, D. Marx, 
 M. Krack, J. Hutter, T. D. Kühne.
 J. Phys. Chem. B 130, 1237-1310 (2026).
 The CP2K Program Package Made Simple.
 https://doi.org/10.1021/acs.jpcb.5c05851

 L. Wittmann, I. Gordiy, M. Friede, B. Helmich-Paris, S. Grimme, A. Hansen, M. 
 Bursch.
 Phys. Chem. Chem. Phys. 26, 21379-21394 (2024).
 Extension of the D3 and D4 London dispersion corrections to the full actinides 
 series.
 https://doi.org/10.1039/d4cp01514b

 T. D. Kühne, M. Iannuzzi, M. Del Ben, V. V. Rybkin, P. Seewald, F. Stein, T. 
 Laino, R. Z. Khaliullin, O. Schütt, F. Schiffmann, D. Golze, J. Wilhelm, S. 
 Chulkov, M. H. Bani-Hashemian, V. Weber, U. Borstnik, M. Taillefumier, A. S. 
 Jakobovits, A. Lazzaro, H. Pabst, T. Müller, R. Schade, M. Guidon, S. 
 Andermatt, N. Holmberg, G. K. Schenter, A. Hehn, A. Bussy, F. Belleflamme, G. 
 Tabacchi, A. Glöß, M. Lass, I. Bethune, C. J. Mundy, C. Plessl, M. Watkins, 
 J. VandeVondele, M. Krack, J. Hutter.
 J. Chem. Phys. 152, 194103 (2020).
 CP2K: An electronic structure and molecular dynamics software package - 
 Quickstep: Efficient and accurate electronic structure calculations.
 https://doi.org/10.1063/5.0007045

 A. Togo, I. Tanaka.
 arXiv, 1808.01590 (2018).
 Spglib : a software library for crystal symmetry search.

 L. Goerigk, A. Hansen, C. Bauer, S. Ehrlich, A. Najibi, S. Grimme.
 Phys. Chem. Chem. Phys. 19, 32184-32215 (2017).
 A look at the density functional theory zoo with the advanced GMTKN55 database 
 for general main group thermochemistry, kinetics and noncovalent interactions.
 https://doi.org/10.1039/C7CP04913G

 O. Schuett, P. Messmer, J. Hutter, J. VandeVondele.
 Electronic Structure Calculations on Graphics Processing Units, 173-190 (2016).
 GPU-Accelerated Sparse Matrix-Matrix Multiplication for Linear Scaling Density 
 Functional Theory.
 https://doi.org/10.1002/9781118670712.ch8

 U. Borstnik, J. VandeVondele, V. Weber, J. Hutter.
 Parallel Comput. 40, 47-58 (2014).
 Sparse matrix multiplication: The distributed block-compressed sparse row 
 library.
 https://doi.org/10.1016/j.parco.2014.03.012

 S. Grimme, S. Ehrlich, L. Goerigk.
 J. Comput. Chem. 32, 1456 (2011).
 Effect of the damping function in dispersion corrected density functional 
 theory.
 https://doi.org/10.1002/jcc.21759

 S. Grimme, J. Antony, S. Ehrlich, H. Krieg.
 J. Chem. Phys. 132, 154104 (2010).
 A consistent and accurate ab initio parametrization of density functional 
 dispersion correction (DFT-D) for the 94 elements H-Pu.
 https://doi.org/10.1063/1.3382344

 J. VandeVondele, J. Hutter.
 J. Chem. Phys. 127, 114105 (2007).
 Gaussian basis sets for accurate calculations on molecular systems in gas and 
 condensed phases.
 https://doi.org/10.1063/1.2770708

 M. Krack.
 Theor. Chem. Acc. 114, 145-152 (2005).
 Pseudopotentials for H to Kr optimized for gradient-corrected 
 exchange-correlation functionals.
 https://doi.org/10.1007/s00214-005-0655-y

 M. Frigo, S. G. Johnson.
 Proc. IEEE 93, 216-231 (2005).
 The design and implementation of FFTW3.
 https://doi.org/10.1109/JPROC.2004.840301

 M. Krack, M. Parrinello.
 Phys. Chem. Chem. Phys. 2, 2105-2112 (2000).
 All-electron ab-initio molecular dynamics.
 https://doi.org/10.1039/b001167n

 G. Lippert, J. Hutter, M. Parrinello.
 Theor. Chem. Acc. 103, 124-140 (1999).
 The Gaussian and augmented-plane-wave density functional method for ab initio 
 molecular dynamics simulations.
 https://doi.org/10.1007/s002140050523

 C. Hartwigsen, S. Goedecker, J. Hutter.
 Phys. Rev. B 58, 3641-3662 (1998).
 Relativistic separable dual-space Gaussian pseudopotentials from H to Rn.
 https://doi.org/10.1103/PhysRevB.58.3641

 S. Goedecker, M. Teter, J. Hutter.
 Phys. Rev. B 54, 1703-1710 (1996).
 Separable dual-space Gaussian pseudopotentials.
 https://doi.org/10.1103/PhysRevB.54.1703

 C.-L. Fu, K.-M. Ho.
 Phys. Rev. B 28, 5480-5486 (1983).
 First-principles calculation of the equilibrium ground-state properties of 
 transition metals: Applications to Nb and Mo.
 https://doi.org/10.1103/PhysRevB.28.5480

 T. G. Worlton, J. L. Warren.
 Comput. Phys. Commun. 3, 88-117 (1972).
 Group-theoretical analysis of lattice vibrations.
 https://doi.org/10.1016/0010-4655(72)90058-6


 -------------------------------------------------------------------------------
 -                                                                             -
 -                                T I M I N G                                  -
 -                                                                             -
 -------------------------------------------------------------------------------
 SUBROUTINE                       CALLS  ASD         SELF TIME        TOTAL TIME
                                MAXIMUM       AVERAGE  MAXIMUM  AVERAGE  MAXIMUM
 CP2K                                 1  1.0    0.034    0.034 8808.418 8808.418
 qs_energies                          1  2.0    0.001    0.001 8808.068 8808.068
 scf_env_do_scf                       1  3.0    0.000    0.000 8806.341 8806.341
 scf_env_do_scf_inner_loop           26  4.0    0.073    0.073 8806.341 8806.341
 qs_ks_update_qs_env                 26  5.0    0.000    0.000 8734.647 8734.647
 rebuild_ks_matrix                   26  6.0    0.000    0.000 8733.255 8733.255
 qs_ks_build_kohn_sham_matrix        26  7.0    0.021    0.021 8733.255 8733.255
 calculate_vxc_atom                  26  8.0 7424.037 7424.037 8701.524 8701.524
 skala_atom_torch_backward           78  9.0  666.832  666.832  666.832  666.832
 skala_atom_torch_forward            78  9.0    0.014    0.014  363.577  363.577
 torch_model_forward_mol_tensor      78 10.0  363.564  363.564  363.564  363.564
 -------------------------------------------------------------------------------

 The number of warnings for this run is : 1
 
 -------------------------------------------------------------------------------
  **** **** ******  **  PROGRAM ENDED AT                 2026-09-01 19:44:29.350
 ***** ** ***  *** **   PROGRAM RAN ON                                    cge069
 **    ****   ******    PROGRAM RAN BY                                  kuehne88
 ***** **    ** ** **   PROGRAM PROCESS ID                               4192665
  **** **  *******  **  PROGRAM STOPPED IN /data/home2/kuehne88/cp2k-native-skal
                                           a/goldzak12/runs/production/hybrid-di
                                           rect/LiCl/v10
