 DBCSR| CPU Multiplication driver                                           BLAS (U)
 DBCSR| Multrec recursion limit                                              512 (U)
 DBCSR| Multiplication stack size                                           1000 (D)
 DBCSR| Maximum elements for images                                    UNLIMITED (U)
 DBCSR| Multiplicative factor virtual images                                   1 (U)
 DBCSR| Use multiplication densification                                       T (D)
 DBCSR| Multiplication size stacks                                             3 (U)
 DBCSR| Use memory pool for CPU allocation                                     F (U)
 DBCSR| OMP: Current number of threads                                         8
 DBCSR| OMP: Max number of threads                                             8
 DBCSR| Split modifier for TAS multiplication algorithm                  1.0E+00 (U)


  **** **** ******  **  PROGRAM STARTED AT               2026-09-21 23:55:29.350
 ***** ** ***  *** **   PROGRAM STARTED ON                                ctu012
 **    ****   ******    PROGRAM STARTED BY                              kuehne88
 ***** **    ** ** **   PROGRAM PROCESS ID                               1353540
  **** **  *******  **  PROGRAM STARTED IN /bigdata/casus/fwuk/shared/kuehne88-n
                                           ative-skala/lc10-bandgaps-20260921/de
                                           fault-extra/runs/Si/hybrid-direct/tzv
                                           pp

 CP2K| version string:                 CP2K version 2026.2 (Development Version)
 CP2K| source code revision number:                                   37aedacbb3
 CP2K| cp2kflags: omp fftw3 spglib openblas libtorch libtorch_cuda              
 CP2K| is freely available from                            https://www.cp2k.org/
 CP2K| Program compiled at                                   2026-09-08 17:20:25
 CP2K| Program compiled on                                                ctu003
 CP2K| Program compiled for                                               x86_64
 CP2K| Data directory path            /home/kuehne88/cp2k-native-skala/cp2k/data
 CP2K| Input file name                                          actual-input.inp

 GLOBAL| Force Environment number                                              1
 GLOBAL| Basis set file name                             BASIS_MOLOPT_UZH_2026.2
 GLOBAL| Potential file name                                POTENTIAL_UZH_2026.2
 GLOBAL| MM Potential file name                                     MM_POTENTIAL
 GLOBAL| Coordinate file name                                      __STD_INPUT__
 GLOBAL| Method name                                                        CP2K
 GLOBAL| Project name                            lc10_gap_Si_hybrid_direct_tzvpp
 GLOBAL| Run type                                                         ENERGY
 GLOBAL| FFT library                                                       FFTW3
 GLOBAL| Diagonalization library                                       ScaLAPACK
 GLOBAL| Cholesky decomposition library                                ScaLAPACK
 GLOBAL| DGEMM library                                                      BLAS
 GLOBAL| Direct generalized diagonalization requested                          F
 GLOBAL| Orthonormality check for eigenvectors                          DISABLED
 GLOBAL| Matrix multiplication library                                 ScaLAPACK
 GLOBAL| All-to-all communication in single precision                          F
 GLOBAL| Grid backend                                                       AUTO
 GLOBAL| Global print level                                               MEDIUM
 GLOBAL| MPI I/O enabled                                                       T
 GLOBAL| Total number of message passing processes                             1
 GLOBAL| Number of distributed systems (nodes)                                 1
 GLOBAL| Number of threads for this process                                    8
 GLOBAL| This output is from process                                           0
 GLOBAL| OpenMP stack size per thread (OMP_STACKSIZE)                       256M
 GLOBAL| CPU model name                         AMD EPYC 9965 192-Core Processor

 MEMORY| system memory details [Kb]
 MEMORY|                        rank 0           min           max       average
 MEMORY| MemTotal           2377423472    2377423472    2377423472    2377423472
 MEMORY| MemFree            2181716088    2181716088    2181716088    2181716088
 MEMORY| Buffers                     0             0             0             0
 MEMORY| Cached               11904980      11904980      11904980      11904980
 MEMORY| Slab                  4192584       4192584       4192584       4192584
 MEMORY| SReclaimable           854740        854740        854740        854740
 MEMORY| MemLikelyFree      2194475808    2194475808    2194475808    2194475808


 *** Fundamental physical constants (SI units) ***

 *** Literature: B. J. Mohr and B. N. Taylor,
 ***             CODATA recommended values of the fundamental physical
 ***             constants: 2006, Web Version 5.1
 ***             http://physics.nist.gov/constants

 Speed of light in vacuum [m/s]                             2.99792458000000E+08
 Magnetic constant or permeability of vacuum [N/A**2]       1.25663706143592E-06
 Electric constant or permittivity of vacuum [F/m]          8.85418781762039E-12
 Planck constant (h) [J*s]                                  6.62606896000000E-34
 Planck constant (h-bar) [J*s]                              1.05457162825177E-34
 Elementary charge [C]                                      1.60217648700000E-19
 Electron mass [kg]                                         9.10938215000000E-31
 Electron g factor [ ]                                     -2.00231930436220E+00
 Proton mass [kg]                                           1.67262163700000E-27
 Fine-structure constant                                    7.29735253760000E-03
 Rydberg constant [1/m]                                     1.09737315685270E+07
 Avogadro constant [1/mol]                                  6.02214179000000E+23
 Boltzmann constant [J/K]                                   1.38065040000000E-23
 Atomic mass unit [kg]                                      1.66053878200000E-27
 Bohr radius [m]                                            5.29177208590000E-11

 *** Conversion factors ***

 [u] -> [a.u.]                                              1.82288848426455E+03
 [Angstrom] -> [Bohr] = [a.u.]                              1.88972613288564E+00
 [a.u.] = [Bohr] -> [Angstrom]                              5.29177208590000E-01
 [a.u.] -> [s]                                              2.41888432650478E-17
 [a.u.] -> [fs]                                             2.41888432650478E-02
 [a.u.] -> [J]                                              4.35974393937059E-18
 [a.u.] -> [N]                                              8.23872205491840E-08
 [a.u.] -> [K]                                              3.15774647902944E+05
 [a.u.] -> [kJ/mol]                                         2.62549961709828E+03
 [a.u.] -> [kcal/mol]                                       6.27509468713739E+02
 [a.u.] -> [Pa]                                             2.94210107994716E+13
 [a.u.] -> [bar]                                            2.94210107994716E+08
 [a.u.] -> [atm]                                            2.90362800883016E+08
 [a.u.] -> [eV]                                             2.72113838565563E+01
 [a.u.] -> [Hz]                                             6.57968392072181E+15
 [a.u.] -> [1/cm] (wave numbers)                            2.19474631370540E+05
 [a.u./Bohr**2] -> [1/cm]                                   5.14048714338585E+03
 

 CELL| Volume [angstrom^3]:                                            40.025752
 CELL| Vector a [angstrom]:       3.840     0.000     0.000   |a| =     3.839590
 CELL| Vector b [angstrom]:       1.920     3.325     0.000   |b| =     3.839590
 CELL| Vector c [angstrom]:       1.920     1.108     3.135   |c| =     3.839590
 CELL| Angle (b,c), alpha [degree]:                                    60.000000
 CELL| Angle (a,c), beta  [degree]:                                    60.000000
 CELL| Angle (a,b), gamma [degree]:                                    60.000000
 CELL| Numerically orthorhombic:                                              NO
 CELL| Periodicity                                                           XYZ

 CELL_REF| Volume [angstrom^3]:                                        40.025752
 CELL_REF| Vector a [angstrom     3.840     0.000     0.000   |a| =     3.839590
 CELL_REF| Vector b [angstrom     1.920     3.325     0.000   |b| =     3.839590
 CELL_REF| Vector c [angstrom     1.920     1.108     3.135   |c| =     3.839590
 CELL_REF| Angle (b,c), alpha [degree]:                                60.000000
 CELL_REF| Angle (a,c), beta  [degree]:                                60.000000
 CELL_REF| Angle (a,b), gamma [degree]:                                60.000000
 CELL_REF| Numerically orthorhombic:                                          NO
 CELL_REF| Periodicity                                                       XYZ

 GENERATE|  Preliminary Number of Bonds generated:                             0
 GENERATE|  Achieved consistency in connectivity generation.

 *******************************************************************************
 *******************************************************************************
 **                                                                           **
 **     #####                         ##              ##                      **
 **    ##   ##            ##          ##              ##                      **
 **   ##     ##                       ##            ######                    **
 **   ##     ##  ##   ##  ##   #####  ##  ##   ####   ##    #####    #####    **
 **   ##     ##  ##   ##  ##  ##      ## ##   ##      ##   ##   ##  ##   ##   **
 **   ##  ## ##  ##   ##  ##  ##      ####     ###    ##   ######   ######    **
 **    ##  ###   ##   ##  ##  ##      ## ##      ##   ##   ##       ##        **
 **     #######   #####   ##   #####  ##  ##  ####    ##    #####   ##        **
 **           ##                                                    ##        **
 **                                                                           **
 **                                                ... make the atoms dance   **
 **                                                                           **
 **            Copyright (C) by CP2K developers group (2000-2026)             **
 **                      J. Chem. Phys. 152, 194103 (2020)                    **
 **                                                                           **
 *******************************************************************************

 DFT| Spin restricted Kohn-Sham (RKS) calculation                            RKS
 DFT| Multiplicity                                                             1
 DFT| Number of spin states                                                    1
 DFT| Charge                                                                   0
 DFT| Self-interaction correction (SIC)                                       NO
 DFT| Cutoffs: density                                              1.000000E-10
 DFT|          gradient                                             1.000000E-10
 DFT|          tau                                                  1.000000E-10
 DFT|          cutoff_smoothing_range                               0.000000E+00
 DFT| XC density smoothing                                                  NONE
 DFT| XC derivatives                                                          PW

 FUNCTIONAL| GAUXC:
 FUNCTIONAL| Functional computed by GauXC Skala model SKALA                     

 vdW POTENTIAL|                                                   Pair Potential
 vdW POTENTIAL|          DFT-D3 (Version 3.1)
 vdW POTENTIAL|          Potential Form: S. Grimme et al, JCP 132: 154104 (2010)
 vdW POTENTIAL|          BJ Damping: S. Grimme et al, JCC 32: 1456 (2011)
 vdW POTENTIAL|          Cutoff Radius [Bohr]:                             37.79
 vdW POTENTIAL|          s6 Scaling Factor:                               1.0000
 vdW POTENTIAL|          a1 Damping Factor:                               0.3981
 vdW POTENTIAL|          s8 Scaling Factor:                               1.9889
 vdW POTENTIAL|          a2 Damping Factor:                               4.4211
 vdW POTENTIAL|          Cutoff for CN calculation:                   0.1000E-05

 QS| Method:                                                                GAPW
 QS| Density plane wave grid type                        NON-SPHERICAL FULLSPACE
 QS| Number of grid levels:                                                    5
 QS| Density cutoff [a.u.]:                                                400.0
 QS| Multi grid cutoff [a.u.]: 1) grid level                               400.0
 QS|                           2) grid level                               133.3
 QS|                           3) grid level                                44.4
 QS|                           4) grid level                                14.8
 QS|                           5) grid level                                 4.9
 QS| Grid level progression factor:                                          3.0
 QS| Relative density cutoff [a.u.]:                                        30.0
 QS| Interaction thresholds: eps_pgf_orb:                                1.0E-07
 QS|                         eps_filter_matrix:                          0.0E+00
 QS|                         eps_core_charge:                            1.0E-16
 QS|                         eps_rho_gspace:                             1.0E-14
 QS|                         eps_rho_rspace:                             1.0E-14
 QS|                         eps_gvg_rspace:                             1.0E-07
 QS|                         eps_ppl:                                    1.0E-02
 QS|                         eps_ppnl:                                   1.0E-09
 QS| GAPW|      XC integration using accurate scheme: Ref. exponent     6.000000
 QS| GAPW|      One center basis extended with primitives (small:s)
 QS| GAPW|                   eps_fit:                                    1.0E-04
 QS| GAPW|                   eps_iso:                                    1.0E-12
 QS| GAPW|                   eps_svd:                                    1.0E-08
 QS| GAPW|                   eps_cpc:                                    1.0E-14
 QS| GAPW|   atom-r-grid: quadrature:                                     GC_LOG
 QS| GAPW|      atom-s-grid:  max l :                                          6
 QS| GAPW|      max_l_rho0 :                                                   4
 QS| GAPW|      At least one kind is NOT PAW, i.e. it has only soft AO 
 QS| GAPW|      The NOT PAW atoms are treated fully GPW


 ATOMIC KIND INFORMATION

  1. Atomic kind: Si                                    Number of atoms:       2

     Orbital Basis Set                                   TZV2P-MOLOPT-PBE-GTH-q4

       Number of orbital shell sets:                                           1
       Number of orbital shells:                                               9
       Number of primitive Cartesian functions:                                4
       Number of Cartesian basis functions:                                   34
       Number of spherical basis functions:                                   29
       Norm type:                                                              2

       Normalised Cartesian orbitals:

                        Set   Shell   Orbital            Exponent    Coefficient

                          1       1    2s                1.225726       0.396008
                                                         0.420991      -0.156102
                                                         0.169524      -0.164194
                                                         0.047522       0.001359

                          1       2    3s                1.225726      -0.314955
                                                         0.420991       0.115254
                                                         0.169524      -0.070030
                                                         0.047522      -0.053096

                          1       3    4s                1.225726      -0.770932
                                                         0.420991       0.139640
                                                         0.169524      -0.125600
                                                         0.047522       0.070994

                          1       4    3px               1.225726       0.193725
                                                         0.420991      -0.297086
                                                         0.169524      -0.078660
                                                         0.047522       0.000093
                          1       4    3py               1.225726       0.193725
                                                         0.420991      -0.297086
                                                         0.169524      -0.078660
                                                         0.047522       0.000093
                          1       4    3pz               1.225726       0.193725
                                                         0.420991      -0.297086
                                                         0.169524      -0.078660
                                                         0.047522       0.000093

                          1       5    4px               1.225726       0.165208
                                                         0.420991      -0.261223
                                                         0.169524       0.105025
                                                         0.047522       0.021509
                          1       5    4py               1.225726       0.165208
                                                         0.420991      -0.261223
                                                         0.169524       0.105025
                                                         0.047522       0.021509
                          1       5    4pz               1.225726       0.165208
                                                         0.420991      -0.261223
                                                         0.169524       0.105025
                                                         0.047522       0.021509

                          1       6    5px               1.225726      -1.548058
                                                         0.420991       0.146763
                                                         0.169524      -0.083355
                                                         0.047522       0.028085
                          1       6    5py               1.225726      -1.548058
                                                         0.420991       0.146763
                                                         0.169524      -0.083355
                                                         0.047522       0.028085
                          1       6    5pz               1.225726      -1.548058
                                                         0.420991       0.146763
                                                         0.169524      -0.083355
                                                         0.047522       0.028085

                          1       7    4dx2              1.225726       0.452920
                                                         0.420991       0.207665
                                                         0.169524       0.027528
                                                         0.047522       0.000294
                          1       7    4dxy              1.225726       0.784480
                                                         0.420991       0.359686
                                                         0.169524       0.047680
                                                         0.047522       0.000509
                          1       7    4dxz              1.225726       0.784480
                                                         0.420991       0.359686
                                                         0.169524       0.047680
                                                         0.047522       0.000509
                          1       7    4dy2              1.225726       0.452920
                                                         0.420991       0.207665
                                                         0.169524       0.027528
                                                         0.047522       0.000294
                          1       7    4dyz              1.225726       0.784480
                                                         0.420991       0.359686
                                                         0.169524       0.047680
                                                         0.047522       0.000509
                          1       7    4dz2              1.225726       0.452920
                                                         0.420991       0.207665
                                                         0.169524       0.027528
                                                         0.047522       0.000294

                          1       8    5dx2              1.225726      -2.995584
                                                         0.420991       0.255705
                                                         0.169524      -0.031782
                                                         0.047522       0.000380
                          1       8    5dxy              1.225726      -5.188503
                                                         0.420991       0.442894
                                                         0.169524      -0.055048
                                                         0.047522       0.000659
                          1       8    5dxz              1.225726      -5.188503
                                                         0.420991       0.442894
                                                         0.169524      -0.055048
                                                         0.047522       0.000659
                          1       8    5dy2              1.225726      -2.995584
                                                         0.420991       0.255705
                                                         0.169524      -0.031782
                                                         0.047522       0.000380
                          1       8    5dyz              1.225726      -5.188503
                                                         0.420991       0.442894
                                                         0.169524      -0.055048
                                                         0.047522       0.000659
                          1       8    5dz2              1.225726      -2.995584
                                                         0.420991       0.255705
                                                         0.169524      -0.031782
                                                         0.047522       0.000380

                          1       9    5fx3              1.225726       0.367804
                                                         0.420991       0.134089
                                                         0.169524       0.010284
                                                         0.047522      -0.000037
                          1       9    5fx2y             1.225726       0.822434
                                                         0.420991       0.299833
                                                         0.169524       0.022995
                                                         0.047522      -0.000084
                          1       9    5fx2z             1.225726       0.822434
                                                         0.420991       0.299833
                                                         0.169524       0.022995
                                                         0.047522      -0.000084
                          1       9    5fxy2             1.225726       0.822434
                                                         0.420991       0.299833
                                                         0.169524       0.022995
                                                         0.047522      -0.000084
                          1       9    5fxyz             1.225726       1.424498
                                                         0.420991       0.519326
                                                         0.169524       0.039829
                                                         0.047522      -0.000145
                          1       9    5fxz2             1.225726       0.822434
                                                         0.420991       0.299833
                                                         0.169524       0.022995
                                                         0.047522      -0.000084
                          1       9    5fy3              1.225726       0.367804
                                                         0.420991       0.134089
                                                         0.169524       0.010284
                                                         0.047522      -0.000037
                          1       9    5fy2z             1.225726       0.822434
                                                         0.420991       0.299833
                                                         0.169524       0.022995
                                                         0.047522      -0.000084
                          1       9    5fyz2             1.225726       0.822434
                                                         0.420991       0.299833
                                                         0.169524       0.022995
                                                         0.047522      -0.000084
                          1       9    5fz3              1.225726       0.367804
                                                         0.420991       0.134089
                                                         0.169524       0.010284
                                                         0.047522      -0.000037

       Atomic covalent radius [Angstrom]:                                  1.110

       Atomic van der Waals radius [Angstrom]:                             2.100

     GTH Potential information for                                    GTH-PBE-q4

       Description:                       Goedecker-Teter-Hutter pseudopotential
                                           Goedecker et al., PRB 54, 1703 (1996)
                                          Hartwigsen et al., PRB 58, 3641 (1998)
                                                      Krack, TCA 114, 145 (2005)

       Gaussian exponent of the core charge distribution:               2.582849
       Electronic configuration (s p d ...):                       2   2   0   0

       Parameters of the local part of the GTH pseudopotential:

                          rloc        C1          C2          C3          C4
                        0.439983   -6.269270

       Parameters of the non-local part of the GTH pseudopotential:

                   l      r(l)      h(i,j,l)

                   0    0.435635    8.951852   -2.706271
                                   -2.706271    3.493787
                   1    0.497958    2.431277


 MOLECULE KIND INFORMATION


 All atoms are their own molecule, skipping detailed information


 TOTAL NUMBERS AND MAXIMUM NUMBERS

  Total number of            - Atomic kinds:                                   1
                             - Atoms:                                          2
                             - Shell sets:                                     2
                             - Shells:                                        18
                             - Primitive Cartesian functions:                  8
                             - Cartesian basis functions:                     68
                             - Spherical basis functions:                     58

  Maximum angular momentum of- Orbital basis functions:                        3
                             - Local part of the GTH pseudopotential:          0
                             - Non-local part of the GTH pseudopotential:      2


 MODULE QUICKSTEP: ATOMIC COORDINATES IN ANGSTROM

   Atom Kind Element         X             Y             Z       Z(eff)     Mass
      1    1 Si   14      0.000000      0.000000      0.000000   4.0000  28.0855
      2    1 Si   14      1.919795      1.108394      0.783753   4.0000  28.0855



 SCF PARAMETERS         Density guess:                                    ATOMIC
                        --------------------------------------------------------
                        max_scf:                                             600
                        max_scf_history:                                       0
                        max_diis:                                              4
                        --------------------------------------------------------
                        eps_scf:                                        1.00E-07
                        eps_scf_history:                                0.00E+00
                        eps_diis:                                       1.00E-01
                        eps_eigval:                                     1.00E-06
                        --------------------------------------------------------
                        level_shift [a.u.]:                             0.000000
                        SCF update method:                                MIXING
                        --------------------------------------------------------
                        Mixing method:                           DIRECT_P_MIXING
                        --------------------------------------------------------
                        No outer SCF

 PW_GRID| Information for grid number                                          1
 PW_GRID| Cutoff [a.u.]                                                    400.0
 PW_GRID| spherical cutoff:                                                   NO
 PW_GRID|   Bounds   1            -36      35                Points:          72
 PW_GRID|   Bounds   2            -36      35                Points:          72
 PW_GRID|   Bounds   3            -36      35                Points:          72
 PW_GRID| Volume element (a.u.^3)  0.7237E-03     Volume (a.u.^3)       270.1072
 PW_GRID| Grid span                                                    FULLSPACE

 PW_GRID| Information for grid number                                          2
 PW_GRID| Number of the reference grid                                         1
 PW_GRID| Cutoff [a.u.]                                                    133.3
 PW_GRID| spherical cutoff:                                                   NO
 PW_GRID|   Bounds   1            -20      19                Points:          40
 PW_GRID|   Bounds   2            -20      19                Points:          40
 PW_GRID|   Bounds   3            -20      19                Points:          40
 PW_GRID| Volume element (a.u.^3)  0.4220E-02     Volume (a.u.^3)       270.1072
 PW_GRID| Grid span                                                    FULLSPACE

 PW_GRID| Information for grid number                                          3
 PW_GRID| Number of the reference grid                                         1
 PW_GRID| Cutoff [a.u.]                                                     44.4
 PW_GRID| spherical cutoff:                                                   NO
 PW_GRID|   Bounds   1            -12      11                Points:          24
 PW_GRID|   Bounds   2            -12      11                Points:          24
 PW_GRID|   Bounds   3            -12      11                Points:          24
 PW_GRID| Volume element (a.u.^3)  0.1954E-01     Volume (a.u.^3)       270.1072
 PW_GRID| Grid span                                                    FULLSPACE

 PW_GRID| Information for grid number                                          4
 PW_GRID| Number of the reference grid                                         1
 PW_GRID| Cutoff [a.u.]                                                     14.8
 PW_GRID| spherical cutoff:                                                   NO
 PW_GRID|   Bounds   1             -7       7                Points:          15
 PW_GRID|   Bounds   2             -7       7                Points:          15
 PW_GRID|   Bounds   3             -7       7                Points:          15
 PW_GRID| Volume element (a.u.^3)  0.8003E-01     Volume (a.u.^3)       270.1072
 PW_GRID| Grid span                                                    FULLSPACE

 PW_GRID| Information for grid number                                          5
 PW_GRID| Number of the reference grid                                         1
 PW_GRID| Cutoff [a.u.]                                                      4.9
 PW_GRID| spherical cutoff:                                                   NO
 PW_GRID|   Bounds   1             -4       3                Points:           8
 PW_GRID|   Bounds   2             -4       3                Points:           8
 PW_GRID|   Bounds   3             -4       3                Points:           8
 PW_GRID| Volume element (a.u.^3)  0.5276         Volume (a.u.^3)       270.1072
 PW_GRID| Grid span                                                    FULLSPACE

 POISSON| Solver                                                        PERIODIC
 POISSON| Periodicity                                                        XYZ

 RS_GRID| Information for grid number                                          1
 RS_GRID|   Bounds   1            -36      35                Points:          72
 RS_GRID|   Bounds   2            -36      35                Points:          72
 RS_GRID|   Bounds   3            -36      35                Points:          72

 RS_GRID| Information for grid number                                          2
 RS_GRID|   Bounds   1            -20      19                Points:          40
 RS_GRID|   Bounds   2            -20      19                Points:          40
 RS_GRID|   Bounds   3            -20      19                Points:          40

 RS_GRID| Information for grid number                                          3
 RS_GRID|   Bounds   1            -12      11                Points:          24
 RS_GRID|   Bounds   2            -12      11                Points:          24
 RS_GRID|   Bounds   3            -12      11                Points:          24

 RS_GRID| Information for grid number                                          4
 RS_GRID|   Bounds   1             -7       7                Points:          15
 RS_GRID|   Bounds   2             -7       7                Points:          15
 RS_GRID|   Bounds   3             -7       7                Points:          15

 RS_GRID| Information for grid number                                          5
 RS_GRID|   Bounds   1             -4       3                Points:           8
 RS_GRID|   Bounds   2             -4       3                Points:           8
 RS_GRID|   Bounds   3             -4       3                Points:           8

 *******************************************************************************
 **                      Special K-Point Generation by K290                   **
 *******************************************************************************
 KPSYM| NUMBER OF ATOMS (STRUCT):     2
 KPSYM|          K   TYPE              X(K)
 KPSYM|          1     1   0.00000   0.00000   0.00000
 KPSYM|          2     1   3.62789   2.09456   1.48108

 KPSYM| THE CRYSTAL SYSTEM IS TRIGONAL WITH 12 OPERATIONS:
   1            3[ 00  1]    3[ 00 -1]    2[ 01  0]    2[ 10  0] 
   2[ 11  0]   -1           -3[ 00  1]   -3[ 00 -1]   -2[ 01  0] 
  -2[ 10  0]   -2[ 11  0] 
 KPSYM| THE SPACE GROUP IS NON-SYMMORPHIC,
    (SUM OF TRANSLATION VECTORS=       4.500000)
 KPSYM| THE POINT GROUP OF THE CRYSTAL IS  <3>m(d3)    [INDEX=10]
 KPSYM| NUMBER OF PRIMITIVE CELL:                               1
 KPSYM| THE POINT GROUP OF THE CRYSTAL CONTAINS THE INVERSION


 KPSYM| CRYSTALLOGRAPHIC DATA:
    A1   7.25577   0.00000   0.00000          B1   0.13782  -0.07957  -0.05627
    A2   3.62789   6.28368   0.00000          B2  -0.00000   0.15914  -0.05627
    A3   3.62789   2.09456   5.92431          B3   0.00000  -0.00000   0.16880

 KPSYM| GROUP-THEORETICAL INFORMATION:
 KPSYM|    POINT GROUP OF THE PRIMITIVE LATTICE: TRIGONAL     SYSTEM
 KPSYM|    NONSYMMORPHIC GROUP
 KPSYM|    INVERSION SYMMETRY
 KPSYM|    TOTAL NUMBER OF ELEMENTS IN THE POINT GROUP: 12
 KPSYM|    TO SUM UP: (6  0  0  7 12 10)

 KPSYM|    LIST OF THE ROTATIONS:
          1   3   5   7   9  11  13  15  17  19  21  23

 KPSYM|    NONPRIMITIVE TRANSLATIONS:
 ROT    V  IN THE BASIS A1, A2, A3      V  IN CARTESIAN COORDINATES
   1   0.00000   0.00000   0.00000      0.00000   0.00000   0.00000
   3   0.00000   0.00000   0.00000      0.00000   0.00000   0.00000
   5   0.00000   0.00000   0.00000      0.00000   0.00000   0.00000
   7   0.25000   0.25000   0.25000      3.62789   2.09456   1.48108
   9   0.25000   0.25000   0.25000      3.62789   2.09456   1.48108
  11   0.25000   0.25000   0.25000      3.62789   2.09456   1.48108
  13   0.25000   0.25000   0.25000      3.62789   2.09456   1.48108
  15   0.25000   0.25000   0.25000      3.62789   2.09456   1.48108
  17   0.25000   0.25000   0.25000      3.62789   2.09456   1.48108
  19   0.00000   0.00000   0.00000      0.00000   0.00000   0.00000
  21   0.00000   0.00000   0.00000      0.00000   0.00000   0.00000
  23   0.00000   0.00000   0.00000      0.00000   0.00000   0.00000

 KPSYM|    ATOM TRANSFORMATION TABLE (MARADUDIN,VOSKO):
    R  AT->AT    R  AT->AT    R  AT->AT    R  AT->AT    R  AT->AT
    1 [Identity]
    3   1   1    3   2   2
    5   1   1    5   2   2
    7   1   2    7   2   1
    9   1   2    9   2   1
   11   1   2   11   2   1
   13   1   2   13   2   1
   15   1   2   15   2   1
   17   1   2   17   2   1
   19   1   1   19   2   2
   21   1   1   21   2   2
   23   1   1   23   2   2

 KPSYM|    LIST OF THE 3 X 3 ROTATION MATRICES:
      1 ( 1:  1         )      1.000000      0.000000      0.000000
                               0.000000      1.000000      0.000000
                               0.000000      0.000000      1.000000
      2 ( 3:  3[ 00  1] )     -0.500000     -0.866025      0.000000
                               0.866025     -0.500000      0.000000
                               0.000000      0.000000      1.000000
      3 ( 5:  3[ 00 -1] )     -0.500000      0.866025      0.000000
                              -0.866025     -0.500000      0.000000
                               0.000000      0.000000      1.000000
      4 ( 7:  2[ 01  0] )     -0.500000     -0.866025      0.000000
                              -0.866025      0.500000      0.000000
                               0.000000      0.000000     -1.000000
      5 ( 9:  2[ 10  0] )      1.000000     -0.000000      0.000000
                              -0.000000     -1.000000      0.000000
                               0.000000      0.000000     -1.000000
      6 (11:  2[ 11  0] )     -0.500000      0.866025      0.000000
                               0.866025      0.500000      0.000000
                               0.000000      0.000000     -1.000000
      7 (13: -1         )     -1.000000     -0.000000      0.000000
                              -0.000000     -1.000000      0.000000
                               0.000000      0.000000     -1.000000
      8 (15: -3[ 00  1] )      0.500000      0.866025      0.000000
                              -0.866025      0.500000      0.000000
                               0.000000      0.000000     -1.000000
      9 (17: -3[ 00 -1] )      0.500000     -0.866025      0.000000
                               0.866025      0.500000      0.000000
                               0.000000      0.000000     -1.000000
     10 (19: -2[ 01  0] )      0.500000      0.866025      0.000000
                               0.866025     -0.500000      0.000000
                               0.000000      0.000000      1.000000
     11 (21: -2[ 10  0] )     -1.000000      0.000000      0.000000
                               0.000000      1.000000      0.000000
                               0.000000      0.000000      1.000000
     12 (23: -2[ 11  0] )      0.500000     -0.866025      0.000000
                              -0.866025     -0.500000      0.000000
                               0.000000      0.000000      1.000000

 KPSYM| THE CRYSTAL SYSTEM IS TRIGONAL WITH 12 OPERATIONS:
   1            3[ 00  1]    3[ 00 -1]    2[ 01  0]    2[ 10  0] 
   2[ 11  0]   -1           -3[ 00  1]   -3[ 00 -1]   -2[ 01  0] 
  -2[ 10  0]   -2[ 11  0] 
 KPSYM| THE SPACE GROUP OF THE CRYSTAL IS SYMMORPHIC
 KPSYM| THE POINT GROUP OF THE CRYSTAL IS  <3>m(d3)    [INDEX=10]
 KPSYM| NUMBER OF PRIMITIVE CELL:                               1
 KPSYM| THE POINT GROUP OF THE CRYSTAL CONTAINS THE INVERSION


 ******************* GENERATION OF SPECIAL POINTS *************************
 KPSYM| MONKHORST-PACK PARAMETERS (GENERALIZED) IQ1,IQ2,IQ3:
     6    6    6
 KPSYM| CONSTANT VECTOR SHIFT (MACDONALD) OF THIS MESH:
    0.00000   0.00000   0.00000
 KPSYM| SYMMETRIZATION SWITCH:   1 (SYMMETRIZATION OF MONKHORST-PACK MESH)
 KPSYM| The 1st Brillouin zone is confined by (at most)  8 planes
 KPSYM| as defined by the +/- halves of the vectors:
 KPSYM|     1.0000   -0.5774   -0.4082
 KPSYM|    -0.0000    1.1547   -0.4082
 KPSYM|     0.0000   -0.0000    1.2247
 KPSYM|     2.0000    1.1547    0.8165
 KPSYM|     1.0000    0.5774    0.4082
 KPSYM|     1.0000    0.5774   -0.8165
 KPSYM|     1.0000   -0.5774    0.8165
 KPSYM|     0.0000    1.1547    0.8165
 KPSYM|
 KPSYM| THE WAVEVECTOR MESH CONTAINS   648 POINTS
 KPSYM| THE POINTS ARE:
     1    0.4167    0.2406    0.1701     2   -0.4167    0.2406    0.1701
     3    0.0000   -0.4811    0.1701     4   -0.4167   -0.2406   -0.1701
     5    0.4167   -0.2406   -0.1701     6    0.0000    0.4811   -0.1701
     7    0.4167    0.2406   -0.0340     8   -0.4167    0.2406   -0.0340
     9    0.0000   -0.4811   -0.0340    10   -0.4167   -0.2406    0.0340
    11    0.4167   -0.2406    0.0340    12    0.0000    0.4811    0.0340
    13    0.4167    0.2406   -0.2381    14   -0.4167    0.2406   -0.2381
    15    0.0000   -0.4811   -0.2381    16   -0.4167   -0.2406    0.2381
    17    0.4167   -0.2406    0.2381    18    0.0000    0.4811    0.2381
    19    0.4167    0.2406   -0.4423    20   -0.4167    0.2406   -0.4423
    21    0.0000   -0.4811   -0.4423    22   -0.4167   -0.2406    0.4423
    23    0.4167   -0.2406    0.4423    24    0.0000    0.4811    0.4423
    25   -0.5833   -0.3368    0.1701    26    0.5833   -0.3368    0.1701
    27    0.0000    0.6736    0.1701    28    0.5833    0.3368   -0.1701
    29   -0.5833    0.3368   -0.1701    30    0.0000   -0.6736   -0.1701
    31    0.4167    0.2406    0.3742    32   -0.4167    0.2406    0.3742
    33    0.0000   -0.4811    0.3742    34   -0.4167   -0.2406   -0.3742
    35    0.4167   -0.2406   -0.3742    36    0.0000    0.4811   -0.3742
    37    0.4167    0.0481    0.2381    38   -0.2500    0.3368    0.2381
    39   -0.1667   -0.3849    0.2381    40   -0.2500   -0.3368   -0.2381
    41    0.4167   -0.0481   -0.2381    42   -0.1667    0.3849   -0.2381
    43   -0.4167   -0.0481   -0.2381    44    0.2500   -0.3368   -0.2381
    45    0.1667    0.3849   -0.2381    46    0.2500    0.3368    0.2381
    47   -0.4167    0.0481    0.2381    48    0.1667   -0.3849    0.2381
    49    0.4167    0.0481    0.0340    50   -0.2500    0.3368    0.0340
    51   -0.1667   -0.3849    0.0340    52   -0.2500   -0.3368   -0.0340
    53    0.4167   -0.0481   -0.0340    54   -0.1667    0.3849   -0.0340
    55   -0.4167   -0.0481   -0.0340    56    0.2500   -0.3368   -0.0340
    57    0.1667    0.3849   -0.0340    58    0.2500    0.3368    0.0340
    59   -0.4167    0.0481    0.0340    60    0.1667   -0.3849    0.0340
    61    0.4167    0.0481   -0.1701    62   -0.2500    0.3368   -0.1701
    63   -0.1667   -0.3849   -0.1701    64   -0.2500   -0.3368    0.1701
    65    0.4167   -0.0481    0.1701    66   -0.1667    0.3849    0.1701
    67   -0.4167   -0.0481    0.1701    68    0.2500   -0.3368    0.1701
    69    0.1667    0.3849    0.1701    70    0.2500    0.3368   -0.1701
    71   -0.4167    0.0481   -0.1701    72    0.1667   -0.3849   -0.1701
    73    0.4167    0.0481   -0.3742    74   -0.2500    0.3368   -0.3742
    75   -0.1667   -0.3849   -0.3742    76   -0.2500   -0.3368    0.3742
    77    0.4167   -0.0481    0.3742    78   -0.1667    0.3849    0.3742
    79   -0.4167   -0.0481    0.3742    80    0.2500   -0.3368    0.3742
    81    0.1667    0.3849    0.3742    82    0.2500    0.3368   -0.3742
    83   -0.4167    0.0481   -0.3742    84    0.1667   -0.3849   -0.3742
    85    0.4167    0.0481   -0.5784    86   -0.2500    0.3368   -0.5784
    87   -0.1667   -0.3849   -0.5784    88   -0.2500   -0.3368    0.5784
    89    0.4167   -0.0481    0.5784    90   -0.1667    0.3849    0.5784
    91   -0.4167   -0.0481    0.5784    92    0.2500   -0.3368    0.5784
    93    0.1667    0.3849    0.5784    94    0.2500    0.3368   -0.5784
    95   -0.4167    0.0481   -0.5784    96    0.1667   -0.3849   -0.5784
    97    0.4167    0.0481    0.4423    98   -0.2500    0.3368    0.4423
    99   -0.1667   -0.3849    0.4423   100   -0.2500   -0.3368   -0.4423
   101    0.4167   -0.0481   -0.4423   102   -0.1667    0.3849   -0.4423
   103   -0.4167   -0.0481   -0.4423   104    0.2500   -0.3368   -0.4423
   105    0.1667    0.3849   -0.4423   106    0.2500    0.3368    0.4423
   107   -0.4167    0.0481    0.4423   108    0.1667   -0.3849    0.4423
   109    0.4167   -0.1443    0.3062   110   -0.0833    0.4330    0.3062
   111   -0.3333   -0.2887    0.3062   112   -0.0833   -0.4330   -0.3062
   113    0.4167    0.1443   -0.3062   114   -0.3333    0.2887   -0.3062
   115   -0.4167    0.1443   -0.3062   116    0.0833   -0.4330   -0.3062
   117    0.3333    0.2887   -0.3062   118    0.0833    0.4330    0.3062
   119   -0.4167   -0.1443    0.3062   120    0.3333   -0.2887    0.3062
   121    0.4167   -0.1443    0.1021   122   -0.0833    0.4330    0.1021
   123   -0.3333   -0.2887    0.1021   124   -0.0833   -0.4330   -0.1021
   125    0.4167    0.1443   -0.1021   126   -0.3333    0.2887   -0.1021
   127   -0.4167    0.1443   -0.1021   128    0.0833   -0.4330   -0.1021
   129    0.3333    0.2887   -0.1021   130    0.0833    0.4330    0.1021
   131   -0.4167   -0.1443    0.1021   132    0.3333   -0.2887    0.1021
   133    0.4167   -0.1443   -0.1021   134   -0.0833    0.4330   -0.1021
   135   -0.3333   -0.2887   -0.1021   136   -0.0833   -0.4330    0.1021
   137    0.4167    0.1443    0.1021   138   -0.3333    0.2887    0.1021
   139   -0.4167    0.1443    0.1021   140    0.0833   -0.4330    0.1021
   141    0.3333    0.2887    0.1021   142    0.0833    0.4330   -0.1021
   143   -0.4167   -0.1443   -0.1021   144    0.3333   -0.2887   -0.1021
   145    0.4167   -0.1443   -0.3062   146   -0.0833    0.4330   -0.3062
   147   -0.3333   -0.2887   -0.3062   148   -0.0833   -0.4330    0.3062
   149    0.4167    0.1443    0.3062   150   -0.3333    0.2887    0.3062
   151   -0.4167    0.1443    0.3062   152    0.0833   -0.4330    0.3062
   153    0.3333    0.2887    0.3062   154    0.0833    0.4330   -0.3062
   155   -0.4167   -0.1443   -0.3062   156    0.3333   -0.2887   -0.3062
   157    0.4167   -0.1443   -0.5103   158   -0.0833    0.4330   -0.5103
   159   -0.3333   -0.2887   -0.5103   160   -0.0833   -0.4330    0.5103
   161    0.4167    0.1443    0.5103   162   -0.3333    0.2887    0.5103
   163   -0.4167    0.1443    0.5103   164    0.0833   -0.4330    0.5103
   165    0.3333    0.2887    0.5103   166    0.0833    0.4330   -0.5103
   167   -0.4167   -0.1443   -0.5103   168    0.3333   -0.2887   -0.5103
   169    0.4167   -0.1443    0.5103   170   -0.0833    0.4330    0.5103
   171   -0.3333   -0.2887    0.5103   172   -0.0833   -0.4330   -0.5103
   173    0.4167    0.1443   -0.5103   174   -0.3333    0.2887   -0.5103
   175   -0.4167    0.1443   -0.5103   176    0.0833   -0.4330   -0.5103
   177    0.3333    0.2887   -0.5103   178    0.0833    0.4330    0.5103
   179   -0.4167   -0.1443    0.5103   180    0.3333   -0.2887    0.5103
   181    0.4167   -0.3368    0.3742   182    0.0833    0.5292    0.3742
   183   -0.5000   -0.1925    0.3742   184    0.0833   -0.5292   -0.3742
   185    0.4167    0.3368   -0.3742   186   -0.5000    0.1925   -0.3742
   187   -0.4167    0.3368   -0.3742   188   -0.0833   -0.5292   -0.3742
   189    0.5000    0.1925   -0.3742   190   -0.0833    0.5292    0.3742
   191   -0.4167   -0.3368    0.3742   192    0.5000   -0.1925    0.3742
   193    0.4167   -0.3368    0.1701   194    0.0833    0.5292    0.1701
   195   -0.5000   -0.1925    0.1701   196    0.0833   -0.5292   -0.1701
   197    0.4167    0.3368   -0.1701   198   -0.5000    0.1925   -0.1701
   199   -0.4167    0.3368   -0.1701   200   -0.0833   -0.5292   -0.1701
   201    0.5000    0.1925   -0.1701   202   -0.0833    0.5292    0.1701
   203   -0.4167   -0.3368    0.1701   204    0.5000   -0.1925    0.1701
   205    0.4167   -0.3368   -0.0340   206    0.0833    0.5292   -0.0340
   207   -0.5000   -0.1925   -0.0340   208    0.0833   -0.5292    0.0340
   209    0.4167    0.3368    0.0340   210   -0.5000    0.1925    0.0340
   211   -0.4167    0.3368    0.0340   212   -0.0833   -0.5292    0.0340
   213    0.5000    0.1925    0.0340   214   -0.0833    0.5292   -0.0340
   215   -0.4167   -0.3368   -0.0340   216    0.5000   -0.1925   -0.0340
   217    0.4167   -0.3368   -0.2381   218    0.0833    0.5292   -0.2381
   219   -0.5000   -0.1925   -0.2381   220    0.0833   -0.5292    0.2381
   221    0.4167    0.3368    0.2381   222   -0.5000    0.1925    0.2381
   223   -0.4167    0.3368    0.2381   224   -0.0833   -0.5292    0.2381
   225    0.5000    0.1925    0.2381   226   -0.0833    0.5292   -0.2381
   227   -0.4167   -0.3368   -0.2381   228    0.5000   -0.1925   -0.2381
   229   -0.5833    0.2406   -0.0340   230    0.0833   -0.6255   -0.0340
   231    0.5000    0.3849   -0.0340   232    0.0833    0.6255    0.0340
   233   -0.5833   -0.2406    0.0340   234    0.5000   -0.3849    0.0340
   235    0.5833   -0.2406    0.0340   236   -0.0833    0.6255    0.0340
   237   -0.5000   -0.3849    0.0340   238   -0.0833   -0.6255   -0.0340
   239    0.5833    0.2406   -0.0340   240   -0.5000    0.3849   -0.0340
   241   -0.5833    0.2406   -0.2381   242    0.0833   -0.6255   -0.2381
   243    0.5000    0.3849   -0.2381   244    0.0833    0.6255    0.2381
   245   -0.5833   -0.2406    0.2381   246    0.5000   -0.3849    0.2381
   247    0.5833   -0.2406    0.2381   248   -0.0833    0.6255    0.2381
   249   -0.5000   -0.3849    0.2381   250   -0.0833   -0.6255   -0.2381
   251    0.5833    0.2406   -0.2381   252   -0.5000    0.3849   -0.2381
   253   -0.5833    0.0481   -0.3742   254    0.2500   -0.5292   -0.3742
   255    0.3333    0.4811   -0.3742   256    0.2500    0.5292    0.3742
   257   -0.5833   -0.0481    0.3742   258    0.3333   -0.4811    0.3742
   259    0.5833   -0.0481    0.3742   260   -0.2500    0.5292    0.3742
   261   -0.3333   -0.4811    0.3742   262   -0.2500   -0.5292   -0.3742
   263    0.5833    0.0481   -0.3742   264   -0.3333    0.4811   -0.3742
   265    0.4167   -0.5292    0.2381   266    0.2500    0.6255    0.2381
   267   -0.6667   -0.0962    0.2381   268    0.2500   -0.6255   -0.2381
   269    0.4167    0.5292   -0.2381   270   -0.6667    0.0962   -0.2381
   271   -0.4167    0.5292   -0.2381   272   -0.2500   -0.6255   -0.2381
   273    0.6667    0.0962   -0.2381   274   -0.2500    0.6255    0.2381
   275   -0.4167   -0.5292    0.2381   276    0.6667   -0.0962    0.2381
   277    0.4167   -0.5292    0.0340   278    0.2500    0.6255    0.0340
   279   -0.6667   -0.0962    0.0340   280    0.2500   -0.6255   -0.0340
   281    0.4167    0.5292   -0.0340   282   -0.6667    0.0962   -0.0340
   283   -0.4167    0.5292   -0.0340   284   -0.2500   -0.6255   -0.0340
   285    0.6667    0.0962   -0.0340   286   -0.2500    0.6255    0.0340
   287   -0.4167   -0.5292    0.0340   288    0.6667   -0.0962    0.0340
   289   -0.5833    0.0481    0.2381   290    0.2500   -0.5292    0.2381
   291    0.3333    0.4811    0.2381   292    0.2500    0.5292   -0.2381
   293   -0.5833   -0.0481   -0.2381   294    0.3333   -0.4811   -0.2381
   295    0.5833   -0.0481   -0.2381   296   -0.2500    0.5292   -0.2381
   297   -0.3333   -0.4811   -0.2381   298   -0.2500   -0.5292    0.2381
   299    0.5833    0.0481    0.2381   300   -0.3333    0.4811    0.2381
   301   -0.5833    0.0481    0.0340   302    0.2500   -0.5292    0.0340
   303    0.3333    0.4811    0.0340   304    0.2500    0.5292   -0.0340
   305   -0.5833   -0.0481   -0.0340   306    0.3333   -0.4811   -0.0340
   307    0.5833   -0.0481   -0.0340   308   -0.2500    0.5292   -0.0340
   309   -0.3333   -0.4811   -0.0340   310   -0.2500   -0.5292    0.0340
   311    0.5833    0.0481    0.0340   312   -0.3333    0.4811    0.0340
   313   -0.5833    0.0481   -0.1701   314    0.2500   -0.5292   -0.1701
   315    0.3333    0.4811   -0.1701   316    0.2500    0.5292    0.1701
   317   -0.5833   -0.0481    0.1701   318    0.3333   -0.4811    0.1701
   319    0.5833   -0.0481    0.1701   320   -0.2500    0.5292    0.1701
   321   -0.3333   -0.4811    0.1701   322   -0.2500   -0.5292   -0.1701
   323    0.5833    0.0481   -0.1701   324   -0.3333    0.4811   -0.1701
   325    0.4167    0.4330    0.1021   326   -0.5833    0.1443    0.1021
   327    0.1667   -0.5774    0.1021   328   -0.5833   -0.1443   -0.1021
   329    0.4167   -0.4330   -0.1021   330    0.1667    0.5774   -0.1021
   331   -0.4167   -0.4330   -0.1021   332    0.5833   -0.1443   -0.1021
   333   -0.1667    0.5774   -0.1021   334    0.5833    0.1443    0.1021
   335   -0.4167    0.4330    0.1021   336   -0.1667   -0.5774    0.1021
   337    0.4167    0.4330   -0.1021   338   -0.5833    0.1443   -0.1021
   339    0.1667   -0.5774   -0.1021   340   -0.5833   -0.1443    0.1021
   341    0.4167   -0.4330    0.1021   342    0.1667    0.5774    0.1021
   343   -0.4167   -0.4330    0.1021   344    0.5833   -0.1443    0.1021
   345   -0.1667    0.5774    0.1021   346    0.5833    0.1443   -0.1021
   347   -0.4167    0.4330   -0.1021   348   -0.1667   -0.5774   -0.1021
   349    0.4167    0.4330   -0.3062   350   -0.5833    0.1443   -0.3062
   351    0.1667   -0.5774   -0.3062   352   -0.5833   -0.1443    0.3062
   353    0.4167   -0.4330    0.3062   354    0.1667    0.5774    0.3062
   355   -0.4167   -0.4330    0.3062   356    0.5833   -0.1443    0.3062
   357   -0.1667    0.5774    0.3062   358    0.5833    0.1443   -0.3062
   359   -0.4167    0.4330   -0.3062   360   -0.1667   -0.5774   -0.3062
   361    0.2500    0.1443    0.3062   362   -0.2500    0.1443    0.3062
   363    0.0000   -0.2887    0.3062   364   -0.2500   -0.1443   -0.3062
   365    0.2500   -0.1443   -0.3062   366   -0.0000    0.2887   -0.3062
   367    0.2500    0.1443    0.1021   368   -0.2500    0.1443    0.1021
   369    0.0000   -0.2887    0.1021   370   -0.2500   -0.1443   -0.1021
   371    0.2500   -0.1443   -0.1021   372   -0.0000    0.2887   -0.1021
   373    0.2500    0.1443   -0.1021   374   -0.2500    0.1443   -0.1021
   375    0.0000   -0.2887   -0.1021   376   -0.2500   -0.1443    0.1021
   377    0.2500   -0.1443    0.1021   378   -0.0000    0.2887    0.1021
   379    0.2500    0.1443   -0.3062   380   -0.2500    0.1443   -0.3062
   381    0.0000   -0.2887   -0.3062   382   -0.2500   -0.1443    0.3062
   383    0.2500   -0.1443    0.3062   384   -0.0000    0.2887    0.3062
   385    0.2500    0.1443   -0.5103   386   -0.2500    0.1443   -0.5103
   387    0.0000   -0.2887   -0.5103   388   -0.2500   -0.1443    0.5103
   389    0.2500   -0.1443    0.5103   390   -0.0000    0.2887    0.5103
   391    0.2500    0.1443    0.5103   392   -0.2500    0.1443    0.5103
   393    0.0000   -0.2887    0.5103   394   -0.2500   -0.1443   -0.5103
   395    0.2500   -0.1443   -0.5103   396   -0.0000    0.2887   -0.5103
   397    0.2500   -0.0481    0.3742   398   -0.0833    0.2406    0.3742
   399   -0.1667   -0.1925    0.3742   400   -0.0833   -0.2406   -0.3742
   401    0.2500    0.0481   -0.3742   402   -0.1667    0.1925   -0.3742
   403   -0.2500    0.0481   -0.3742   404    0.0833   -0.2406   -0.3742
   405    0.1667    0.1925   -0.3742   406    0.0833    0.2406    0.3742
   407   -0.2500   -0.0481    0.3742   408    0.1667   -0.1925    0.3742
   409    0.2500   -0.0481    0.1701   410   -0.0833    0.2406    0.1701
   411   -0.1667   -0.1925    0.1701   412   -0.0833   -0.2406   -0.1701
   413    0.2500    0.0481   -0.1701   414   -0.1667    0.1925   -0.1701
   415   -0.2500    0.0481   -0.1701   416    0.0833   -0.2406   -0.1701
   417    0.1667    0.1925   -0.1701   418    0.0833    0.2406    0.1701
   419   -0.2500   -0.0481    0.1701   420    0.1667   -0.1925    0.1701
   421    0.2500   -0.0481   -0.0340   422   -0.0833    0.2406   -0.0340
   423   -0.1667   -0.1925   -0.0340   424   -0.0833   -0.2406    0.0340
   425    0.2500    0.0481    0.0340   426   -0.1667    0.1925    0.0340
   427   -0.2500    0.0481    0.0340   428    0.0833   -0.2406    0.0340
   429    0.1667    0.1925    0.0340   430    0.0833    0.2406   -0.0340
   431   -0.2500   -0.0481   -0.0340   432    0.1667   -0.1925   -0.0340
   433    0.2500   -0.0481   -0.2381   434   -0.0833    0.2406   -0.2381
   435   -0.1667   -0.1925   -0.2381   436   -0.0833   -0.2406    0.2381
   437    0.2500    0.0481    0.2381   438   -0.1667    0.1925    0.2381
   439   -0.2500    0.0481    0.2381   440    0.0833   -0.2406    0.2381
   441    0.1667    0.1925    0.2381   442    0.0833    0.2406   -0.2381
   443   -0.2500   -0.0481   -0.2381   444    0.1667   -0.1925   -0.2381
   445    0.2500   -0.0481   -0.4423   446   -0.0833    0.2406   -0.4423
   447   -0.1667   -0.1925   -0.4423   448   -0.0833   -0.2406    0.4423
   449    0.2500    0.0481    0.4423   450   -0.1667    0.1925    0.4423
   451   -0.2500    0.0481    0.4423   452    0.0833   -0.2406    0.4423
   453    0.1667    0.1925    0.4423   454    0.0833    0.2406   -0.4423
   455   -0.2500   -0.0481   -0.4423   456    0.1667   -0.1925   -0.4423
   457    0.2500   -0.0481    0.5784   458   -0.0833    0.2406    0.5784
   459   -0.1667   -0.1925    0.5784   460   -0.0833   -0.2406   -0.5784
   461    0.2500    0.0481   -0.5784   462   -0.1667    0.1925   -0.5784
   463   -0.2500    0.0481   -0.5784   464    0.0833   -0.2406   -0.5784
   465    0.1667    0.1925   -0.5784   466    0.0833    0.2406    0.5784
   467   -0.2500   -0.0481    0.5784   468    0.1667   -0.1925    0.5784
   469    0.2500   -0.2406    0.4423   470    0.0833    0.3368    0.4423
   471   -0.3333   -0.0962    0.4423   472    0.0833   -0.3368   -0.4423
   473    0.2500    0.2406   -0.4423   474   -0.3333    0.0962   -0.4423
   475   -0.2500    0.2406   -0.4423   476   -0.0833   -0.3368   -0.4423
   477    0.3333    0.0962   -0.4423   478   -0.0833    0.3368    0.4423
   479   -0.2500   -0.2406    0.4423   480    0.3333   -0.0962    0.4423
   481    0.2500   -0.2406    0.2381   482    0.0833    0.3368    0.2381
   483   -0.3333   -0.0962    0.2381   484    0.0833   -0.3368   -0.2381
   485    0.2500    0.2406   -0.2381   486   -0.3333    0.0962   -0.2381
   487   -0.2500    0.2406   -0.2381   488   -0.0833   -0.3368   -0.2381
   489    0.3333    0.0962   -0.2381   490   -0.0833    0.3368    0.2381
   491   -0.2500   -0.2406    0.2381   492    0.3333   -0.0962    0.2381
   493    0.2500   -0.2406    0.0340   494    0.0833    0.3368    0.0340
   495   -0.3333   -0.0962    0.0340   496    0.0833   -0.3368   -0.0340
   497    0.2500    0.2406   -0.0340   498   -0.3333    0.0962   -0.0340
   499   -0.2500    0.2406   -0.0340   500   -0.0833   -0.3368   -0.0340
   501    0.3333    0.0962   -0.0340   502   -0.0833    0.3368    0.0340
   503   -0.2500   -0.2406    0.0340   504    0.3333   -0.0962    0.0340
   505    0.2500   -0.2406   -0.1701   506    0.0833    0.3368   -0.1701
   507   -0.3333   -0.0962   -0.1701   508    0.0833   -0.3368    0.1701
   509    0.2500    0.2406    0.1701   510   -0.3333    0.0962    0.1701
   511   -0.2500    0.2406    0.1701   512   -0.0833   -0.3368    0.1701
   513    0.3333    0.0962    0.1701   514   -0.0833    0.3368   -0.1701
   515   -0.2500   -0.2406   -0.1701   516    0.3333   -0.0962   -0.1701
   517    0.2500   -0.2406   -0.3742   518    0.0833    0.3368   -0.3742
   519   -0.3333   -0.0962   -0.3742   520    0.0833   -0.3368    0.3742
   521    0.2500    0.2406    0.3742   522   -0.3333    0.0962    0.3742
   523   -0.2500    0.2406    0.3742   524   -0.0833   -0.3368    0.3742
   525    0.3333    0.0962    0.3742   526   -0.0833    0.3368   -0.3742
   527   -0.2500   -0.2406   -0.3742   528    0.3333   -0.0962   -0.3742
   529    0.2500   -0.2406   -0.5784   530    0.0833    0.3368   -0.5784
   531   -0.3333   -0.0962   -0.5784   532    0.0833   -0.3368    0.5784
   533    0.2500    0.2406    0.5784   534   -0.3333    0.0962    0.5784
   535   -0.2500    0.2406    0.5784   536   -0.0833   -0.3368    0.5784
   537    0.3333    0.0962    0.5784   538   -0.0833    0.3368   -0.5784
   539   -0.2500   -0.2406   -0.5784   540    0.3333   -0.0962   -0.5784
   541    0.2500   -0.4330    0.5103   542    0.2500    0.4330    0.5103
   543   -0.5000    0.0000    0.5103   544    0.2500   -0.4330   -0.5103
   545    0.2500    0.4330   -0.5103   546   -0.5000   -0.0000   -0.5103
   547   -0.2500    0.4330   -0.5103   548   -0.2500   -0.4330   -0.5103
   549    0.5000    0.0000   -0.5103   550   -0.2500    0.4330    0.5103
   551   -0.2500   -0.4330    0.5103   552    0.5000    0.0000    0.5103
   553    0.2500   -0.4330    0.3062   554    0.2500    0.4330    0.3062
   555   -0.5000    0.0000    0.3062   556    0.2500   -0.4330   -0.3062
   557    0.2500    0.4330   -0.3062   558   -0.5000   -0.0000   -0.3062
   559   -0.2500    0.4330   -0.3062   560   -0.2500   -0.4330   -0.3062
   561    0.5000    0.0000   -0.3062   562   -0.2500    0.4330    0.3062
   563   -0.2500   -0.4330    0.3062   564    0.5000    0.0000    0.3062
   565    0.2500   -0.4330    0.1021   566    0.2500    0.4330    0.1021
   567   -0.5000    0.0000    0.1021   568    0.2500   -0.4330   -0.1021
   569    0.2500    0.4330   -0.1021   570   -0.5000   -0.0000   -0.1021
   571   -0.2500    0.4330   -0.1021   572   -0.2500   -0.4330   -0.1021
   573    0.5000    0.0000   -0.1021   574   -0.2500    0.4330    0.1021
   575   -0.2500   -0.4330    0.1021   576    0.5000    0.0000    0.1021
   577    0.0833    0.0481    0.4423   578   -0.0833    0.0481    0.4423
   579   -0.0000   -0.0962    0.4423   580   -0.0833   -0.0481   -0.4423
   581    0.0833   -0.0481   -0.4423   582   -0.0000    0.0962   -0.4423
   583    0.0833    0.0481    0.2381   584   -0.0833    0.0481    0.2381
   585   -0.0000   -0.0962    0.2381   586   -0.0833   -0.0481   -0.2381
   587    0.0833   -0.0481   -0.2381   588   -0.0000    0.0962   -0.2381
   589    0.0833    0.0481    0.0340   590   -0.0833    0.0481    0.0340
   591   -0.0000   -0.0962    0.0340   592   -0.0833   -0.0481   -0.0340
   593    0.0833   -0.0481   -0.0340   594   -0.0000    0.0962   -0.0340
   595    0.0833    0.0481   -0.1701   596   -0.0833    0.0481   -0.1701
   597   -0.0000   -0.0962   -0.1701   598   -0.0833   -0.0481    0.1701
   599    0.0833   -0.0481    0.1701   600   -0.0000    0.0962    0.1701
   601    0.0833    0.0481   -0.3742   602   -0.0833    0.0481   -0.3742
   603   -0.0000   -0.0962   -0.3742   604   -0.0833   -0.0481    0.3742
   605    0.0833   -0.0481    0.3742   606   -0.0000    0.0962    0.3742
   607    0.0833    0.0481   -0.5784   608   -0.0833    0.0481   -0.5784
   609   -0.0000   -0.0962   -0.5784   610   -0.0833   -0.0481    0.5784
   611    0.0833   -0.0481    0.5784   612   -0.0000    0.0962    0.5784
   613    0.0833   -0.1443    0.5103   614    0.0833    0.1443    0.5103
   615   -0.1667    0.0000    0.5103   616    0.0833   -0.1443   -0.5103
   617    0.0833    0.1443   -0.5103   618   -0.1667   -0.0000   -0.5103
   619   -0.0833    0.1443   -0.5103   620   -0.0833   -0.1443   -0.5103
   621    0.1667    0.0000   -0.5103   622   -0.0833    0.1443    0.5103
   623   -0.0833   -0.1443    0.5103   624    0.1667    0.0000    0.5103
   625    0.0833   -0.1443    0.3062   626    0.0833    0.1443    0.3062
   627   -0.1667    0.0000    0.3062   628    0.0833   -0.1443   -0.3062
   629    0.0833    0.1443   -0.3062   630   -0.1667   -0.0000   -0.3062
   631   -0.0833    0.1443   -0.3062   632   -0.0833   -0.1443   -0.3062
   633    0.1667    0.0000   -0.3062   634   -0.0833    0.1443    0.3062
   635   -0.0833   -0.1443    0.3062   636    0.1667    0.0000    0.3062
   637    0.0833   -0.1443    0.1021   638    0.0833    0.1443    0.1021
   639   -0.1667    0.0000    0.1021   640    0.0833   -0.1443   -0.1021
   641    0.0833    0.1443   -0.1021   642   -0.1667   -0.0000   -0.1021
   643   -0.0833    0.1443   -0.1021   644   -0.0833   -0.1443   -0.1021
   645    0.1667    0.0000   -0.1021   646   -0.0833    0.1443    0.1021
   647   -0.0833   -0.1443    0.1021   648    0.1667    0.0000    0.1021


 KPSYM|    CROSS TABLE RELATING MESH POINTS WITH SPECIAL POINTS:
    IK -> SK    IK -> SK    IK -> SK    IK -> SK    IK -> SK
     1     1     2     1     3     1     4     1     5     1
     6     1     7     2     8     2     9     2    10     2
    11     2    12     2    13     3    14     3    15     3
    16     3    17     3    18     3    19     4    20     4
    21     4    22     4    23     4    24     4    25     5
    26     5    27     5    28     5    29     5    30     5
    31     6    32     6    33     6    34     6    35     6
    36     6    37     7    38     7    39     7    40     7
    41     7    42     7    43     7    44     7    45     7
    46     7    47     7    48     7    49     8    50     8
    51     8    52     8    53     8    54     8    55     8
    56     8    57     8    58     8    59     8    60     8
    61     9    62     9    63     9    64     9    65     9
    66     9    67     9    68     9    69     9    70     9
    71     9    72     9    73    10    74    10    75    10
    76    10    77    10    78    10    79    10    80    10
    81    10    82    10    83    10    84    10    85    11
    86    11    87    11    88    11    89    11    90    11
    91    11    92    11    93    11    94    11    95    11
    96    11    97    12    98    12    99    12   100    12
   101    12   102    12   103    12   104    12   105    12
   106    12   107    12   108    12   109    13   110    13
   111    13   112    13   113    13   114    13   115    13
   116    13   117    13   118    13   119    13   120    13
   121    14   122    14   123    14   124    14   125    14
   126    14   127    14   128    14   129    14   130    14
   131    14   132    14   133    15   134    15   135    15
   136    15   137    15   138    15   139    15   140    15
   141    15   142    15   143    15   144    15   145    16
   146    16   147    16   148    16   149    16   150    16
   151    16   152    16   153    16   154    16   155    16
   156    16   157    17   158    17   159    17   160    17
   161    17   162    17   163    17   164    17   165    17
   166    17   167    17   168    17   169    18   170    18
   171    18   172    18   173    18   174    18   175    18
   176    18   177    18   178    18   179    18   180    18
   181    19   182    19   183    19   184    19   185    19
   186    19   187    19   188    19   189    19   190    19
   191    19   192    19   193    20   194    20   195    20
   196    20   197    20   198    20   199    20   200    20
   201    20   202    20   203    20   204    20   205    21
   206    21   207    21   208    21   209    21   210    21
   211    21   212    21   213    21   214    21   215    21
   216    21   217    22   218    22   219    22   220    22
   221    22   222    22   223    22   224    22   225    22
   226    22   227    22   228    22   229    23   230    23
   231    23   232    23   233    23   234    23   235    23
   236    23   237    23   238    23   239    23   240    23
   241    24   242    24   243    24   244    24   245    24
   246    24   247    24   248    24   249    24   250    24
   251    24   252    24   253    25   254    25   255    25
   256    25   257    25   258    25   259    25   260    25
   261    25   262    25   263    25   264    25   265    26
   266    26   267    26   268    26   269    26   270    26
   271    26   272    26   273    26   274    26   275    26
   276    26   277    27   278    27   279    27   280    27
   281    27   282    27   283    27   284    27   285    27
   286    27   287    27   288    27   289    28   290    28
   291    28   292    28   293    28   294    28   295    28
   296    28   297    28   298    28   299    28   300    28
   301    29   302    29   303    29   304    29   305    29
   306    29   307    29   308    29   309    29   310    29
   311    29   312    29   313    30   314    30   315    30
   316    30   317    30   318    30   319    30   320    30
   321    30   322    30   323    30   324    30   325    31
   326    31   327    31   328    31   329    31   330    31
   331    31   332    31   333    31   334    31   335    31
   336    31   337    32   338    32   339    32   340    32
   341    32   342    32   343    32   344    32   345    32
   346    32   347    32   348    32   349    33   350    33
   351    33   352    33   353    33   354    33   355    33
   356    33   357    33   358    33   359    33   360    33
   361    34   362    34   363    34   364    34   365    34
   366    34   367    35   368    35   369    35   370    35
   371    35   372    35   373    36   374    36   375    36
   376    36   377    36   378    36   379    37   380    37
   381    37   382    37   383    37   384    37   385    38
   386    38   387    38   388    38   389    38   390    38
   391    39   392    39   393    39   394    39   395    39
   396    39   397    40   398    40   399    40   400    40
   401    40   402    40   403    40   404    40   405    40
   406    40   407    40   408    40   409    41   410    41
   411    41   412    41   413    41   414    41   415    41
   416    41   417    41   418    41   419    41   420    41
   421    42   422    42   423    42   424    42   425    42
   426    42   427    42   428    42   429    42   430    42
   431    42   432    42   433    43   434    43   435    43
   436    43   437    43   438    43   439    43   440    43
   441    43   442    43   443    43   444    43   445    44
   446    44   447    44   448    44   449    44   450    44
   451    44   452    44   453    44   454    44   455    44
   456    44   457    45   458    45   459    45   460    45
   461    45   462    45   463    45   464    45   465    45
   466    45   467    45   468    45   469    46   470    46
   471    46   472    46   473    46   474    46   475    46
   476    46   477    46   478    46   479    46   480    46
   481    47   482    47   483    47   484    47   485    47
   486    47   487    47   488    47   489    47   490    47
   491    47   492    47   493    48   494    48   495    48
   496    48   497    48   498    48   499    48   500    48
   501    48   502    48   503    48   504    48   505    49
   506    49   507    49   508    49   509    49   510    49
   511    49   512    49   513    49   514    49   515    49
   516    49   517    50   518    50   519    50   520    50
   521    50   522    50   523    50   524    50   525    50
   526    50   527    50   528    50   529    51   530    51
   531    51   532    51   533    51   534    51   535    51
   536    51   537    51   538    51   539    51   540    51
   541    52   542    52   543    52   544    52   545    52
   546    52   547    52   548    52   549    52   550    52
   551    52   552    52   553    53   554    53   555    53
   556    53   557    53   558    53   559    53   560    53
   561    53   562    53   563    53   564    53   565    54
   566    54   567    54   568    54   569    54   570    54
   571    54   572    54   573    54   574    54   575    54
   576    54   577    55   578    55   579    55   580    55
   581    55   582    55   583    56   584    56   585    56
   586    56   587    56   588    56   589    57   590    57
   591    57   592    57   593    57   594    57   595    58
   596    58   597    58   598    58   599    58   600    58
   601    59   602    59   603    59   604    59   605    59
   606    59   607    60   608    60   609    60   610    60
   611    60   612    60   613    61   614    61   615    61
   616    61   617    61   618    61   619    61   620    61
   621    61   622    61   623    61   624    61   625    62
   626    62   627    62   628    62   629    62   630    62
   631    62   632    62   633    62   634    62   635    62
   636    62   637    63   638    63   639    63   640    63
   641    63   642    63   643    63   644    63   645    63
   646    63   647    63   648    63

 KPSYM|    63 SPECIAL POINTS GENERATED
        WAVEVECTOR K            WEIGHT    UNFOLDING ROTATIONS
     1  0.4167  0.2406  0.1701       6     1  3  5  7  9 11
     2  0.4167  0.2406 -0.0340       6     1  3  5  7  9 11
     3  0.4167  0.2406 -0.2381       6     1  3  5  7  9 11
     4  0.4167  0.2406 -0.4423       6     1  3  5  7  9 11
     5 -0.5833 -0.3368  0.1701       6     1  3  5  7  9 11
     6  0.4167  0.2406  0.3742       6     1  3  5  7  9 11
     7  0.4167  0.0481  0.2381      12     1  3  5  7  9 11 13 15 17 19 21 23
     8  0.4167  0.0481  0.0340      12     1  3  5  7  9 11 13 15 17 19 21 23
     9  0.4167  0.0481 -0.1701      12     1  3  5  7  9 11 13 15 17 19 21 23
    10  0.4167  0.0481 -0.3742      12     1  3  5  7  9 11 13 15 17 19 21 23
    11  0.4167  0.0481 -0.5784      12     1  3  5  7  9 11 13 15 17 19 21 23
    12  0.4167  0.0481  0.4423      12     1  3  5  7  9 11 13 15 17 19 21 23
    13  0.4167 -0.1443  0.3062      12     1  3  5  7  9 11 13 15 17 19 21 23
    14  0.4167 -0.1443  0.1021      12     1  3  5  7  9 11 13 15 17 19 21 23
    15  0.4167 -0.1443 -0.1021      12     1  3  5  7  9 11 13 15 17 19 21 23
    16  0.4167 -0.1443 -0.3062      12     1  3  5  7  9 11 13 15 17 19 21 23
    17  0.4167 -0.1443 -0.5103      12     1  3  5  7  9 11 13 15 17 19 21 23
    18  0.4167 -0.1443  0.5103      12     1  3  5  7  9 11 13 15 17 19 21 23
    19  0.4167 -0.3368  0.3742      12     1  3  5  7  9 11 13 15 17 19 21 23
    20  0.4167 -0.3368  0.1701      12     1  3  5  7  9 11 13 15 17 19 21 23
    21  0.4167 -0.3368 -0.0340      12     1  3  5  7  9 11 13 15 17 19 21 23
    22  0.4167 -0.3368 -0.2381      12     1  3  5  7  9 11 13 15 17 19 21 23
    23 -0.5833  0.2406 -0.0340      12     1  3  5  7  9 11 13 15 17 19 21 23
    24 -0.5833  0.2406 -0.2381      12     1  3  5  7  9 11 13 15 17 19 21 23
    25 -0.5833  0.0481 -0.3742      12     1  3  5  7  9 11 13 15 17 19 21 23
    26  0.4167 -0.5292  0.2381      12     1  3  5  7  9 11 13 15 17 19 21 23
    27  0.4167 -0.5292  0.0340      12     1  3  5  7  9 11 13 15 17 19 21 23
    28 -0.5833  0.0481  0.2381      12     1  3  5  7  9 11 13 15 17 19 21 23
    29 -0.5833  0.0481  0.0340      12     1  3  5  7  9 11 13 15 17 19 21 23
    30 -0.5833  0.0481 -0.1701      12     1  3  5  7  9 11 13 15 17 19 21 23
    31  0.4167  0.4330  0.1021      12     1  3  5  7  9 11 13 15 17 19 21 23
    32  0.4167  0.4330 -0.1021      12     1  3  5  7  9 11 13 15 17 19 21 23
    33  0.4167  0.4330 -0.3062      12     1  3  5  7  9 11 13 15 17 19 21 23
    34  0.2500  0.1443  0.3062       6     1  3  5  7  9 11
    35  0.2500  0.1443  0.1021       6     1  3  5  7  9 11
    36  0.2500  0.1443 -0.1021       6     1  3  5  7  9 11
    37  0.2500  0.1443 -0.3062       6     1  3  5  7  9 11
    38  0.2500  0.1443 -0.5103       6     1  3  5  7  9 11
    39  0.2500  0.1443  0.5103       6     1  3  5  7  9 11
    40  0.2500 -0.0481  0.3742      12     1  3  5  7  9 11 13 15 17 19 21 23
    41  0.2500 -0.0481  0.1701      12     1  3  5  7  9 11 13 15 17 19 21 23
    42  0.2500 -0.0481 -0.0340      12     1  3  5  7  9 11 13 15 17 19 21 23
    43  0.2500 -0.0481 -0.2381      12     1  3  5  7  9 11 13 15 17 19 21 23
    44  0.2500 -0.0481 -0.4423      12     1  3  5  7  9 11 13 15 17 19 21 23
    45  0.2500 -0.0481  0.5784      12     1  3  5  7  9 11 13 15 17 19 21 23
    46  0.2500 -0.2406  0.4423      12     1  3  5  7  9 11 13 15 17 19 21 23
    47  0.2500 -0.2406  0.2381      12     1  3  5  7  9 11 13 15 17 19 21 23
    48  0.2500 -0.2406  0.0340      12     1  3  5  7  9 11 13 15 17 19 21 23
    49  0.2500 -0.2406 -0.1701      12     1  3  5  7  9 11 13 15 17 19 21 23
    50  0.2500 -0.2406 -0.3742      12     1  3  5  7  9 11 13 15 17 19 21 23
    51  0.2500 -0.2406 -0.5784      12     1  3  5  7  9 11 13 15 17 19 21 23
    52  0.2500 -0.4330  0.5103      12     1  3  5  7  9 11 13 15 17 19 21 23
    53  0.2500 -0.4330  0.3062      12     1  3  5  7  9 11 13 15 17 19 21 23
    54  0.2500 -0.4330  0.1021      12     1  3  5  7  9 11 13 15 17 19 21 23
    55  0.0833  0.0481  0.4423       6     1  3  5  7  9 11
    56  0.0833  0.0481  0.2381       6     1  3  5  7  9 11
    57  0.0833  0.0481  0.0340       6     1  3  5  7  9 11
    58  0.0833  0.0481 -0.1701       6     1  3  5  7  9 11
    59  0.0833  0.0481 -0.3742       6     1  3  5  7  9 11
    60  0.0833  0.0481 -0.5784       6     1  3  5  7  9 11
    61  0.0833 -0.1443  0.5103      12     1  3  5  7  9 11 13 15 17 19 21 23
    62  0.0833 -0.1443  0.3062      12     1  3  5  7  9 11 13 15 17 19 21 23
    63  0.0833 -0.1443  0.1021      12     1  3  5  7  9 11 13 15 17 19 21 23
                        TOTAL:     648
 *******************************************************************************
 **                              Finished K290                                **
 *******************************************************************************

 Crystal Symmetry Information
       International Symbol:                                               Fd-3m
       Point Group Symbol:                                                  m-3m
       Schoenflies Symbol:                                                  Oh^7
       Number of Symmetry Operations:                                         48

 K-point Symmetry Information
       Number of Special K-points:                                            28
                   Wavevector Basis                                       Weight
          1  -0.41667  -0.41667  -0.41667                                      2
          2  -0.41667  -0.41667  -0.25000                                      6
          3  -0.41667  -0.41667  -0.08333                                      6
          4  -0.41667  -0.41667   0.08333                                      6
          5  -0.41667  -0.41667   0.25000                                      6
          6  -0.41667  -0.41667   0.41667                                      6
          7  -0.41667  -0.25000  -0.25000                                      6
          8  -0.41667  -0.25000  -0.08333                                     12
          9  -0.41667  -0.25000   0.08333                                     12
         10  -0.41667  -0.25000   0.25000                                     12
         11  -0.41667  -0.25000   0.41667                                     12
         12  -0.41667  -0.08333  -0.08333                                      6
         13  -0.41667  -0.08333   0.08333                                     12
         14  -0.41667  -0.08333   0.25000                                     12
         15  -0.41667  -0.08333   0.41667                                     12
         16  -0.41667   0.08333   0.08333                                      6
         17  -0.41667   0.08333   0.25000                                     12
         18  -0.41667   0.25000   0.25000                                      6
         19  -0.25000  -0.25000  -0.25000                                      2
         20  -0.25000  -0.25000  -0.08333                                      6
         21  -0.25000  -0.25000   0.08333                                      6
         22  -0.25000  -0.25000   0.25000                                      6
         23  -0.25000  -0.08333  -0.08333                                      6
         24  -0.25000  -0.08333   0.08333                                     12
         25  -0.25000  -0.08333   0.25000                                     12
         26  -0.25000   0.08333   0.08333                                      6
         27  -0.08333  -0.08333  -0.08333                                      2
         28  -0.08333  -0.08333   0.08333                                      6

       K-point Mesh:                                               6     6     6
                   Wavevector Basis                   Special Points    Rotation
          1  -0.41667  -0.41667  -0.41667              1           1           1
          2  -0.41667  -0.41667  -0.25000              2           2           1
          3  -0.41667  -0.41667  -0.08333              3           3           1
          4  -0.41667  -0.41667   0.08333              4           4           1
          5  -0.41667  -0.41667   0.25000              5           5           1
          6  -0.41667  -0.41667   0.41667              6           6           1
          7  -0.41667  -0.25000  -0.41667              2           2          19
          8  -0.41667  -0.25000  -0.25000              8           7           1
          9  -0.41667  -0.25000  -0.08333              9           8           1
         10  -0.41667  -0.25000   0.08333             10           9           1
         11  -0.41667  -0.25000   0.25000             11          10           1
         12  -0.41667  -0.25000   0.41667             12          11           1
         13  -0.41667  -0.08333  -0.41667              3           3          19
         14  -0.41667  -0.08333  -0.25000              9           8          19
         15  -0.41667  -0.08333  -0.08333             15          12           1
         16  -0.41667  -0.08333   0.08333             16          13           1
         17  -0.41667  -0.08333   0.25000             17          14           1
         18  -0.41667  -0.08333   0.41667             18          15           1
         19  -0.41667   0.08333  -0.41667              4           4          19
         20  -0.41667   0.08333  -0.25000             10           9          19
         21  -0.41667   0.08333  -0.08333             16          13          19
         22  -0.41667   0.08333   0.08333             22          16           1
         23  -0.41667   0.08333   0.25000             23          17           1
         24  -0.41667   0.08333   0.41667             18          15         -15
         25  -0.41667   0.25000  -0.41667              5           5          19
         26  -0.41667   0.25000  -0.25000             11          10          19
         27  -0.41667   0.25000  -0.08333             17          14          19
         28  -0.41667   0.25000   0.08333             23          17          19
         29  -0.41667   0.25000   0.25000             29          18           1
         30  -0.41667   0.25000   0.41667             12          11         -15
         31  -0.41667   0.41667  -0.41667              6           6          19
         32  -0.41667   0.41667  -0.25000             12          11          19
         33  -0.41667   0.41667  -0.08333             18          15          19
         34  -0.41667   0.41667   0.08333             18          15          -5
         35  -0.41667   0.41667   0.25000             12          11          -5
         36  -0.41667   0.41667   0.41667              6           6         -15
         37  -0.25000  -0.41667  -0.41667              2           2          15
         38  -0.25000  -0.41667  -0.25000              8           7          23
         39  -0.25000  -0.41667  -0.08333              9           8          23
         40  -0.25000  -0.41667   0.08333             10           9          23
         41  -0.25000  -0.41667   0.25000             11          10          23
         42  -0.25000  -0.41667   0.41667             12          11          23
         43  -0.25000  -0.25000  -0.41667              8           7          15
         44  -0.25000  -0.25000  -0.25000             44          19           1
         45  -0.25000  -0.25000  -0.08333             45          20           1
         46  -0.25000  -0.25000   0.08333             46          21           1
         47  -0.25000  -0.25000   0.25000             47          22           1
         48  -0.25000  -0.25000   0.41667             29          18         -15
         49  -0.25000  -0.08333  -0.41667              9           8           9
         50  -0.25000  -0.08333  -0.25000             45          20          19
         51  -0.25000  -0.08333  -0.08333             51          23           1
         52  -0.25000  -0.08333   0.08333             52          24           1
         53  -0.25000  -0.08333   0.25000             53          25           1
         54  -0.25000  -0.08333   0.41667             23          17         -15
         55  -0.25000   0.08333  -0.41667             10           9           9
         56  -0.25000   0.08333  -0.25000             46          21          19
         57  -0.25000   0.08333  -0.08333             52          24          19
         58  -0.25000   0.08333   0.08333             58          26           1
         59  -0.25000   0.08333   0.25000             53          25         -15
         60  -0.25000   0.08333   0.41667             17          14         -15
         61  -0.25000   0.25000  -0.41667             11          10           9
         62  -0.25000   0.25000  -0.25000             47          22          19
         63  -0.25000   0.25000  -0.08333             53          25          19
         64  -0.25000   0.25000   0.08333             53          25          -5
         65  -0.25000   0.25000   0.25000             47          22         -15
         66  -0.25000   0.25000   0.41667             11          10         -15
         67  -0.25000   0.41667  -0.41667             12          11           9
         68  -0.25000   0.41667  -0.25000             29          18         -23
         69  -0.25000   0.41667  -0.08333             23          17          -5
         70  -0.25000   0.41667   0.08333             17          14          -5
         71  -0.25000   0.41667   0.25000             11          10          -5
         72  -0.25000   0.41667   0.41667              5           5         -15
         73  -0.08333  -0.41667  -0.41667              3           3          15
         74  -0.08333  -0.41667  -0.25000              9           8           5
         75  -0.08333  -0.41667  -0.08333             15          12          23
         76  -0.08333  -0.41667   0.08333             16          13          23
         77  -0.08333  -0.41667   0.25000             17          14          23
         78  -0.08333  -0.41667   0.41667             18          15          23
         79  -0.08333  -0.25000  -0.41667              9           8          15
         80  -0.08333  -0.25000  -0.25000             45          20          15
         81  -0.08333  -0.25000  -0.08333             51          23          23
         82  -0.08333  -0.25000   0.08333             52          24          23
         83  -0.08333  -0.25000   0.25000             53          25          23
         84  -0.08333  -0.25000   0.41667             23          17          -9
         85  -0.08333  -0.08333  -0.41667             15          12          15
         86  -0.08333  -0.08333  -0.25000             51          23          15
         87  -0.08333  -0.08333  -0.08333             87          27           1
         88  -0.08333  -0.08333   0.08333             88          28           1
         89  -0.08333  -0.08333   0.25000             58          26         -15
         90  -0.08333  -0.08333   0.41667             22          16         -15
         91  -0.08333   0.08333  -0.41667             16          13           9
         92  -0.08333   0.08333  -0.25000             52          24           9
         93  -0.08333   0.08333  -0.08333             88          28          19
         94  -0.08333   0.08333   0.08333             88          28         -15
         95  -0.08333   0.08333   0.25000             52          24         -15
         96  -0.08333   0.08333   0.41667             16          13         -15
         97  -0.08333   0.25000  -0.41667             17          14           9
         98  -0.08333   0.25000  -0.25000             53          25           9
         99  -0.08333   0.25000  -0.08333             58          26         -23
        100  -0.08333   0.25000   0.08333             52          24          -5
        101  -0.08333   0.25000   0.25000             46          21         -15
        102  -0.08333   0.25000   0.41667             10           9         -15
        103  -0.08333   0.41667  -0.41667             18          15           9
        104  -0.08333   0.41667  -0.25000             23          17         -23
        105  -0.08333   0.41667  -0.08333             22          16         -23
        106  -0.08333   0.41667   0.08333             16          13          -5
        107  -0.08333   0.41667   0.25000             10           9          -5
        108  -0.08333   0.41667   0.41667              4           4         -15
        109   0.08333  -0.41667  -0.41667              4           4          15
        110   0.08333  -0.41667  -0.25000             10           9           5
        111   0.08333  -0.41667  -0.08333             16          13           5
        112   0.08333  -0.41667   0.08333             22          16          23
        113   0.08333  -0.41667   0.25000             23          17          23
        114   0.08333  -0.41667   0.41667             18          15          -9
        115   0.08333  -0.25000  -0.41667             10           9          15
        116   0.08333  -0.25000  -0.25000             46          21          15
        117   0.08333  -0.25000  -0.08333             52          24           5
        118   0.08333  -0.25000   0.08333             58          26          23
        119   0.08333  -0.25000   0.25000             53          25          -9
        120   0.08333  -0.25000   0.41667             17          14          -9
        121   0.08333  -0.08333  -0.41667             16          13          15
        122   0.08333  -0.08333  -0.25000             52          24          15
        123   0.08333  -0.08333  -0.08333             88          28          15
        124   0.08333  -0.08333   0.08333             88          28         -19
        125   0.08333  -0.08333   0.25000             52          24          -9
        126   0.08333  -0.08333   0.41667             16          13          -9
        127   0.08333   0.08333  -0.41667             22          16          15
        128   0.08333   0.08333  -0.25000             58          26          15
        129   0.08333   0.08333  -0.08333             88          28          -1
        130   0.08333   0.08333   0.08333             87          27          -1
        131   0.08333   0.08333   0.25000             51          23         -15
        132   0.08333   0.08333   0.41667             15          12         -15
        133   0.08333   0.25000  -0.41667             23          17           9
        134   0.08333   0.25000  -0.25000             53          25         -23
        135   0.08333   0.25000  -0.08333             52          24         -23
        136   0.08333   0.25000   0.08333             51          23         -23
        137   0.08333   0.25000   0.25000             45          20         -15
        138   0.08333   0.25000   0.41667              9           8         -15
        139   0.08333   0.41667  -0.41667             18          15         -23
        140   0.08333   0.41667  -0.25000             17          14         -23
        141   0.08333   0.41667  -0.08333             16          13         -23
        142   0.08333   0.41667   0.08333             15          12         -23
        143   0.08333   0.41667   0.25000              9           8          -5
        144   0.08333   0.41667   0.41667              3           3         -15
        145   0.25000  -0.41667  -0.41667              5           5          15
        146   0.25000  -0.41667  -0.25000             11          10           5
        147   0.25000  -0.41667  -0.08333             17          14           5
        148   0.25000  -0.41667   0.08333             23          17           5
        149   0.25000  -0.41667   0.25000             29          18          23
        150   0.25000  -0.41667   0.41667             12          11          -9
        151   0.25000  -0.25000  -0.41667             11          10          15
        152   0.25000  -0.25000  -0.25000             47          22          15
        153   0.25000  -0.25000  -0.08333             53          25           5
        154   0.25000  -0.25000   0.08333             53          25         -19
        155   0.25000  -0.25000   0.25000             47          22         -19
        156   0.25000  -0.25000   0.41667             11          10          -9
        157   0.25000  -0.08333  -0.41667             17          14          15
        158   0.25000  -0.08333  -0.25000             53          25          15
        159   0.25000  -0.08333  -0.08333             58          26          -1
        160   0.25000  -0.08333   0.08333             52          24         -19
        161   0.25000  -0.08333   0.25000             46          21         -19
        162   0.25000  -0.08333   0.41667             10           9          -9
        163   0.25000   0.08333  -0.41667             23          17          15
        164   0.25000   0.08333  -0.25000             53          25          -1
        165   0.25000   0.08333  -0.08333             52          24          -1
        166   0.25000   0.08333   0.08333             51          23          -1
        167   0.25000   0.08333   0.25000             45          20         -19
        168   0.25000   0.08333   0.41667              9           8          -9
        169   0.25000   0.25000  -0.41667             29          18          15
        170   0.25000   0.25000  -0.25000             47          22          -1
        171   0.25000   0.25000  -0.08333             46          21          -1
        172   0.25000   0.25000   0.08333             45          20          -1
        173   0.25000   0.25000   0.25000             44          19          -1
        174   0.25000   0.25000   0.41667              8           7         -15
        175   0.25000   0.41667  -0.41667             12          11         -23
        176   0.25000   0.41667  -0.25000             11          10         -23
        177   0.25000   0.41667  -0.08333             10           9         -23
        178   0.25000   0.41667   0.08333              9           8         -23
        179   0.25000   0.41667   0.25000              8           7         -23
        180   0.25000   0.41667   0.41667              2           2         -15
        181   0.41667  -0.41667  -0.41667              6           6          15
        182   0.41667  -0.41667  -0.25000             12          11           5
        183   0.41667  -0.41667  -0.08333             18          15           5
        184   0.41667  -0.41667   0.08333             18          15         -19
        185   0.41667  -0.41667   0.25000             12          11         -19
        186   0.41667  -0.41667   0.41667              6           6         -19
        187   0.41667  -0.25000  -0.41667             12          11          15
        188   0.41667  -0.25000  -0.25000             29          18          -1
        189   0.41667  -0.25000  -0.08333             23          17         -19
        190   0.41667  -0.25000   0.08333             17          14         -19
        191   0.41667  -0.25000   0.25000             11          10         -19
        192   0.41667  -0.25000   0.41667              5           5         -19
        193   0.41667  -0.08333  -0.41667             18          15          15
        194   0.41667  -0.08333  -0.25000             23          17          -1
        195   0.41667  -0.08333  -0.08333             22          16          -1
        196   0.41667  -0.08333   0.08333             16          13         -19
        197   0.41667  -0.08333   0.25000             10           9         -19
        198   0.41667  -0.08333   0.41667              4           4         -19
        199   0.41667   0.08333  -0.41667             18          15          -1
        200   0.41667   0.08333  -0.25000             17          14          -1
        201   0.41667   0.08333  -0.08333             16          13          -1
        202   0.41667   0.08333   0.08333             15          12          -1
        203   0.41667   0.08333   0.25000              9           8         -19
        204   0.41667   0.08333   0.41667              3           3         -19
        205   0.41667   0.25000  -0.41667             12          11          -1
        206   0.41667   0.25000  -0.25000             11          10          -1
        207   0.41667   0.25000  -0.08333             10           9          -1
        208   0.41667   0.25000   0.08333              9           8          -1
        209   0.41667   0.25000   0.25000              8           7          -1
        210   0.41667   0.25000   0.41667              2           2         -19
        211   0.41667   0.41667  -0.41667              6           6          -1
        212   0.41667   0.41667  -0.25000              5           5          -1
        213   0.41667   0.41667  -0.08333              4           4          -1
        214   0.41667   0.41667   0.08333              3           3          -1
        215   0.41667   0.41667   0.25000              2           2          -1
        216   0.41667   0.41667   0.41667              1           1          -1

       Atom Transformation Table
          Rot=    1     1    2
          Rot=    2     1    2
          Rot=    3     1    2
          Rot=    4     1    2
          Rot=    5     1    2
          Rot=    6     1    2
          Rot=    7     1    2
          Rot=    8     1    2
          Rot=    9     1    2
          Rot=   10     1    2
          Rot=   11     1    2
          Rot=   12     1    2
          Rot=   13     1    2
          Rot=   14     1    2
          Rot=   15     1    2
          Rot=   16     1    2
          Rot=   17     1    2
          Rot=   18     1    2
          Rot=   19     1    2
          Rot=   20     1    2
          Rot=   21     1    2
          Rot=   22     1    2
          Rot=   23     1    2
          Rot=   24     1    2
          Rot=   25     2    1
          Rot=   26     2    1
          Rot=   27     2    1
          Rot=   28     2    1
          Rot=   29     2    1
          Rot=   30     2    1
          Rot=   31     2    1
          Rot=   32     2    1
          Rot=   33     2    1
          Rot=   34     2    1
          Rot=   35     2    1
          Rot=   36     2    1
          Rot=   37     2    1
          Rot=   38     2    1
          Rot=   39     2    1
          Rot=   40     2    1
          Rot=   41     2    1
          Rot=   42     2    1
          Rot=   43     2    1
          Rot=   44     2    1
          Rot=   45     2    1
          Rot=   46     2    1
          Rot=   47     2    1
          Rot=   48     2    1

 *******************************************************************************
                                    Kpoints
 *******************************************************************************
 BRILLOUIN| K-point scheme                                        Monkhorst-Pack
 BRILLOUIN| K-Point grid                                             6    6    6
 BRILLOUIN| K-point symmetry accuracy                               0.100000E-07
 BRILLOUIN| K-Point point group symmetrization                                ON
 BRILLOUIN| Symmetry backend                                               K290
 BRILLOUIN| Symmetry reduction method                                      K290
 BRILLOUIN| Wavefunction type                                            COMPLEX
 BRILLOUIN| List of Kpoints [2 Pi/Bohr]                                       28
 BRILLOUIN| Number           Weight            X              Y              Z
 BRILLOUIN|     1           0.00926       -0.41667       -0.41667       -0.41667
 BRILLOUIN|     2           0.02778       -0.41667       -0.41667       -0.25000
 BRILLOUIN|     3           0.02778       -0.41667       -0.41667       -0.08333
 BRILLOUIN|     4           0.02778       -0.41667       -0.41667        0.08333
 BRILLOUIN|     5           0.02778       -0.41667       -0.41667        0.25000
 BRILLOUIN|     6           0.02778       -0.41667       -0.41667        0.41667
 BRILLOUIN|     7           0.02778       -0.41667       -0.25000       -0.25000
 BRILLOUIN|     8           0.05556       -0.41667       -0.25000       -0.08333
 BRILLOUIN|     9           0.05556       -0.41667       -0.25000        0.08333
 BRILLOUIN|    10           0.05556       -0.41667       -0.25000        0.25000
 BRILLOUIN|    11           0.05556       -0.41667       -0.25000        0.41667
 BRILLOUIN|    12           0.02778       -0.41667       -0.08333       -0.08333
 BRILLOUIN|    13           0.05556       -0.41667       -0.08333        0.08333
 BRILLOUIN|    14           0.05556       -0.41667       -0.08333        0.25000
 BRILLOUIN|    15           0.05556       -0.41667       -0.08333        0.41667
 BRILLOUIN|    16           0.02778       -0.41667        0.08333        0.08333
 BRILLOUIN|    17           0.05556       -0.41667        0.08333        0.25000
 BRILLOUIN|    18           0.02778       -0.41667        0.25000        0.25000
 BRILLOUIN|    19           0.00926       -0.25000       -0.25000       -0.25000
 BRILLOUIN|    20           0.02778       -0.25000       -0.25000       -0.08333
 BRILLOUIN|    21           0.02778       -0.25000       -0.25000        0.08333
 BRILLOUIN|    22           0.02778       -0.25000       -0.25000        0.25000
 BRILLOUIN|    23           0.02778       -0.25000       -0.08333       -0.08333
 BRILLOUIN|    24           0.05556       -0.25000       -0.08333        0.08333
 BRILLOUIN|    25           0.05556       -0.25000       -0.08333        0.25000
 BRILLOUIN|    26           0.02778       -0.25000        0.08333        0.08333
 BRILLOUIN|    27           0.00926       -0.08333       -0.08333       -0.08333
 BRILLOUIN|    28           0.02778       -0.08333       -0.08333        0.08333
 *******************************************************************************

 Extrapolation method: initial_guess

 Atomic guess: The first density matrix is obtained in terms of atomic orbitals
               and electronic configurations assigned to each atomic kind

 Guess for atomic kind: Si

 Electronic structure
    Total number of core electrons                                         10.00
    Total number of valence electrons                                       4.00
    Total number of electrons                                              14.00
    Multiplicity                                                   not specified
    S   [  2.00  2.00] 2.00
    P   [  6.00] 2.00


 *******************************************************************************
                  Iteration          Convergence                     Energy [au]
 *******************************************************************************
                          1        0.543323E-01                  -3.660143219958
                          2        0.234047E-01                  -3.663009798780
                          3        0.226205E-03                  -3.663777572878
                          4        0.558056E-06                  -3.663777636937

 Energy components [Hartree]           Total Energy ::           -3.663777636937
                                        Band Energy ::           -0.984334993298
                                     Kinetic Energy ::            1.376908294426
                                   Potential Energy ::           -5.040685931362
                                      Virial (-V/T) ::            3.660872660706
                                        Core Energy ::           -5.661357165131
                                          XC Energy ::           -0.978185127227
                                     Coulomb Energy ::            2.975764655422
                       Total Pseudopotential Energy ::           -7.083968923771
                       Local Pseudopotential Energy ::           -7.928832139320
                    Nonlocal Pseudopotential Energy ::            0.844863215548
                                        Confinement ::            0.457034642149

 Orbital energies  State     L     Occupation   Energy[a.u.]          Energy[eV]

                       1     0          2.000      -0.369997          -10.068127

                       1     1          2.000      -0.122171           -3.324432


 Total Electron Density at R=0:                                         0.000005
 Re-scaling the density matrix to get the right number of electrons
                  # Electrons              Trace(P)               Scaling factor
                            8                 8.000                        1.000

 Number of electrons:                                                          8
 Number of occupied orbitals:                                                  4
 Number of molecular orbitals:                                                 4

 Number of orbital functions:                                                 58
 Number of independent orbital functions:                                     58


 SCF WAVEFUNCTION OPTIMIZATION

  Step     Update method      Time    Convergence         Total energy    Change
  ------------------------------------------------------------------------------

 *** WARNING in qs_ks_methods.F:773 :: Native SKALA grid evaluation with   ***
 *** k-points is using the CPU TorchScript path. Use a mutually compatible ***
 *** BLAS, ScaLAPACK, OpenMP, and LibTorch runtime stack, or select        ***
 *** NATIVE_GRID_USE_CUDA T.                                               ***

 SKALA_GPW| Atom-composite cross support/maxima   0.000000000000E+00   0.000000000000E+00   0.000000000000E+00   0.000000000000E+00
 SKALA_GPW| Active atom-composite XC energy  -2.3393503287040573E+00
 SKALA_GPW| Active atom-composite electrons   8.0774385879335071E+00
 SKALA_GPW| Active atom-composite density range   1.8794263704826686E-03   3.3186439212258348E-02
 SKALA_GPW| Active atom-composite tau range   9.2178247737284948E-04   2.8635934377817120E-02
 SKALA_GPW| Active atom-composite tau integral   2.7812865014850190E+00
 SKALA_GPW| Active atom-composite max gradient   4.1898649042810036E-02
     1 P_Mix/Diag. 0.10E+00   25.8     0.34460563        -8.0242959562 -8.02E+00
 SKALA_GPW| Atom-composite cross support/maxima   0.000000000000E+00   0.000000000000E+00   0.000000000000E+00   0.000000000000E+00
 SKALA_GPW| Active atom-composite XC energy  -2.3460289119236837E+00
 SKALA_GPW| Active atom-composite electrons   8.0760330528282651E+00
 SKALA_GPW| Active atom-composite density range   1.7123286534928195E-03   3.4125844713373127E-02
 SKALA_GPW| Active atom-composite tau range   9.0448296865390770E-04   2.9132262174874381E-02
 SKALA_GPW| Active atom-composite tau integral   2.8332199425620783E+00
 SKALA_GPW| Active atom-composite max gradient   4.3001425789903173E-02
     2 P_Mix/Diag. 0.10E+00   17.0     0.33688903        -8.0114112805  1.29E-02
 SKALA_GPW| Atom-composite cross support/maxima   0.000000000000E+00   0.000000000000E+00   0.000000000000E+00   0.000000000000E+00
 SKALA_GPW| Active atom-composite XC energy  -2.3537231082398034E+00
 SKALA_GPW| Active atom-composite electrons   8.0747513228057439E+00
 SKALA_GPW| Active atom-composite density range   1.5615334450847416E-03   3.5125496056874900E-02
 SKALA_GPW| Active atom-composite tau range   8.8769972135456455E-04   2.9595607667537497E-02
 SKALA_GPW| Active atom-composite tau integral   2.8811298029419796E+00
 SKALA_GPW| Active atom-composite max gradient   4.4122204895297827E-02
     3 P_Mix/Diag. 0.10E+00   17.1     0.32388197        -8.0009121165  1.05E-02
 SKALA_GPW| Atom-composite cross support/maxima   0.000000000000E+00   0.000000000000E+00   0.000000000000E+00   0.000000000000E+00
 SKALA_GPW| Active atom-composite XC energy  -2.3620154299984915E+00
 SKALA_GPW| Active atom-composite electrons   8.0735940387505298E+00
 SKALA_GPW| Active atom-composite density range   1.4261421885285359E-03   3.6135160917284075E-02
 SKALA_GPW| Active atom-composite tau range   8.7182748104492659E-04   3.0053709088926142E-02
 SKALA_GPW| Active atom-composite tau integral   2.9252036251747731E+00
 SKALA_GPW| Active atom-composite max gradient   4.5238073302467520E-02
     4 P_Mix/Diag. 0.10E+00   17.1     0.30684857        -7.9922465020  8.67E-03
 SKALA_GPW| Atom-composite cross support/maxima   0.000000000000E+00   0.000000000000E+00   0.000000000000E+00   0.000000000000E+00
 SKALA_GPW| Active atom-composite XC energy  -2.3706506474380626E+00
 SKALA_GPW| Active atom-composite electrons   8.0725568087343902E+00
 SKALA_GPW| Active atom-composite density range   1.3058835561684816E-03   3.7104904354035573E-02
 SKALA_GPW| Active atom-composite tau range   8.5715272337605428E-04   3.0486678972363335E-02
 SKALA_GPW| Active atom-composite tau integral   2.9656498991239753E+00
 SKALA_GPW| Active atom-composite max gradient   4.6332006388140223E-02
     5 P_Mix/Diag. 0.10E+00   17.1     0.29072924        -7.9850921300  7.15E-03
 SKALA_GPW| Atom-composite cross support/maxima   0.000000000000E+00   0.000000000000E+00   0.000000000000E+00   0.000000000000E+00
 SKALA_GPW| Active atom-composite XC energy  -2.3793363980337476E+00
 SKALA_GPW| Active atom-composite electrons   8.0716388225602262E+00
 SKALA_GPW| Active atom-composite density range   1.2009885802414366E-03   3.8044405293965362E-02
 SKALA_GPW| Active atom-composite tau range   8.4392358584593037E-04   3.0902836295158970E-02
 SKALA_GPW| Active atom-composite tau integral   3.0027006380285313E+00
 SKALA_GPW| Active atom-composite max gradient   4.7406657189476495E-02
     6 P_Mix/Diag. 0.10E+00   17.1     0.27557823        -7.9791328618  5.96E-03
 SKALA_GPW| Atom-composite cross support/maxima   0.000000000000E+00   0.000000000000E+00   0.000000000000E+00   0.000000000000E+00
 SKALA_GPW| Active atom-composite XC energy  -2.3874310235906848E+00
 SKALA_GPW| Active atom-composite electrons   8.0708524316250330E+00
 SKALA_GPW| Active atom-composite density range   1.1095019672683686E-03   3.8901031739614324E-02
 SKALA_GPW| Active atom-composite tau range   8.3279157853157751E-04   3.1279588698070862E-02
 SKALA_GPW| Active atom-composite tau integral   3.0357916759210020E+00
 SKALA_GPW| Active atom-composite max gradient   4.8381723785307092E-02
     7 P_Mix/Diag. 0.10E+00   17.1     0.26014610        -7.9739106285  5.22E-03
 SKALA_GPW| Atom-composite cross support/maxima   0.000000000000E+00   0.000000000000E+00   0.000000000000E+00   0.000000000000E+00
 SKALA_GPW| Active atom-composite XC energy  -2.3944526467550640E+00
 SKALA_GPW| Active atom-composite electrons   8.0702044018648778E+00
 SKALA_GPW| Active atom-composite density range   1.0278296214026048E-03   3.9662930835847703E-02
 SKALA_GPW| Active atom-composite tau range   8.2424108656749956E-04   3.1591866469789724E-02
 SKALA_GPW| Active atom-composite tau integral   3.0643004436280732E+00
 SKALA_GPW| Active atom-composite max gradient   4.9214405717523342E-02
     8 P_Mix/Diag. 0.10E+00   17.0     0.24393043        -7.9691407317  4.77E-03
 SKALA_GPW| Atom-composite cross support/maxima   0.000000000000E+00   0.000000000000E+00   0.000000000000E+00   0.000000000000E+00
 SKALA_GPW| Active atom-composite XC energy  -2.4003474715980913E+00
 SKALA_GPW| Active atom-composite electrons   8.0696810663093821E+00
 SKALA_GPW| Active atom-composite density range   9.5338702344837528E-04   4.0313637885979477E-02
 SKALA_GPW| Active atom-composite tau range   8.1811645627405405E-04   3.1830405043217096E-02
 SKALA_GPW| Active atom-composite tau integral   3.0884019418292215E+00
 SKALA_GPW| Active atom-composite max gradient   4.9903219211384152E-02
     9 P_Mix/Diag. 0.10E+00   16.9     0.22705567        -7.9647338221  4.41E-03
 SKALA_GPW| Atom-composite cross support/maxima   0.000000000000E+00   0.000000000000E+00   0.000000000000E+00   0.000000000000E+00
 SKALA_GPW| Active atom-composite XC energy  -2.4052323613210769E+00
 SKALA_GPW| Active atom-composite electrons   8.0692601432150823E+00
 SKALA_GPW| Active atom-composite density range   8.8469486893938019E-04   4.0865644380125521E-02
 SKALA_GPW| Active atom-composite tau range   8.1398372021105627E-04   3.2003497230016976E-02
 SKALA_GPW| Active atom-composite tau integral   3.1086543742551287E+00
 SKALA_GPW| Active atom-composite max gradient   5.0465315668717002E-02
    10 P_Mix/Diag. 0.10E+00   17.1     0.20999270        -7.9606495813  4.08E-03
 SKALA_GPW| Atom-composite cross support/maxima   0.000000000000E+00   0.000000000000E+00   0.000000000000E+00   0.000000000000E+00
 SKALA_GPW| Active atom-composite XC energy  -2.4092262369231290E+00
 SKALA_GPW| Active atom-composite electrons   8.0689211943821473E+00
 SKALA_GPW| Active atom-composite density range   8.2042167512069383E-04   4.1327469084564313E-02
 SKALA_GPW| Active atom-composite tau range   8.1145060256320389E-04   3.2129196331877670E-02
 SKALA_GPW| Active atom-composite tau integral   3.1255497883893133E+00
 SKALA_GPW| Active atom-composite max gradient   5.0915338602349772E-02
    11 P_Mix/Diag. 0.10E+00   16.9     0.19347176        -7.9568540226  3.80E-03
 SKALA_GPW| Atom-composite cross support/maxima   0.000000000000E+00   0.000000000000E+00   0.000000000000E+00   0.000000000000E+00
 SKALA_GPW| Active atom-composite XC energy  -2.4124496019141888E+00
 SKALA_GPW| Active atom-composite electrons   8.0686474196705724E+00
 SKALA_GPW| Active atom-composite density range   7.5943621651032773E-04   4.1720167891200997E-02
 SKALA_GPW| Active atom-composite tau range   8.1018532762612094E-04   3.2202203315180429E-02
 SKALA_GPW| Active atom-composite tau integral   3.1395045465119620E+00
 SKALA_GPW| Active atom-composite max gradient   5.1266298757514220E-02
    12 P_Mix/Diag. 0.10E+00   16.9     0.17795926        -7.9533270868  3.53E-03
 SKALA_GPW| Atom-composite cross support/maxima   0.000000000000E+00   0.000000000000E+00   0.000000000000E+00   0.000000000000E+00
 SKALA_GPW| Active atom-composite XC energy  -2.4150260929318770E+00
 SKALA_GPW| Active atom-composite electrons   8.0684252938165653E+00
 SKALA_GPW| Active atom-composite density range   7.0105978441949699E-04   4.2062486769869893E-02
 SKALA_GPW| Active atom-composite tau range   8.0990698928033711E-04   3.2225609862193541E-02
 SKALA_GPW| Active atom-composite tau integral   3.1508995360777114E+00
 SKALA_GPW| Active atom-composite max gradient   5.1531000725635642E-02
    13 P_Mix/Diag. 0.10E+00   17.1     0.16355805        -7.9500601928  3.27E-03
 SKALA_GPW| Atom-composite cross support/maxima   0.000000000000E+00   0.000000000000E+00   0.000000000000E+00   0.000000000000E+00
 SKALA_GPW| Active atom-composite XC energy  -2.4170674219442332E+00
 SKALA_GPW| Active atom-composite electrons   8.0682442375113546E+00
 SKALA_GPW| Active atom-composite density range   6.4506538869832245E-04   4.2345306973372583E-02
 SKALA_GPW| Active atom-composite tau range   8.1038596707135209E-04   3.2206436076880868E-02
 SKALA_GPW| Active atom-composite tau integral   3.1600844765542333E+00
 SKALA_GPW| Active atom-composite max gradient   5.1721605865051964E-02
    14 P_Mix/Diag. 0.10E+00   17.1     0.15026761        -7.9470448928  3.02E-03
 SKALA_GPW| Atom-composite cross support/maxima   0.000000000000E+00   0.000000000000E+00   0.000000000000E+00   0.000000000000E+00
 SKALA_GPW| Active atom-composite XC energy  -2.4186623089663741E+00
 SKALA_GPW| Active atom-composite electrons   8.0680965766394408E+00
 SKALA_GPW| Active atom-composite density range   5.9135874306964059E-04   4.2576547994703749E-02
 SKALA_GPW| Active atom-composite tau range   8.1145563484508404E-04   3.2150128784408614E-02
 SKALA_GPW| Active atom-composite tau integral   3.1673318289765344E+00
 SKALA_GPW| Active atom-composite max gradient   5.1847398232824506E-02
    15 P_Mix/Diag. 0.10E+00   17.1     0.13797475        -7.9442714576  2.77E-03
 SKALA_GPW| Atom-composite cross support/maxima   0.000000000000E+00   0.000000000000E+00   0.000000000000E+00   0.000000000000E+00
 SKALA_GPW| Active atom-composite XC energy  -2.4198938532528889E+00
 SKALA_GPW| Active atom-composite electrons   8.0679762704063656E+00
 SKALA_GPW| Active atom-composite density range   5.4008616068106118E-04   4.2763312445702806E-02
 SKALA_GPW| Active atom-composite tau range   8.1297577965282718E-04   3.2062327873108760E-02
 SKALA_GPW| Active atom-composite tau integral   3.1728948082425208E+00
 SKALA_GPW| Active atom-composite max gradient   5.1917225679233528E-02
    16 P_Mix/Diag. 0.10E+00   17.2     0.12651142        -7.9417336280  2.54E-03
 SKALA_GPW| Atom-composite cross support/maxima   0.000000000000E+00   0.000000000000E+00   0.000000000000E+00   0.000000000000E+00
 SKALA_GPW| Active atom-composite XC energy  -2.4208462673520299E+00
 SKALA_GPW| Active atom-composite electrons   8.0678779645390826E+00
 SKALA_GPW| Active atom-composite density range   4.9167778944576076E-04   4.2914417204119863E-02
 SKALA_GPW| Active atom-composite tau range   8.1480411570709248E-04   3.1950953557407236E-02
 SKALA_GPW| Active atom-composite tau integral   3.1770677149583912E+00
 SKALA_GPW| Active atom-composite max gradient   5.1942153890892427E-02
    17 P_Mix/Diag. 0.10E+00   16.9     0.11771303        -7.9394256050  2.31E-03
 SKALA_GPW| Atom-composite cross support/maxima   0.000000000000E+00   0.000000000000E+00   0.000000000000E+00   0.000000000000E+00
 SKALA_GPW| Active atom-composite XC energy  -2.4215943583780457E+00
 SKALA_GPW| Active atom-composite electrons   8.0677970092084159E+00
 SKALA_GPW| Active atom-composite density range   4.4658235783096701E-04   4.3036367577293892E-02
 SKALA_GPW| Active atom-composite tau range   8.1680581113845044E-04   3.1825145862053414E-02
 SKALA_GPW| Active atom-composite tau integral   3.1801635798188910E+00
 SKALA_GPW| Active atom-composite max gradient   5.1934476232476108E-02
    18 P_Mix/Diag. 0.10E+00   17.2     0.11643403        -7.9373373443  2.09E-03
 SKALA_GPW| Atom-composite cross support/maxima   0.000000000000E+00   0.000000000000E+00   0.000000000000E+00   0.000000000000E+00
 SKALA_GPW| Active atom-composite XC energy  -2.4221953470693567E+00
 SKALA_GPW| Active atom-composite electrons   8.0677296695493474E+00
 SKALA_GPW| Active atom-composite density range   4.0504747299371512E-04   4.3135870967522992E-02
 SKALA_GPW| Active atom-composite tau range   8.1887157818300580E-04   3.1693111515637529E-02
 SKALA_GPW| Active atom-composite tau integral   3.1824627038051903E+00
 SKALA_GPW| Active atom-composite max gradient   5.1905324681942783E-02
    19 P_Mix/Diag. 0.10E+00   17.0     0.11225754        -7.9354541884  1.88E-03
 SKALA_GPW| Atom-composite cross support/maxima   0.000000000000E+00   0.000000000000E+00   0.000000000000E+00   0.000000000000E+00
 SKALA_GPW| Active atom-composite XC energy  -2.4226892813852481E+00
 SKALA_GPW| Active atom-composite electrons   8.0676731025846262E+00
 SKALA_GPW| Active atom-composite density range   3.6709608452804615E-04   4.3225234756165007E-02
 SKALA_GPW| Active atom-composite tau range   8.2092368876457596E-04   3.1560996274880772E-02
 SKALA_GPW| Active atom-composite tau integral   3.1841859557635455E+00
 SKALA_GPW| Active atom-composite max gradient   5.1863349472692624E-02
    20 P_Mix/Diag. 0.10E+00   17.1     0.10621610        -7.9337590682  1.70E-03
 SKALA_GPW| Atom-composite cross support/maxima   0.000000000000E+00   0.000000000000E+00   0.000000000000E+00   0.000000000000E+00
 SKALA_GPW| Active atom-composite XC energy  -2.4231033144454601E+00
 SKALA_GPW| Active atom-composite electrons   8.0676251836270918E+00
 SKALA_GPW| Active atom-composite density range   3.3259691063472187E-04   4.3307241918222522E-02
 SKALA_GPW| Active atom-composite tau range   8.2291202501857507E-04   3.1432926047860854E-02
 SKALA_GPW| Active atom-composite tau integral   3.1854947868455312E+00
 SKALA_GPW| Active atom-composite max gradient   5.1814639923699495E-02
    21 P_Mix/Diag. 0.10E+00   17.2     0.09916912        -7.9322345851  1.52E-03
 SKALA_GPW| Atom-composite cross support/maxima   0.000000000000E+00   0.000000000000E+00   0.000000000000E+00   0.000000000000E+00
 SKALA_GPW| Active atom-composite XC energy  -2.4234558541925075E+00
 SKALA_GPW| Active atom-composite electrons   8.0675843160349849E+00
 SKALA_GPW| Active atom-composite density range   3.0133665702285710E-04   4.3377780731857614E-02
 SKALA_GPW| Active atom-composite tau range   8.2480691202572282E-04   3.1311238534351166E-02
 SKALA_GPW| Active atom-composite tau integral   3.1865029789791741E+00
 SKALA_GPW| Active atom-composite max gradient   5.1763218527572173E-02
    22 DIIS/Diag.  0.11E-03   17.4     0.09691461        -7.9308640904  1.37E-03
 SKALA_GPW| Atom-composite cross support/maxima   0.000000000000E+00   0.000000000000E+00   0.000000000000E+00   0.000000000000E+00
 SKALA_GPW| Active atom-composite XC energy  -2.4263109886617289E+00
 SKALA_GPW| Active atom-composite electrons   8.0672698674425192E+00
 SKALA_GPW| Active atom-composite density range   1.6170210923241447E-05   4.3959826480412009E-02
 SKALA_GPW| Active atom-composite tau range   8.4432039251211728E-04   3.0079693873871747E-02
 SKALA_GPW| Active atom-composite tau integral   3.1918697889946324E+00
 SKALA_GPW| Active atom-composite max gradient   5.1136960878382334E-02
    23 DIIS/Diag.  0.31E-03   17.0     0.00084438        -7.9186256396  1.22E-02
 SKALA_GPW| Atom-composite cross support/maxima   0.000000000000E+00   0.000000000000E+00   0.000000000000E+00   0.000000000000E+00
 SKALA_GPW| Active atom-composite XC energy  -2.4263788627165983E+00
 SKALA_GPW| Active atom-composite electrons   8.0672578186226485E+00
 SKALA_GPW| Active atom-composite density range   1.6542616392958049E-05   4.3965428088583801E-02
 SKALA_GPW| Active atom-composite tau range   8.4377685727587677E-04   3.0098141116031589E-02
 SKALA_GPW| Active atom-composite tau integral   3.1923897021954857E+00
 SKALA_GPW| Active atom-composite max gradient   5.1156739728579981E-02
    24 DIIS/Diag.  0.58E-03   17.1     0.00024312        -7.9186227750  2.86E-06
 SKALA_GPW| Atom-composite cross support/maxima   0.000000000000E+00   0.000000000000E+00   0.000000000000E+00   0.000000000000E+00
 SKALA_GPW| Active atom-composite XC energy  -2.4263882200285845E+00
 SKALA_GPW| Active atom-composite electrons   8.0672587956608144E+00
 SKALA_GPW| Active atom-composite density range   1.6651396746210955E-05   4.3968582820037509E-02
 SKALA_GPW| Active atom-composite tau range   8.4380872486305048E-04   3.0101117790773020E-02
 SKALA_GPW| Active atom-composite tau integral   3.1924553742073183E+00
 SKALA_GPW| Active atom-composite max gradient   5.1161827527669769E-02
    25 DIIS/Diag.  0.70E-03   17.1     0.00580249        -7.9186228225 -4.75E-08
 SKALA_GPW| Atom-composite cross support/maxima   0.000000000000E+00   0.000000000000E+00   0.000000000000E+00   0.000000000000E+00
 SKALA_GPW| Active atom-composite XC energy  -2.4267381514784603E+00
 SKALA_GPW| Active atom-composite electrons   8.0672277819738714E+00
 SKALA_GPW| Active atom-composite density range   1.9580818819303470E-05   4.4021141962640835E-02
 SKALA_GPW| Active atom-composite tau range   8.4234194363528680E-04   3.0202127496907802E-02
 SKALA_GPW| Active atom-composite tau integral   3.1950511250354845E+00
 SKALA_GPW| Active atom-composite max gradient   5.1281255960482358E-02
    26 DIIS/Diag.  0.73E-02   17.0     0.00786530        -7.9185998130  2.30E-05
 SKALA_GPW| Atom-composite cross support/maxima   0.000000000000E+00   0.000000000000E+00   0.000000000000E+00   0.000000000000E+00
 SKALA_GPW| Active atom-composite XC energy  -2.4261675914072538E+00
 SKALA_GPW| Active atom-composite electrons   8.0673196506800853E+00
 SKALA_GPW| Active atom-composite density range   1.5761361814917904E-05   4.3966206777105700E-02
 SKALA_GPW| Active atom-composite tau range   8.4660174579961661E-04   3.0037119986565938E-02
 SKALA_GPW| Active atom-composite tau integral   3.1905521109960437E+00
 SKALA_GPW| Active atom-composite max gradient   5.1104645705004698E-02
    27 DIIS/Diag.  0.45E-03   16.8     0.00132702        -7.9186286646 -2.89E-05
 SKALA_GPW| Atom-composite cross support/maxima   0.000000000000E+00   0.000000000000E+00   0.000000000000E+00   0.000000000000E+00
 SKALA_GPW| Active atom-composite XC energy  -2.4261634881742142E+00
 SKALA_GPW| Active atom-composite electrons   8.0673181461317292E+00
 SKALA_GPW| Active atom-composite density range   1.5354688912147776E-05   4.3965378533519610E-02
 SKALA_GPW| Active atom-composite tau range   8.4666898375423863E-04   3.0025751227652733E-02
 SKALA_GPW| Active atom-composite tau integral   3.1902397606049360E+00
 SKALA_GPW| Active atom-composite max gradient   5.1094017704443183E-02
    28 DIIS/Diag.  0.89E-03   16.8     0.00051349        -7.9186265741  2.09E-06
 SKALA_GPW| Atom-composite cross support/maxima   0.000000000000E+00   0.000000000000E+00   0.000000000000E+00   0.000000000000E+00
 SKALA_GPW| Active atom-composite XC energy  -2.4261974658321641E+00
 SKALA_GPW| Active atom-composite electrons   8.0673161963555433E+00
 SKALA_GPW| Active atom-composite density range   1.5417435984579363E-05   4.3967016214669211E-02
 SKALA_GPW| Active atom-composite tau range   8.4659134964867053E-04   3.0029816744090963E-02
 SKALA_GPW| Active atom-composite tau integral   3.1904287141555834E+00
 SKALA_GPW| Active atom-composite max gradient   5.1099775128588265E-02
    29 DIIS/Diag.  0.18E-03   17.0     0.00045060        -7.9186307924 -4.22E-06
 SKALA_GPW| Atom-composite cross support/maxima   0.000000000000E+00   0.000000000000E+00   0.000000000000E+00   0.000000000000E+00
 SKALA_GPW| Active atom-composite XC energy  -2.4261830267378679E+00
 SKALA_GPW| Active atom-composite electrons   8.0673174352677020E+00
 SKALA_GPW| Active atom-composite density range   1.5268382442865879E-05   4.3963430912640600E-02
 SKALA_GPW| Active atom-composite tau range   8.4664973606851689E-04   3.0024942387835492E-02
 SKALA_GPW| Active atom-composite tau integral   3.1903292565690795E+00
 SKALA_GPW| Active atom-composite max gradient   5.1092405447863407E-02
    30 DIIS/Diag.  0.58E-05   16.9     0.00025561        -7.9186326077 -1.82E-06
 SKALA_GPW| Atom-composite cross support/maxima   0.000000000000E+00   0.000000000000E+00   0.000000000000E+00   0.000000000000E+00
 SKALA_GPW| Active atom-composite XC energy  -2.4261897865712143E+00
 SKALA_GPW| Active atom-composite electrons   8.0673176897165035E+00
 SKALA_GPW| Active atom-composite density range   1.5367702964668460E-05   4.3964837448132774E-02
 SKALA_GPW| Active atom-composite tau range   8.4663204421047192E-04   3.0028439222137944E-02
 SKALA_GPW| Active atom-composite tau integral   3.1904143354804830E+00
 SKALA_GPW| Active atom-composite max gradient   5.1096363050209474E-02
    31 DIIS/Diag.  0.18E-05   17.0     0.00014989        -7.9186326170 -9.32E-09
 SKALA_GPW| Atom-composite cross support/maxima   0.000000000000E+00   0.000000000000E+00   0.000000000000E+00   0.000000000000E+00
 SKALA_GPW| Active atom-composite XC energy  -2.4261836849119938E+00
 SKALA_GPW| Active atom-composite electrons   8.0673180236491184E+00
 SKALA_GPW| Active atom-composite density range   1.5314105491292049E-05   4.3963806679975008E-02
 SKALA_GPW| Active atom-composite tau range   8.4665313340579710E-04   3.0026195478776149E-02
 SKALA_GPW| Active atom-composite tau integral   3.1903605743855845E+00
 SKALA_GPW| Active atom-composite max gradient   5.1093961820182346E-02
    32 DIIS/Diag.  0.17E-06   16.9     0.00003237        -7.9186326257 -8.74E-09
 SKALA_GPW| Atom-composite cross support/maxima   0.000000000000E+00   0.000000000000E+00   0.000000000000E+00   0.000000000000E+00
 SKALA_GPW| Active atom-composite XC energy  -2.4261856590110211E+00
 SKALA_GPW| Active atom-composite electrons   8.0673178686977156E+00
 SKALA_GPW| Active atom-composite density range   1.5326650341393678E-05   4.3964107469470770E-02
 SKALA_GPW| Active atom-composite tau range   8.4664668921817553E-04   3.0026681867696744E-02
 SKALA_GPW| Active atom-composite tau integral   3.1903737681782780E+00
 SKALA_GPW| Active atom-composite max gradient   5.1094571148006342E-02
    33 DIIS/Diag.  0.92E-08   17.4     0.00000502        -7.9186326221  3.59E-09
 SKALA_GPW| Atom-composite cross support/maxima   0.000000000000E+00   0.000000000000E+00   0.000000000000E+00   0.000000000000E+00
 SKALA_GPW| Active atom-composite XC energy  -2.4261858683045805E+00
 SKALA_GPW| Active atom-composite electrons   8.0673178606257032E+00
 SKALA_GPW| Active atom-composite density range   1.5328264025998550E-05   4.3964157068181776E-02
 SKALA_GPW| Active atom-composite tau range   8.4664600869082166E-04   3.0026690234538585E-02
 SKALA_GPW| Active atom-composite tau integral   3.1903754926010226E+00
 SKALA_GPW| Active atom-composite max gradient   5.1094695762665635E-02
    34 DIIS/Diag.  0.27E-07   17.2     0.00000912        -7.9186326201  2.00E-09
 SKALA_GPW| Atom-composite cross support/maxima   0.000000000000E+00   0.000000000000E+00   0.000000000000E+00   0.000000000000E+00
 SKALA_GPW| Active atom-composite XC energy  -2.4261856829941193E+00
 SKALA_GPW| Active atom-composite electrons   8.0673178700125732E+00
 SKALA_GPW| Active atom-composite density range   1.5326626704367345E-05   4.3964095624540657E-02
 SKALA_GPW| Active atom-composite tau range   8.4664668946241560E-04   3.0026632073205620E-02
 SKALA_GPW| Active atom-composite tau integral   3.1903738554496450E+00
 SKALA_GPW| Active atom-composite max gradient   5.1094549573908576E-02
    35 DIIS/Diag.  0.15E-07   17.2     0.00000450        -7.9186326220 -1.84E-09
 SKALA_GPW| Atom-composite cross support/maxima   0.000000000000E+00   0.000000000000E+00   0.000000000000E+00   0.000000000000E+00
 SKALA_GPW| Active atom-composite XC energy  -2.4261857760215415E+00
 SKALA_GPW| Active atom-composite electrons   8.0673178682326743E+00
 SKALA_GPW| Active atom-composite density range   1.5327816638695114E-05   4.3964119187197691E-02
 SKALA_GPW| Active atom-composite tau range   8.4664640624355968E-04   3.0026695215710941E-02
 SKALA_GPW| Active atom-composite tau integral   3.1903747903679607E+00
 SKALA_GPW| Active atom-composite max gradient   5.1094619903614476E-02
    36 DIIS/Diag.  0.56E-09   17.2     0.00000367        -7.9186326215  4.48E-10
 SKALA_GPW| Atom-composite cross support/maxima   0.000000000000E+00   0.000000000000E+00   0.000000000000E+00   0.000000000000E+00
 SKALA_GPW| Active atom-composite XC energy  -2.4261856100613231E+00
 SKALA_GPW| Active atom-composite electrons   8.0673178775863139E+00
 SKALA_GPW| Active atom-composite density range   1.5326410980588461E-05   4.3964093086212477E-02
 SKALA_GPW| Active atom-composite tau range   8.4664695225882122E-04   3.0026634796681200E-02
 SKALA_GPW| Active atom-composite tau integral   3.1903734074067263E+00
 SKALA_GPW| Active atom-composite max gradient   5.1094555945086446E-02
    37 DIIS/Diag.  0.57E-09   17.1     0.00000228        -7.9186326237 -2.21E-09
 SKALA_GPW| Atom-composite cross support/maxima   0.000000000000E+00   0.000000000000E+00   0.000000000000E+00   0.000000000000E+00
 SKALA_GPW| Active atom-composite XC energy  -2.4261857211676965E+00
 SKALA_GPW| Active atom-composite electrons   8.0673178713844713E+00
 SKALA_GPW| Active atom-composite density range   1.5327263090349552E-05   4.3964109314622815E-02
 SKALA_GPW| Active atom-composite tau range   8.4664659319992760E-04   3.0026668528638049E-02
 SKALA_GPW| Active atom-composite tau integral   3.1903742740161900E+00
 SKALA_GPW| Active atom-composite max gradient   5.1094592281504612E-02
    38 DIIS/Diag.  0.17E-09   17.3     0.00000031        -7.9186326258 -2.08E-09
 SKALA_GPW| Atom-composite cross support/maxima   0.000000000000E+00   0.000000000000E+00   0.000000000000E+00   0.000000000000E+00
 SKALA_GPW| Active atom-composite XC energy  -2.4261857107438711E+00
 SKALA_GPW| Active atom-composite electrons   8.0673178720337422E+00
 SKALA_GPW| Active atom-composite density range   1.5327215196926567E-05   4.3964108129943086E-02
 SKALA_GPW| Active atom-composite tau range   8.4664663566384486E-04   3.0026662545510181E-02
 SKALA_GPW| Active atom-composite tau integral   3.1903741922630013E+00
 SKALA_GPW| Active atom-composite max gradient   5.1094592047588698E-02
    39 DIIS/Diag.  0.16E-10   17.2     0.00000029        -7.9186326252  6.09E-10
 SKALA_GPW| Atom-composite cross support/maxima   0.000000000000E+00   0.000000000000E+00   0.000000000000E+00   0.000000000000E+00
 SKALA_GPW| Active atom-composite XC energy  -2.4261856947545839E+00
 SKALA_GPW| Active atom-composite electrons   8.0673178726711772E+00
 SKALA_GPW| Active atom-composite density range   1.5327105540787434E-05   4.3964105102022422E-02
 SKALA_GPW| Active atom-composite tau range   8.4664668190172481E-04   3.0026660122372623E-02
 SKALA_GPW| Active atom-composite tau integral   3.1903740833503273E+00
 SKALA_GPW| Active atom-composite max gradient   5.1094585722195510E-02
    40 DIIS/Diag.  0.25E-10   17.0     0.00000032        -7.9186326225  2.73E-09
 SKALA_GPW| Atom-composite cross support/maxima   0.000000000000E+00   0.000000000000E+00   0.000000000000E+00   0.000000000000E+00
 SKALA_GPW| Active atom-composite XC energy  -2.4261857046367874E+00
 SKALA_GPW| Active atom-composite electrons   8.0673178721795438E+00
 SKALA_GPW| Active atom-composite density range   1.5327183201933110E-05   4.3964108310505172E-02
 SKALA_GPW| Active atom-composite tau range   8.4664665716994395E-04   3.0026663554969007E-02
 SKALA_GPW| Active atom-composite tau integral   3.1903741616483465E+00
 SKALA_GPW| Active atom-composite max gradient   5.1094592201523285E-02
    41 DIIS/Diag.  0.33E-10   17.2     0.00000039        -7.9186326233 -8.40E-10
 SKALA_GPW| Atom-composite cross support/maxima   0.000000000000E+00   0.000000000000E+00   0.000000000000E+00   0.000000000000E+00
 SKALA_GPW| Active atom-composite XC energy  -2.4261856880383670E+00
 SKALA_GPW| Active atom-composite electrons   8.0673178731309108E+00
 SKALA_GPW| Active atom-composite density range   1.5327041212631985E-05   4.3964104612757945E-02
 SKALA_GPW| Active atom-composite tau range   8.4664670414697895E-04   3.0026657767355070E-02
 SKALA_GPW| Active atom-composite tau integral   3.1903740240685301E+00
 SKALA_GPW| Active atom-composite max gradient   5.1094583529791689E-02
    42 DIIS/Diag.  0.29E-11   17.1     0.00000018        -7.9186326237 -3.35E-10
 SKALA_GPW| Atom-composite cross support/maxima   0.000000000000E+00   0.000000000000E+00   0.000000000000E+00   0.000000000000E+00
 SKALA_GPW| Active atom-composite XC energy  -2.4261856966877309E+00
 SKALA_GPW| Active atom-composite electrons   8.0673178725089869E+00
 SKALA_GPW| Active atom-composite density range   1.5327106476181134E-05   4.3964105925898153E-02
 SKALA_GPW| Active atom-composite tau range   8.4664667154532840E-04   3.0026660804129395E-02
 SKALA_GPW| Active atom-composite tau integral   3.1903740944458194E+00
 SKALA_GPW| Active atom-composite max gradient   5.1094586596956766E-02
    43 DIIS/Diag.  0.85E-12   17.2     0.00000006        -7.9186326229  7.31E-10

  *** SCF run converged in    43 steps ***


  Electronic density on regular grids:         -8.0000000000       -0.0000000000
  Core density on regular grids:                8.0000000000       -0.0000000000
  Hard and soft densities (Lebedev):           -0.0000000000       -0.0000000000
  Total Rho_soft + Rho1_hard - Rho1_soft       -8.0000000000
  Total charge density (r-space):              -0.0000000000
  Total Rho_soft + Rho0_soft (g-space):        -0.0000000000

  Overlap energy of the core charge distribution:               0.00000000001336
  Self energy of the core charge distribution:                -20.51679512182016
  Core Hamiltonian energy:                                      4.36496207029904
  Hartree energy:                                              10.70280516484513
  Exchange-correlation energy:                                  0.00000000000000
  Dispersion energy:                                           -0.04341903957332

  GAPW| Exc from hard and soft atomic rho1:                    -2.42618569668773
  GAPW| local Eh = 1 center integrals:                          0.00000000000000

  Total energy:                                                -7.91863262292367

 !-----------------------------------------------------------------------------!
                     Mulliken Population Analysis

 #  Atom  Element  Kind  Atomic population                           Net charge
       1     Si       1          3.999999                              0.000001
       2     Si       1          4.000001                             -0.000001
 # Total charge                              8.000000                  0.000000

 !-----------------------------------------------------------------------------!

 !-----------------------------------------------------------------------------!
                           Hirshfeld Charges

  #Atom  Element  Kind  Ref Charge     Population                    Net charge
      1       Si     1       4.000          4.000                         0.000
      2       Si     1       4.000          4.000                        -0.000

  Total Charge                                                           -0.000
 !-----------------------------------------------------------------------------!

 KPOINTS| Band Structure Calculation
 KPOINTS| Number of k-point sets                                               9
 KPOINTS| Number of added MOs/bands                                            8
 KPOINTS| Number of k-points in set    1                                      32
 KPOINTS| In units of b-vector [2pi/Bohr]
 KPOINTS| Special point     1       mesh0     0.000000     0.000000     0.000000
 KPOINTS| Special point     2       mesh1     0.083333     0.000000     0.000000
 KPOINTS| Special point     3       mesh2     0.166667     0.000000     0.000000
 KPOINTS| Special point     4       mesh3     0.250000     0.000000     0.000000
 KPOINTS| Special point     5       mesh4     0.333333     0.000000     0.000000
 KPOINTS| Special point     6       mesh5     0.416667     0.000000     0.000000
 KPOINTS| Special point     7       mesh6     0.500000     0.000000     0.000000
 KPOINTS| Special point     8       mesh7     0.083333     0.083333     0.000000
 KPOINTS| Special point     9       mesh8     0.166667     0.083333     0.000000
 KPOINTS| Special point    10       mesh9     0.250000     0.083333     0.000000
 KPOINTS| Special point    11      mesh10     0.333333     0.083333     0.000000
 KPOINTS| Special point    12      mesh11     0.416667     0.083333     0.000000
 KPOINTS| Special point    13      mesh12     0.500000     0.083333     0.000000
 KPOINTS| Special point    14      mesh13    -0.416667     0.083333     0.000000
 KPOINTS| Special point    15      mesh14    -0.333333     0.083333     0.000000
 KPOINTS| Special point    16      mesh15    -0.250000     0.083333     0.000000
 KPOINTS| Special point    17      mesh16    -0.166667     0.083333     0.000000
 KPOINTS| Special point    18      mesh17    -0.083333     0.083333     0.000000
 KPOINTS| Special point    19      mesh18     0.166667     0.166667     0.000000
 KPOINTS| Special point    20      mesh19     0.250000     0.166667     0.000000
 KPOINTS| Special point    21      mesh20     0.333333     0.166667     0.000000
 KPOINTS| Special point    22      mesh21     0.416667     0.166667     0.000000
 KPOINTS| Special point    23      mesh22     0.500000     0.166667     0.000000
 KPOINTS| Special point    24      mesh23    -0.416667     0.166667     0.000000
 KPOINTS| Special point    25      mesh24    -0.333333     0.166667     0.000000
 KPOINTS| Special point    26      mesh25    -0.250000     0.166667     0.000000
 KPOINTS| Special point    27      mesh26    -0.166667     0.166667     0.000000
 KPOINTS| Special point    28      mesh27     0.250000     0.250000     0.000000
 KPOINTS| Special point    29      mesh28     0.333333     0.250000     0.000000
 KPOINTS| Special point    30      mesh29     0.416667     0.250000     0.000000
 KPOINTS| Special point    31      mesh30     0.500000     0.250000     0.000000
 KPOINTS| Special point    32      mesh31    -0.416667     0.250000     0.000000
 KPOINTS| Time for k-point line                                            0.041
 KPOINTS| Number of k-points in set    2                                      32
 KPOINTS| In units of b-vector [2pi/Bohr]
 KPOINTS| Special point     1      mesh32    -0.333333     0.250000     0.000000
 KPOINTS| Special point     2      mesh33    -0.250000     0.250000     0.000000
 KPOINTS| Special point     3      mesh34     0.333333     0.333333     0.000000
 KPOINTS| Special point     4      mesh35     0.416667     0.333333     0.000000
 KPOINTS| Special point     5      mesh36     0.500000     0.333333     0.000000
 KPOINTS| Special point     6      mesh37    -0.416667     0.333333     0.000000
 KPOINTS| Special point     7      mesh38    -0.333333     0.333333     0.000000
 KPOINTS| Special point     8      mesh39     0.416667     0.416667     0.000000
 KPOINTS| Special point     9      mesh40     0.500000     0.416667     0.000000
 KPOINTS| Special point    10      mesh41    -0.416667     0.416667     0.000000
 KPOINTS| Special point    11      mesh42     0.500000     0.500000     0.000000
 KPOINTS| Special point    12      mesh43     0.250000     0.166667     0.083333
 KPOINTS| Special point    13      mesh44     0.333333     0.166667     0.083333
 KPOINTS| Special point    14      mesh45     0.416667     0.166667     0.083333
 KPOINTS| Special point    15      mesh46     0.500000     0.166667     0.083333
 KPOINTS| Special point    16      mesh47    -0.416667     0.166667     0.083333
 KPOINTS| Special point    17      mesh48     0.333333     0.250000     0.083333
 KPOINTS| Special point    18      mesh49     0.416667     0.250000     0.083333
 KPOINTS| Special point    19      mesh50     0.500000     0.250000     0.083333
 KPOINTS| Special point    20      mesh51    -0.416667     0.250000     0.083333
 KPOINTS| Special point    21      mesh52    -0.333333     0.250000     0.083333
 KPOINTS| Special point    22      mesh53    -0.250000     0.250000     0.083333
 KPOINTS| Special point    23      mesh54    -0.166667     0.250000     0.083333
 KPOINTS| Special point    24      mesh55     0.416667     0.333333     0.083333
 KPOINTS| Special point    25      mesh56     0.500000     0.333333     0.083333
 KPOINTS| Special point    26      mesh57    -0.416667     0.333333     0.083333
 KPOINTS| Special point    27      mesh58    -0.333333     0.333333     0.083333
 KPOINTS| Special point    28      mesh59    -0.250000     0.333333     0.083333
 KPOINTS| Special point    29      mesh60     0.500000     0.416667     0.083333
 KPOINTS| Special point    30      mesh61    -0.416667     0.416667     0.083333
 KPOINTS| Special point    31      mesh62    -0.333333     0.416667     0.083333
 KPOINTS| Special point    32      mesh63    -0.416667     0.500000     0.083333
 KPOINTS| Time for k-point line                                            0.040
 KPOINTS| Number of k-points in set    3                                       8
 KPOINTS| In units of b-vector [2pi/Bohr]
 KPOINTS| Special point     1      mesh64     0.500000     0.333333     0.166667
 KPOINTS| Special point     2      mesh65    -0.416667     0.333333     0.166667
 KPOINTS| Special point     3      mesh66    -0.333333     0.333333     0.166667
 KPOINTS| Special point     4      mesh67    -0.416667     0.416667     0.166667
 KPOINTS| Special point     5      mesh68    -0.333333     0.416667     0.166667
 KPOINTS| Special point     6      mesh69    -0.250000     0.416667     0.166667
 KPOINTS| Special point     7      mesh70    -0.333333     0.500000     0.166667
 KPOINTS| Special point     8      mesh71    -0.250000     0.500000     0.250000
 KPOINTS| Time for k-point line                                            0.011
 KPOINTS| Number of k-points in set    4                                      21
 KPOINTS| In units of b-vector [2pi/Bohr]
 KPOINTS| Special point     1       GAMMA     0.000000     0.000000     0.000000
 KPOINTS| Special point     2           X     0.500000     0.000000     0.500000
 KPOINTS| Time for k-point line                                            0.030
 KPOINTS| Number of k-points in set    5                                      21
 KPOINTS| In units of b-vector [2pi/Bohr]
 KPOINTS| Special point     1           X     0.500000     0.000000     0.500000
 KPOINTS| Special point     2           U     0.625000     0.250000     0.625000
 KPOINTS| Time for k-point line                                            0.028
 KPOINTS| Number of k-points in set    6                                      21
 KPOINTS| In units of b-vector [2pi/Bohr]
 KPOINTS| Special point     1           K     0.375000     0.375000     0.750000
 KPOINTS| Special point     2       GAMMA     0.000000     0.000000     0.000000
 KPOINTS| Time for k-point line                                            0.027
 KPOINTS| Number of k-points in set    7                                      21
 KPOINTS| In units of b-vector [2pi/Bohr]
 KPOINTS| Special point     1       GAMMA     0.000000     0.000000     0.000000
 KPOINTS| Special point     2           L     0.500000     0.500000     0.500000
 KPOINTS| Time for k-point line                                            0.028
 KPOINTS| Number of k-points in set    8                                      21
 KPOINTS| In units of b-vector [2pi/Bohr]
 KPOINTS| Special point     1           L     0.500000     0.500000     0.500000
 KPOINTS| Special point     2           W     0.500000     0.250000     0.750000
 KPOINTS| Time for k-point line                                            0.028
 KPOINTS| Number of k-points in set    9                                      21
 KPOINTS| In units of b-vector [2pi/Bohr]
 KPOINTS| Special point     1           W     0.500000     0.250000     0.750000
 KPOINTS| Special point     2           X     0.500000     0.000000     0.500000
 KPOINTS| Time for k-point line                                            0.028

 ENERGY| Total FORCE_EVAL ( QS ) energy [hartree]             -7.918632622923675

 -------------------------------------------------------------------------------
 -                                                                             -
 -                                DBCSR STATISTICS                             -
 -                                                                             -
 -------------------------------------------------------------------------------
 COUNTER                                    TOTAL       BLAS       SMM       ACC
 flops inhomo. stacks                           0       0.0%      0.0%      0.0%
 flops total                         0.000000E+00       0.0%      0.0%      0.0%
 flops max/rank                      0.000000E+00       0.0%      0.0%      0.0%
 matmuls inhomo. stacks                         0       0.0%      0.0%      0.0%
 matmuls total                                  0       0.0%      0.0%      0.0%
 number of processed stacks                     0       0.0%      0.0%      0.0%
 average stack size                                     0.0       0.0       0.0
 marketing flops                     0.000000E+00
 -------------------------------------------------------------------------------

 -------------------------------------------------------------------------------
 -                                                                             -
 -                                GRID STATISTICS                              -
 -                                                                             -
 -------------------------------------------------------------------------------
 LP    KERNEL             BACKEND                              COUNT     PERCENT
 6     collocate general  CPU                                 394240      25.29%
 8     collocate general  CPU                                 394240      25.29%
 6     integrate general  CPU                                 385280      24.71%
 8     integrate general  CPU                                 385280      24.71%
 0     collocate general  CPU                                      4       0.00%
 0     integrate general  CPU                                      2       0.00%
 -------------------------------------------------------------------------------

 -------------------------------------------------------------------------------
 -                                                                             -
 -                          OFFLOAD MEMPOOL STATISTICS                         -
 -                                                                             -
 -------------------------------------------------------------------------------
 Memory consumption                Number of allocations  Used [MiB]  Size [MiB]
 Host                                                  8          37  13157792886405
 -------------------------------------------------------------------------------

 MEMORY| Estimated peak process memory [MiB]                                3380

 -------------------------------------------------------------------------------
 ----                             MULTIGRID INFO                            ----
 -------------------------------------------------------------------------------
 count for grid        1:              3          cutoff [a.u.]          400.00
 count for grid        2:           1377          cutoff [a.u.]          133.33
 count for grid        3:           4894          cutoff [a.u.]           44.44
 count for grid        4:           6533          cutoff [a.u.]           14.81
 count for grid        5:           2816          cutoff [a.u.]            4.94
 total gridlevel count  :          15623

 -------------------------------------------------------------------------------
 -                                                                             -
 -                           R E F E R E N C E S                               -
 -                                                                             -
 -------------------------------------------------------------------------------
 
 CP2K version 2026.2 (Development Version), the CP2K developers group (2026).
 CP2K is freely available from https://www.cp2k.org/ .
 
 M. Iannuzzi, J. Wilhelm, F. Stein, A. Bussy, H. Elgabarty, D. Golze, A. Hehn, 
 M. Graml, S. Marek, B. Sertcan Gökmen, C. Schran, H. Forbert, R. Z. 
 Khaliullin, A. Kozhevnikov, M. Taillefumier, R. Meli, V. V. Rybkin, M. Brehm, 
 R. Schade, O. Schütt, J. V. Pototschnig, H. Mirhosseini, A. Knüpfer, D. Marx, 
 M. Krack, J. Hutter, T. D. Kühne.
 J. Phys. Chem. B 130, 1237-1310 (2026).
 The CP2K Program Package Made Simple.
 https://doi.org/10.1021/acs.jpcb.5c05851

 L. Wittmann, I. Gordiy, M. Friede, B. Helmich-Paris, S. Grimme, A. Hansen, M. 
 Bursch.
 Phys. Chem. Chem. Phys. 26, 21379-21394 (2024).
 Extension of the D3 and D4 London dispersion corrections to the full actinides 
 series.
 https://doi.org/10.1039/d4cp01514b

 T. D. Kühne, M. Iannuzzi, M. Del Ben, V. V. Rybkin, P. Seewald, F. Stein, T. 
 Laino, R. Z. Khaliullin, O. Schütt, F. Schiffmann, D. Golze, J. Wilhelm, S. 
 Chulkov, M. H. Bani-Hashemian, V. Weber, U. Borstnik, M. Taillefumier, A. S. 
 Jakobovits, A. Lazzaro, H. Pabst, T. Müller, R. Schade, M. Guidon, S. 
 Andermatt, N. Holmberg, G. K. Schenter, A. Hehn, A. Bussy, F. Belleflamme, G. 
 Tabacchi, A. Glöß, M. Lass, I. Bethune, C. J. Mundy, C. Plessl, M. Watkins, 
 J. VandeVondele, M. Krack, J. Hutter.
 J. Chem. Phys. 152, 194103 (2020).
 CP2K: An electronic structure and molecular dynamics software package - 
 Quickstep: Efficient and accurate electronic structure calculations.
 https://doi.org/10.1063/5.0007045

 A. Togo, I. Tanaka.
 arXiv, 1808.01590 (2018).
 Spglib : a software library for crystal symmetry search.

 L. Goerigk, A. Hansen, C. Bauer, S. Ehrlich, A. Najibi, S. Grimme.
 Phys. Chem. Chem. Phys. 19, 32184-32215 (2017).
 A look at the density functional theory zoo with the advanced GMTKN55 database 
 for general main group thermochemistry, kinetics and noncovalent interactions.
 https://doi.org/10.1039/C7CP04913G

 O. Schuett, P. Messmer, J. Hutter, J. VandeVondele.
 Electronic Structure Calculations on Graphics Processing Units, 173-190 (2016).
 GPU-Accelerated Sparse Matrix-Matrix Multiplication for Linear Scaling Density 
 Functional Theory.
 https://doi.org/10.1002/9781118670712.ch8

 U. Borstnik, J. VandeVondele, V. Weber, J. Hutter.
 Parallel Comput. 40, 47-58 (2014).
 Sparse matrix multiplication: The distributed block-compressed sparse row 
 library.
 https://doi.org/10.1016/j.parco.2014.03.012

 S. Grimme, S. Ehrlich, L. Goerigk.
 J. Comput. Chem. 32, 1456 (2011).
 Effect of the damping function in dispersion corrected density functional 
 theory.
 https://doi.org/10.1002/jcc.21759

 S. Grimme, J. Antony, S. Ehrlich, H. Krieg.
 J. Chem. Phys. 132, 154104 (2010).
 A consistent and accurate ab initio parametrization of density functional 
 dispersion correction (DFT-D) for the 94 elements H-Pu.
 https://doi.org/10.1063/1.3382344

 J. VandeVondele, J. Hutter.
 J. Chem. Phys. 127, 114105 (2007).
 Gaussian basis sets for accurate calculations on molecular systems in gas and 
 condensed phases.
 https://doi.org/10.1063/1.2770708

 M. Krack.
 Theor. Chem. Acc. 114, 145-152 (2005).
 Pseudopotentials for H to Kr optimized for gradient-corrected 
 exchange-correlation functionals.
 https://doi.org/10.1007/s00214-005-0655-y

 M. Frigo, S. G. Johnson.
 Proc. IEEE 93, 216-231 (2005).
 The design and implementation of FFTW3.
 https://doi.org/10.1109/JPROC.2004.840301

 M. Krack, M. Parrinello.
 Phys. Chem. Chem. Phys. 2, 2105-2112 (2000).
 All-electron ab-initio molecular dynamics.
 https://doi.org/10.1039/b001167n

 G. Lippert, J. Hutter, M. Parrinello.
 Theor. Chem. Acc. 103, 124-140 (1999).
 The Gaussian and augmented-plane-wave density functional method for ab initio 
 molecular dynamics simulations.
 https://doi.org/10.1007/s002140050523

 C. Hartwigsen, S. Goedecker, J. Hutter.
 Phys. Rev. B 58, 3641-3662 (1998).
 Relativistic separable dual-space Gaussian pseudopotentials from H to Rn.
 https://doi.org/10.1103/PhysRevB.58.3641

 S. Goedecker, M. Teter, J. Hutter.
 Phys. Rev. B 54, 1703-1710 (1996).
 Separable dual-space Gaussian pseudopotentials.
 https://doi.org/10.1103/PhysRevB.54.1703

 C.-L. Fu, K.-M. Ho.
 Phys. Rev. B 28, 5480-5486 (1983).
 First-principles calculation of the equilibrium ground-state properties of 
 transition metals: Applications to Nb and Mo.
 https://doi.org/10.1103/PhysRevB.28.5480

 T. G. Worlton, J. L. Warren.
 Comput. Phys. Commun. 3, 88-117 (1972).
 Group-theoretical analysis of lattice vibrations.
 https://doi.org/10.1016/0010-4655(72)90058-6


 -------------------------------------------------------------------------------
 -                                                                             -
 -                                T I M I N G                                  -
 -                                                                             -
 -------------------------------------------------------------------------------
 SUBROUTINE                       CALLS  ASD         SELF TIME        TOTAL TIME
                                MAXIMUM       AVERAGE  MAXIMUM  AVERAGE  MAXIMUM
 CP2K                                 1  1.0    0.595    0.595  747.266  747.266
 qs_energies                          1  2.0    0.081    0.081  746.274  746.274
 scf_env_do_scf                       1  3.0    0.000    0.000  743.897  743.897
 scf_env_do_scf_inner_loop           43  4.0    0.025    0.025  743.897  743.897
 qs_ks_update_qs_env                 43  5.0    0.001    0.001  691.894  691.894
 rebuild_ks_matrix                   43  6.0    0.000    0.000  691.312  691.312
 qs_ks_build_kohn_sham_matrix        43  7.0    0.045    0.045  691.312  691.312
 calculate_vxc_atom                  43  8.0  126.189  126.189  647.721  647.721
 skala_atom_torch_backward           43  9.0  278.209  278.209  278.209  278.209
 skala_atom_torch_forward            43  9.0    0.008    0.008  242.217  242.217
 torch_model_forward_mol_tensor      43 10.0  242.209  242.209  242.209  242.209
 sum_up_and_integrate                43  8.0    0.003    0.003   42.948   42.948
 integrate_v_rspace                  86  9.0    0.251    0.251   42.933   42.933
 grid_integrate_task_list            86 10.0   42.461   42.461   42.461   42.461
 qs_rho_update_rho_low               44  5.0    0.001    0.001   39.641   39.641
 calculate_rho_elec                  88  6.0    0.152    0.152   39.602   39.602
 grid_collocate_task_list            88  7.0   39.128   39.128   39.128   39.128
 -------------------------------------------------------------------------------

 The number of warnings for this run is : 1
 
 -------------------------------------------------------------------------------
  **** **** ******  **  PROGRAM ENDED AT                 2026-09-22 00:07:56.716
 ***** ** ***  *** **   PROGRAM RAN ON                                    ctu012
 **    ****   ******    PROGRAM RAN BY                                  kuehne88
 ***** **    ** ** **   PROGRAM PROCESS ID                               1353540
  **** **  *******  **  PROGRAM STOPPED IN /bigdata/casus/fwuk/shared/kuehne88-n
                                           ative-skala/lc10-bandgaps-20260921/de
                                           fault-extra/runs/Si/hybrid-direct/tzv
                                           pp
