 DBCSR| CPU Multiplication driver                                           BLAS (U)
 DBCSR| Multrec recursion limit                                              512 (U)
 DBCSR| Multiplication stack size                                           1000 (D)
 DBCSR| Maximum elements for images                                    UNLIMITED (U)
 DBCSR| Multiplicative factor virtual images                                   1 (U)
 DBCSR| Use multiplication densification                                       T (D)
 DBCSR| Multiplication size stacks                                             3 (U)
 DBCSR| Use memory pool for CPU allocation                                     F (U)
 DBCSR| OMP: Current number of threads                                         8
 DBCSR| OMP: Max number of threads                                             8
 DBCSR| Split modifier for TAS multiplication algorithm                  1.0E+00 (U)


  **** **** ******  **  PROGRAM STARTED AT               2026-08-31 21:32:53.660
 ***** ** ***  *** **   PROGRAM STARTED ON                                cge008
 **    ****   ******    PROGRAM STARTED BY                              kuehne88
 ***** **    ** ** **   PROGRAM PROCESS ID                               1725231
  **** **  *******  **  PROGRAM STARTED IN /data/home2/kuehne88/cp2k-native-skal
                                           a/goldzak12/runs/production/gapw-ae/B
                                           P/v04

 CP2K| version string:                 CP2K version 2026.2 (Development Version)
 CP2K| source code revision number:                                   c1bff3eeb8
 CP2K| cp2kflags: omp fftw3 spglib openblas libtorch libtorch_cuda              
 CP2K| is freely available from                            https://www.cp2k.org/
 CP2K| Program compiled at                                   2026-08-23 23:01:13
 CP2K| Program compiled on                                                cge022
 CP2K| Program compiled for                                               x86_64
 CP2K| Data directory path            /home/kuehne88/cp2k-native-skala/cp2k/data
 CP2K| Input file name                                          actual-input.inp

 GLOBAL| Force Environment number                                              1
 GLOBAL| Basis set file name                             BASIS_MOLOPT_UZH_2026.2
 GLOBAL| Potential file name                                POTENTIAL_UZH_2026.2
 GLOBAL| MM Potential file name                                     MM_POTENTIAL
 GLOBAL| Coordinate file name                                      __STD_INPUT__
 GLOBAL| Method name                                                        CP2K
 GLOBAL| Project name                          G12_BP_gapw-ae_v0p9666666667_k555
 GLOBAL| Run type                                                         ENERGY
 GLOBAL| FFT library                                                       FFTW3
 GLOBAL| Diagonalization library                                       ScaLAPACK
 GLOBAL| Cholesky decomposition library                                ScaLAPACK
 GLOBAL| DGEMM library                                                      BLAS
 GLOBAL| Direct generalized diagonalization requested                          F
 GLOBAL| Orthonormality check for eigenvectors                          DISABLED
 GLOBAL| Matrix multiplication library                                 ScaLAPACK
 GLOBAL| All-to-all communication in single precision                          F
 GLOBAL| FFTs using library dependent lengths                                  F
 GLOBAL| Grid backend                                                       AUTO
 GLOBAL| Global print level                                               MEDIUM
 GLOBAL| MPI I/O enabled                                                       T
 GLOBAL| Total number of message passing processes                             1
 GLOBAL| Number of distributed systems (nodes)                                 1
 GLOBAL| Number of threads for this process                                    8
 GLOBAL| This output is from process                                           0
 GLOBAL| OpenMP stack size per thread (OMP_STACKSIZE)                       256M
 GLOBAL| CPU model name                          AMD EPYC 9654 96-Core Processor

 MEMORY| system memory details [Kb]
 MEMORY|                        rank 0           min           max       average
 MEMORY| MemTotal           1584927752    1584927752    1584927752    1584927752
 MEMORY| MemFree            1478554484    1478554484    1478554484    1478554484
 MEMORY| Buffers                     0             0             0             0
 MEMORY| Cached               15347128      15347128      15347128      15347128
 MEMORY| Slab                  2968328       2968328       2968328       2968328
 MEMORY| SReclaimable           622632        622632        622632        622632
 MEMORY| MemLikelyFree      1494524244    1494524244    1494524244    1494524244


 *** Fundamental physical constants (SI units) ***

 *** Literature: B. J. Mohr and B. N. Taylor,
 ***             CODATA recommended values of the fundamental physical
 ***             constants: 2006, Web Version 5.1
 ***             http://physics.nist.gov/constants

 Speed of light in vacuum [m/s]                             2.99792458000000E+08
 Magnetic constant or permeability of vacuum [N/A**2]       1.25663706143592E-06
 Electric constant or permittivity of vacuum [F/m]          8.85418781762039E-12
 Planck constant (h) [J*s]                                  6.62606896000000E-34
 Planck constant (h-bar) [J*s]                              1.05457162825177E-34
 Elementary charge [C]                                      1.60217648700000E-19
 Electron mass [kg]                                         9.10938215000000E-31
 Electron g factor [ ]                                     -2.00231930436220E+00
 Proton mass [kg]                                           1.67262163700000E-27
 Fine-structure constant                                    7.29735253760000E-03
 Rydberg constant [1/m]                                     1.09737315685270E+07
 Avogadro constant [1/mol]                                  6.02214179000000E+23
 Boltzmann constant [J/K]                                   1.38065040000000E-23
 Atomic mass unit [kg]                                      1.66053878200000E-27
 Bohr radius [m]                                            5.29177208590000E-11

 *** Conversion factors ***

 [u] -> [a.u.]                                              1.82288848426455E+03
 [Angstrom] -> [Bohr] = [a.u.]                              1.88972613288564E+00
 [a.u.] = [Bohr] -> [Angstrom]                              5.29177208590000E-01
 [a.u.] -> [s]                                              2.41888432650478E-17
 [a.u.] -> [fs]                                             2.41888432650478E-02
 [a.u.] -> [J]                                              4.35974393937059E-18
 [a.u.] -> [N]                                              8.23872205491840E-08
 [a.u.] -> [K]                                              3.15774647902944E+05
 [a.u.] -> [kJ/mol]                                         2.62549961709828E+03
 [a.u.] -> [kcal/mol]                                       6.27509468713739E+02
 [a.u.] -> [Pa]                                             2.94210107994716E+13
 [a.u.] -> [bar]                                            2.94210107994716E+08
 [a.u.] -> [atm]                                            2.90362800883016E+08
 [a.u.] -> [eV]                                             2.72113838565563E+01
 [a.u.] -> [Hz]                                             6.57968392072181E+15
 [a.u.] -> [1/cm] (wave numbers)                            2.19474631370540E+05
 [a.u./Bohr**2] -> [1/cm]                                   5.14048714338585E+03
 

 CELL| Volume [angstrom^3]:                                            89.563796
 CELL| Vector a [angstrom]:       4.474     0.000     0.000   |a| =     4.474153
 CELL| Vector b [angstrom]:       0.000     4.474     0.000   |b| =     4.474153
 CELL| Vector c [angstrom]:       0.000     0.000     4.474   |c| =     4.474153
 CELL| Angle (b,c), alpha [degree]:                                    90.000000
 CELL| Angle (a,c), beta  [degree]:                                    90.000000
 CELL| Angle (a,b), gamma [degree]:                                    90.000000
 CELL| Numerically orthorhombic:                                             YES
 CELL| Periodicity                                                           XYZ

 CELL_REF| Volume [angstrom^3]:                                        89.563796
 CELL_REF| Vector a [angstrom     4.474     0.000     0.000   |a| =     4.474153
 CELL_REF| Vector b [angstrom     0.000     4.474     0.000   |b| =     4.474153
 CELL_REF| Vector c [angstrom     0.000     0.000     4.474   |c| =     4.474153
 CELL_REF| Angle (b,c), alpha [degree]:                                90.000000
 CELL_REF| Angle (a,c), beta  [degree]:                                90.000000
 CELL_REF| Angle (a,b), gamma [degree]:                                90.000000
 CELL_REF| Numerically orthorhombic:                                         YES
 CELL_REF| Periodicity                                                       XYZ

 GENERATE|  Preliminary Number of Bonds generated:                             0
 GENERATE|  Achieved consistency in connectivity generation.

 *******************************************************************************
 *******************************************************************************
 **                                                                           **
 **     #####                         ##              ##                      **
 **    ##   ##            ##          ##              ##                      **
 **   ##     ##                       ##            ######                    **
 **   ##     ##  ##   ##  ##   #####  ##  ##   ####   ##    #####    #####    **
 **   ##     ##  ##   ##  ##  ##      ## ##   ##      ##   ##   ##  ##   ##   **
 **   ##  ## ##  ##   ##  ##  ##      ####     ###    ##   ######   ######    **
 **    ##  ###   ##   ##  ##  ##      ## ##      ##   ##   ##       ##        **
 **     #######   #####   ##   #####  ##  ##  ####    ##    #####   ##        **
 **           ##                                                    ##        **
 **                                                                           **
 **                                                ... make the atoms dance   **
 **                                                                           **
 **            Copyright (C) by CP2K developers group (2000-2026)             **
 **                      J. Chem. Phys. 152, 194103 (2020)                    **
 **                                                                           **
 *******************************************************************************

 DFT| Spin restricted Kohn-Sham (RKS) calculation                            RKS
 DFT| Multiplicity                                                             1
 DFT| Number of spin states                                                    1
 DFT| Charge                                                                   0
 DFT| Self-interaction correction (SIC)                                       NO
 DFT| Cutoffs: density                                              1.000000E-10
 DFT|          gradient                                             1.000000E-10
 DFT|          tau                                                  1.000000E-10
 DFT|          cutoff_smoothing_range                               0.000000E+00
 DFT| XC density smoothing                                                  NONE
 DFT| XC derivatives                                                          PW

 FUNCTIONAL| GAUXC:
 FUNCTIONAL| Functional computed by GauXC Skala model SKALA                     

 vdW POTENTIAL|                                                   Pair Potential
 vdW POTENTIAL|          DFT-D3 (Version 3.1)
 vdW POTENTIAL|          Potential Form: S. Grimme et al, JCP 132: 154104 (2010)
 vdW POTENTIAL|          BJ Damping: S. Grimme et al, JCC 32: 1456 (2011)
 vdW POTENTIAL|          Cutoff Radius [Bohr]:                             37.79
 vdW POTENTIAL|          s6 Scaling Factor:                               1.0000
 vdW POTENTIAL|          a1 Damping Factor:                               0.3981
 vdW POTENTIAL|          s8 Scaling Factor:                               1.9889
 vdW POTENTIAL|          a2 Damping Factor:                               4.4211
 vdW POTENTIAL|          Cutoff for CN calculation:                   0.1000E-05

 QS| Method:                                                                GAPW
 QS| Density plane wave grid type                        NON-SPHERICAL FULLSPACE
 QS| Number of grid levels:                                                    5
 QS| Density cutoff [a.u.]:                                                400.0
 QS| Multi grid cutoff [a.u.]: 1) grid level                               400.0
 QS|                           2) grid level                               133.3
 QS|                           3) grid level                                44.4
 QS|                           4) grid level                                14.8
 QS|                           5) grid level                                 4.9
 QS| Grid level progression factor:                                          3.0
 QS| Relative density cutoff [a.u.]:                                        30.0
 QS| Interaction thresholds: eps_pgf_orb:                                1.0E-07
 QS|                         eps_filter_matrix:                          0.0E+00
 QS|                         eps_core_charge:                            1.0E-16
 QS|                         eps_rho_gspace:                             1.0E-14
 QS|                         eps_rho_rspace:                             1.0E-14
 QS|                         eps_gvg_rspace:                             1.0E-07
 QS|                         eps_ppl:                                    1.0E-02
 QS|                         eps_ppnl:                                   1.0E-09
 QS| GAPW|      XC integration using accurate scheme: Ref. exponent     6.000000
 QS| GAPW|      One center basis extended with primitives (small:s)
 QS| GAPW|                   eps_fit:                                    1.0E-04
 QS| GAPW|                   eps_iso:                                    1.0E-12
 QS| GAPW|                   eps_svd:                                    1.0E-08
 QS| GAPW|                   eps_cpc:                                    1.0E-14
 QS| GAPW|   atom-r-grid: quadrature:                                     GC_LOG
 QS| GAPW|      atom-s-grid:  max l :                                          6
 QS| GAPW|      max_l_rho0 :                                                   4


 ATOMIC KIND INFORMATION

  1. Atomic kind: B                                     Number of atoms:       4

     Orbital Basis Set                                       TZVPP-MOLOPT-PBE-ae

       Number of orbital shell sets:                                           2
       Number of orbital shells:                                              11
       Number of primitive Cartesian functions:                               12
       Number of Cartesian basis functions:                                   36
       Number of spherical basis functions:                                   31
       Norm type:                                                              2

       Normalised Cartesian orbitals:

                        Set   Shell   Orbital            Exponent    Coefficient

                          1       1    1s             8564.805310       0.470718
                                                      1284.266148       1.037560
                                                       292.317852       1.564613
                                                        82.773089       2.737633
                                                        26.955680       2.121910
                                                         9.937437       2.701101

                          2       1    1s               22.230570       0.835541
                                                         4.312240       1.325154
                                                         1.676500       0.393631
                                                         0.627002      -0.034128
                                                         0.231037       0.004596
                                                         0.081527       0.004479

                          2       2    2s               22.230570       0.380608
                                                         4.312240      -0.066893
                                                         1.676500       0.111410
                                                         0.627002       0.285761
                                                         0.231037       0.063291
                                                         0.081527       0.019156

                          2       3    3s               22.230570      -1.681688
                                                         4.312240       0.371542
                                                         1.676500      -0.419641
                                                         0.627002      -0.285066
                                                         0.231037       0.332555
                                                         0.081527       0.006030

                          2       4    4s               22.230570       1.905892
                                                         4.312240      -0.760293
                                                         1.676500       0.322739
                                                         0.627002      -0.219216
                                                         0.231037      -0.011328
                                                         0.081527       0.125733

                          2       5    2px              22.230570       4.654930
                                                         4.312240       1.390356
                                                         1.676500       0.900411
                                                         0.627002       0.466960
                                                         0.231037       0.008046
                                                         0.081527       0.001696
                          2       5    2py              22.230570       4.654930
                                                         4.312240       1.390356
                                                         1.676500       0.900411
                                                         0.627002       0.466960
                                                         0.231037       0.008046
                                                         0.081527       0.001696
                          2       5    2pz              22.230570       4.654930
                                                         4.312240       1.390356
                                                         1.676500       0.900411
                                                         0.627002       0.466960
                                                         0.231037       0.008046
                                                         0.081527       0.001696

                          2       6    3px              22.230570      -2.619980
                                                         4.312240      -1.541502
                                                         1.676500      -0.296803
                                                         0.627002       0.042448
                                                         0.231037       0.232786
                                                         0.081527      -0.002807
                          2       6    3py              22.230570      -2.619980
                                                         4.312240      -1.541502
                                                         1.676500      -0.296803
                                                         0.627002       0.042448
                                                         0.231037       0.232786
                                                         0.081527      -0.002807
                          2       6    3pz              22.230570      -2.619980
                                                         4.312240      -1.541502
                                                         1.676500      -0.296803
                                                         0.627002       0.042448
                                                         0.231037       0.232786
                                                         0.081527      -0.002807

                          2       7    4px              22.230570      -8.036820
                                                         4.312240       1.515783
                                                         1.676500      -0.436837
                                                         0.627002       0.008231
                                                         0.231037       0.011408
                                                         0.081527       0.060026
                          2       7    4py              22.230570      -8.036820
                                                         4.312240       1.515783
                                                         1.676500      -0.436837
                                                         0.627002       0.008231
                                                         0.231037       0.011408
                                                         0.081527       0.060026
                          2       7    4pz              22.230570      -8.036820
                                                         4.312240       1.515783
                                                         1.676500      -0.436837
                                                         0.627002       0.008231
                                                         0.231037       0.011408
                                                         0.081527       0.060026

                          2       8    3dx2             22.230570     -74.959133
                                                         4.312240      -1.635688
                                                         1.676500       2.056214
                                                         0.627002       0.387577
                                                         0.231037       0.011346
                                                         0.081527       0.002153
                          2       8    3dxy             22.230570    -129.833027
                                                         4.312240      -2.833095
                                                         1.676500       3.561468
                                                         0.627002       0.671303
                                                         0.231037       0.019651
                                                         0.081527       0.003728
                          2       8    3dxz             22.230570    -129.833027
                                                         4.312240      -2.833095
                                                         1.676500       3.561468
                                                         0.627002       0.671303
                                                         0.231037       0.019651
                                                         0.081527       0.003728
                          2       8    3dy2             22.230570     -74.959133
                                                         4.312240      -1.635688
                                                         1.676500       2.056214
                                                         0.627002       0.387577
                                                         0.231037       0.011346
                                                         0.081527       0.002153
                          2       8    3dyz             22.230570    -129.833027
                                                         4.312240      -2.833095
                                                         1.676500       3.561468
                                                         0.627002       0.671303
                                                         0.231037       0.019651
                                                         0.081527       0.003728
                          2       8    3dz2             22.230570     -74.959133
                                                         4.312240      -1.635688
                                                         1.676500       2.056214
                                                         0.627002       0.387577
                                                         0.231037       0.011346
                                                         0.081527       0.002153

                          2       9    4dx2             22.230570     100.877982
                                                         4.312240       1.670808
                                                         1.676500      -1.711794
                                                         0.627002       0.288898
                                                         0.231037       0.105095
                                                         0.081527      -0.002553
                          2       9    4dxy             22.230570     174.725791
                                                         4.312240       2.893924
                                                         1.676500      -2.964914
                                                         0.627002       0.500386
                                                         0.231037       0.182030
                                                         0.081527      -0.004422
                          2       9    4dxz             22.230570     174.725791
                                                         4.312240       2.893924
                                                         1.676500      -2.964914
                                                         0.627002       0.500386
                                                         0.231037       0.182030
                                                         0.081527      -0.004422
                          2       9    4dy2             22.230570     100.877982
                                                         4.312240       1.670808
                                                         1.676500      -1.711794
                                                         0.627002       0.288898
                                                         0.231037       0.105095
                                                         0.081527      -0.002553
                          2       9    4dyz             22.230570     174.725791
                                                         4.312240       2.893924
                                                         1.676500      -2.964914
                                                         0.627002       0.500386
                                                         0.231037       0.182030
                                                         0.081527      -0.004422
                          2       9    4dz2             22.230570     100.877982
                                                         4.312240       1.670808
                                                         1.676500      -1.711794
                                                         0.627002       0.288898
                                                         0.231037       0.105095
                                                         0.081527      -0.002553

                          2      10    4fx3             22.230570      20.762424
                                                         4.312240      -0.290033
                                                         1.676500       0.585978
                                                         0.627002       0.373794
                                                         0.231037       0.018935
                                                         0.081527      -0.000984
                          2      10    4fx2y            22.230570      46.426191
                                                         4.312240      -0.648533
                                                         1.676500       1.310286
                                                         0.627002       0.835829
                                                         0.231037       0.042339
                                                         0.081527      -0.002200
                          2      10    4fx2z            22.230570      46.426191
                                                         4.312240      -0.648533
                                                         1.676500       1.310286
                                                         0.627002       0.835829
                                                         0.231037       0.042339
                                                         0.081527      -0.002200
                          2      10    4fxy2            22.230570      46.426191
                                                         4.312240      -0.648533
                                                         1.676500       1.310286
                                                         0.627002       0.835829
                                                         0.231037       0.042339
                                                         0.081527      -0.002200
                          2      10    4fxyz            22.230570      80.412522
                                                         4.312240      -1.123293
                                                         1.676500       2.269481
                                                         0.627002       1.447698
                                                         0.231037       0.073333
                                                         0.081527      -0.003810
                          2      10    4fxz2            22.230570      46.426191
                                                         4.312240      -0.648533
                                                         1.676500       1.310286
                                                         0.627002       0.835829
                                                         0.231037       0.042339
                                                         0.081527      -0.002200
                          2      10    4fy3             22.230570      20.762424
                                                         4.312240      -0.290033
                                                         1.676500       0.585978
                                                         0.627002       0.373794
                                                         0.231037       0.018935
                                                         0.081527      -0.000984
                          2      10    4fy2z            22.230570      46.426191
                                                         4.312240      -0.648533
                                                         1.676500       1.310286
                                                         0.627002       0.835829
                                                         0.231037       0.042339
                                                         0.081527      -0.002200
                          2      10    4fyz2            22.230570      46.426191
                                                         4.312240      -0.648533
                                                         1.676500       1.310286
                                                         0.627002       0.835829
                                                         0.231037       0.042339
                                                         0.081527      -0.002200
                          2      10    4fz3             22.230570      20.762424
                                                         4.312240      -0.290033
                                                         1.676500       0.585978
                                                         0.627002       0.373794
                                                         0.231037       0.018935
                                                         0.081527      -0.000984

       Atomic covalent radius [Angstrom]:                                  0.820

       Atomic van der Waals radius [Angstrom]:                             1.920

     The atoms of this atomic kind are PAW atoms (GAPW):
       Hard Gaussian function radius:                                      1.520
       Rho0 radius:                                                        1.520
       Maximum GTO radius used for PAW projector construction:            24.566

     GAPW Soft Basis Set                                TZVPP-MOLOPT-PBE-ae_soft

       Number of orbital shell sets:                                           2
       Number of orbital shells:                                              11
       Number of primitive Cartesian functions:                                5
       Number of Cartesian basis functions:                                   36
       Number of spherical basis functions:                                   31
       Norm type:                                                              2

       Normalised Cartesian orbitals:

                        Set   Shell   Orbital            Exponent    Coefficient

                          1       1    1s         

                          2       1    1s                4.312240       0.000000
                                                         1.676500       0.393631
                                                         0.627002      -0.034128
                                                         0.231037       0.004596
                                                         0.081527       0.004479

                          2       2    2s                4.312240       0.000000
                                                         1.676500       0.111410
                                                         0.627002       0.285761
                                                         0.231037       0.063291
                                                         0.081527       0.019156

                          2       3    3s                4.312240       0.000000
                                                         1.676500      -0.419641
                                                         0.627002      -0.285066
                                                         0.231037       0.332555
                                                         0.081527       0.006030

                          2       4    4s                4.312240       0.000000
                                                         1.676500       0.322739
                                                         0.627002      -0.219216
                                                         0.231037      -0.011328
                                                         0.081527       0.125733

                          2       5    2px               4.312240       0.000000
                                                         1.676500       0.900411
                                                         0.627002       0.466960
                                                         0.231037       0.008046
                                                         0.081527       0.001696
                          2       5    2py               4.312240       0.000000
                                                         1.676500       0.900411
                                                         0.627002       0.466960
                                                         0.231037       0.008046
                                                         0.081527       0.001696
                          2       5    2pz               4.312240       0.000000
                                                         1.676500       0.900411
                                                         0.627002       0.466960
                                                         0.231037       0.008046
                                                         0.081527       0.001696

                          2       6    3px               4.312240       0.000000
                                                         1.676500      -0.296803
                                                         0.627002       0.042448
                                                         0.231037       0.232786
                                                         0.081527      -0.002807
                          2       6    3py               4.312240       0.000000
                                                         1.676500      -0.296803
                                                         0.627002       0.042448
                                                         0.231037       0.232786
                                                         0.081527      -0.002807
                          2       6    3pz               4.312240       0.000000
                                                         1.676500      -0.296803
                                                         0.627002       0.042448
                                                         0.231037       0.232786
                                                         0.081527      -0.002807

                          2       7    4px               4.312240       0.000000
                                                         1.676500      -0.436837
                                                         0.627002       0.008231
                                                         0.231037       0.011408
                                                         0.081527       0.060026
                          2       7    4py               4.312240       0.000000
                                                         1.676500      -0.436837
                                                         0.627002       0.008231
                                                         0.231037       0.011408
                                                         0.081527       0.060026
                          2       7    4pz               4.312240       0.000000
                                                         1.676500      -0.436837
                                                         0.627002       0.008231
                                                         0.231037       0.011408
                                                         0.081527       0.060026

                          2       8    3dx2              4.312240      -1.635688
                                                         1.676500       2.056214
                                                         0.627002       0.387577
                                                         0.231037       0.011346
                                                         0.081527       0.002153
                          2       8    3dxy              4.312240      -2.833095
                                                         1.676500       3.561468
                                                         0.627002       0.671303
                                                         0.231037       0.019651
                                                         0.081527       0.003728
                          2       8    3dxz              4.312240      -2.833095
                                                         1.676500       3.561468
                                                         0.627002       0.671303
                                                         0.231037       0.019651
                                                         0.081527       0.003728
                          2       8    3dy2              4.312240      -1.635688
                                                         1.676500       2.056214
                                                         0.627002       0.387577
                                                         0.231037       0.011346
                                                         0.081527       0.002153
                          2       8    3dyz              4.312240      -2.833095
                                                         1.676500       3.561468
                                                         0.627002       0.671303
                                                         0.231037       0.019651
                                                         0.081527       0.003728
                          2       8    3dz2              4.312240      -1.635688
                                                         1.676500       2.056214
                                                         0.627002       0.387577
                                                         0.231037       0.011346
                                                         0.081527       0.002153

                          2       9    4dx2              4.312240       1.670808
                                                         1.676500      -1.711794
                                                         0.627002       0.288898
                                                         0.231037       0.105095
                                                         0.081527      -0.002553
                          2       9    4dxy              4.312240       2.893924
                                                         1.676500      -2.964914
                                                         0.627002       0.500386
                                                         0.231037       0.182030
                                                         0.081527      -0.004422
                          2       9    4dxz              4.312240       2.893924
                                                         1.676500      -2.964914
                                                         0.627002       0.500386
                                                         0.231037       0.182030
                                                         0.081527      -0.004422
                          2       9    4dy2              4.312240       1.670808
                                                         1.676500      -1.711794
                                                         0.627002       0.288898
                                                         0.231037       0.105095
                                                         0.081527      -0.002553
                          2       9    4dyz              4.312240       2.893924
                                                         1.676500      -2.964914
                                                         0.627002       0.500386
                                                         0.231037       0.182030
                                                         0.081527      -0.004422
                          2       9    4dz2              4.312240       1.670808
                                                         1.676500      -1.711794
                                                         0.627002       0.288898
                                                         0.231037       0.105095
                                                         0.081527      -0.002553

                          2      10    4fx3              4.312240      -0.290033
                                                         1.676500       0.585978
                                                         0.627002       0.373794
                                                         0.231037       0.018935
                                                         0.081527      -0.000984
                          2      10    4fx2y             4.312240      -0.648533
                                                         1.676500       1.310286
                                                         0.627002       0.835829
                                                         0.231037       0.042339
                                                         0.081527      -0.002200
                          2      10    4fx2z             4.312240      -0.648533
                                                         1.676500       1.310286
                                                         0.627002       0.835829
                                                         0.231037       0.042339
                                                         0.081527      -0.002200
                          2      10    4fxy2             4.312240      -0.648533
                                                         1.676500       1.310286
                                                         0.627002       0.835829
                                                         0.231037       0.042339
                                                         0.081527      -0.002200
                          2      10    4fxyz             4.312240      -1.123293
                                                         1.676500       2.269481
                                                         0.627002       1.447698
                                                         0.231037       0.073333
                                                         0.081527      -0.003810
                          2      10    4fxz2             4.312240      -0.648533
                                                         1.676500       1.310286
                                                         0.627002       0.835829
                                                         0.231037       0.042339
                                                         0.081527      -0.002200
                          2      10    4fy3              4.312240      -0.290033
                                                         1.676500       0.585978
                                                         0.627002       0.373794
                                                         0.231037       0.018935
                                                         0.081527      -0.000984
                          2      10    4fy2z             4.312240      -0.648533
                                                         1.676500       1.310286
                                                         0.627002       0.835829
                                                         0.231037       0.042339
                                                         0.081527      -0.002200
                          2      10    4fyz2             4.312240      -0.648533
                                                         1.676500       1.310286
                                                         0.627002       0.835829
                                                         0.231037       0.042339
                                                         0.081527      -0.002200
                          2      10    4fz3              4.312240      -0.290033
                                                         1.676500       0.585978
                                                         0.627002       0.373794
                                                         0.231037       0.018935
                                                         0.081527      -0.000984

     AE Potential information for                                            ALL

       Description:                                       All-electron potential
                                          Krack, Parrinello, PCCP 2, 2105 (2000)

       Gaussian exponent of the core charge distribution:               2.655410
       Electronic configuration (s p d ...):                           4   1   0

  2. Atomic kind: P                                     Number of atoms:       4

     Orbital Basis Set                                       TZVPP-MOLOPT-PBE-ae

       Number of orbital shell sets:                                           3
       Number of orbital shells:                                              14
       Number of primitive Cartesian functions:                               17
       Number of Cartesian basis functions:                                   48
       Number of spherical basis functions:                                   42
       Norm type:                                                              2

       Normalised Cartesian orbitals:

                        Set   Shell   Orbital            Exponent    Coefficient

                          1       1    1s            52427.011820       1.182549
                                                      7863.314290       2.472172
                                                      1789.606582       4.190631
                                                       506.366489       6.300767
                                                       164.622579       7.888584
                                                        58.421506       6.722114
                                                        21.516978       2.465717

                          2       1    1s              472.277513      -0.097362
                                                       111.671172       0.718421
                                                        35.448363       3.488342
                                                        12.887584       0.312099
                                                         5.350546      -2.995382

                          2       2    2px             472.277513      13.196324
                                                       111.671172      15.926283
                                                        35.448363      17.823575
                                                        12.887584      13.589406
                                                         5.350546       6.526242
                          2       2    2py             472.277513      13.196324
                                                       111.671172      15.926283
                                                        35.448363      17.823575
                                                        12.887584      13.589406
                                                         5.350546       6.526242
                          2       2    2pz             472.277513      13.196324
                                                       111.671172      15.926283
                                                        35.448363      17.823575
                                                        12.887584      13.589406
                                                         5.350546       6.526242

                          3       1    1s                5.019530       0.150087
                                                         2.325184       0.957214
                                                         0.953573       0.151079
                                                         0.293985       0.006847
                                                         0.094240       0.007974

                          3       2    2s                5.019530      -0.009392
                                                         2.325184      -0.075038
                                                         0.953573       0.032963
                                                         0.293985       0.253098
                                                         0.094240       0.015108

                          3       3    3s                5.019530      -0.034451
                                                         2.325184      -0.073692
                                                         0.953573      -0.103242
                                                         0.293985      -0.045293
                                                         0.094240       0.141672

                          3       4    2px               5.019530       0.098574
                                                         2.325184       4.300828
                                                         0.953573      -0.064177
                                                         0.293985      -0.026024
                                                         0.094240       0.000520
                          3       4    2py               5.019530       0.098574
                                                         2.325184       4.300828
                                                         0.953573      -0.064177
                                                         0.293985      -0.026024
                                                         0.094240       0.000520
                          3       4    2pz               5.019530       0.098574
                                                         2.325184       4.300828
                                                         0.953573      -0.064177
                                                         0.293985      -0.026024
                                                         0.094240       0.000520

                          3       5    3px               5.019530       0.017729
                                                         2.325184       0.177350
                                                         0.953573       1.302437
                                                         0.293985      -0.002753
                                                         0.094240       0.000286
                          3       5    3py               5.019530       0.017729
                                                         2.325184       0.177350
                                                         0.953573       1.302437
                                                         0.293985      -0.002753
                                                         0.094240       0.000286
                          3       5    3pz               5.019530       0.017729
                                                         2.325184       0.177350
                                                         0.953573       1.302437
                                                         0.293985      -0.002753
                                                         0.094240       0.000286

                          3       6    4px               5.019530       0.846544
                                                         2.325184       0.288350
                                                         0.953573       0.006128
                                                         0.293985       0.275038
                                                         0.094240       0.006687
                          3       6    4py               5.019530       0.846544
                                                         2.325184       0.288350
                                                         0.953573       0.006128
                                                         0.293985       0.275038
                                                         0.094240       0.006687
                          3       6    4pz               5.019530       0.846544
                                                         2.325184       0.288350
                                                         0.953573       0.006128
                                                         0.293985       0.275038
                                                         0.094240       0.006687

                          3       7    5px               5.019530      -0.837061
                                                         2.325184      -0.059563
                                                         0.953573      -0.005836
                                                         0.293985      -0.030606
                                                         0.094240       0.079223
                          3       7    5py               5.019530      -0.837061
                                                         2.325184      -0.059563
                                                         0.953573      -0.005836
                                                         0.293985      -0.030606
                                                         0.094240       0.079223
                          3       7    5pz               5.019530      -0.837061
                                                         2.325184      -0.059563
                                                         0.953573      -0.005836
                                                         0.293985      -0.030606
                                                         0.094240       0.079223

                          3       8    3dx2              5.019530      -2.425146
                                                         2.325184       8.127855
                                                         0.953573      -0.116817
                                                         0.293985      -0.007895
                                                         0.094240       0.000084
                          3       8    3dxy              5.019530      -4.200476
                                                         2.325184      14.077858
                                                         0.953573      -0.202332
                                                         0.293985      -0.013674
                                                         0.094240       0.000146
                          3       8    3dxz              5.019530      -4.200476
                                                         2.325184      14.077858
                                                         0.953573      -0.202332
                                                         0.293985      -0.013674
                                                         0.094240       0.000146
                          3       8    3dy2              5.019530      -2.425146
                                                         2.325184       8.127855
                                                         0.953573      -0.116817
                                                         0.293985      -0.007895
                                                         0.094240       0.000084
                          3       8    3dyz              5.019530      -4.200476
                                                         2.325184      14.077858
                                                         0.953573      -0.202332
                                                         0.293985      -0.013674
                                                         0.094240       0.000146
                          3       8    3dz2              5.019530      -2.425146
                                                         2.325184       8.127855
                                                         0.953573      -0.116817
                                                         0.293985      -0.007895
                                                         0.094240       0.000084

                          3       9    4dx2              5.019530       1.212813
                                                         2.325184       0.483960
                                                         0.953573       1.407551
                                                         0.293985       0.001208
                                                         0.094240       0.000184
                          3       9    4dxy              5.019530       2.100653
                                                         2.325184       0.838243
                                                         0.953573       2.437950
                                                         0.293985       0.002092
                                                         0.094240       0.000319
                          3       9    4dxz              5.019530       2.100653
                                                         2.325184       0.838243
                                                         0.953573       2.437950
                                                         0.293985       0.002092
                                                         0.094240       0.000319
                          3       9    4dy2              5.019530       1.212813
                                                         2.325184       0.483960
                                                         0.953573       1.407551
                                                         0.293985       0.001208
                                                         0.094240       0.000184
                          3       9    4dyz              5.019530       2.100653
                                                         2.325184       0.838243
                                                         0.953573       2.437950
                                                         0.293985       0.002092
                                                         0.094240       0.000319
                          3       9    4dz2              5.019530       1.212813
                                                         2.325184       0.483960
                                                         0.953573       1.407551
                                                         0.293985       0.001208
                                                         0.094240       0.000184

                          3      10    5dx2              5.019530       2.148330
                                                         2.325184       0.276829
                                                         0.953573      -0.020334
                                                         0.293985       0.179164
                                                         0.094240       0.002663
                          3      10    5dxy              5.019530       3.721016
                                                         2.325184       0.479482
                                                         0.953573      -0.035220
                                                         0.293985       0.310321
                                                         0.094240       0.004612
                          3      10    5dxz              5.019530       3.721016
                                                         2.325184       0.479482
                                                         0.953573      -0.035220
                                                         0.293985       0.310321
                                                         0.094240       0.004612
                          3      10    5dy2              5.019530       2.148330
                                                         2.325184       0.276829
                                                         0.953573      -0.020334
                                                         0.293985       0.179164
                                                         0.094240       0.002663
                          3      10    5dyz              5.019530       3.721016
                                                         2.325184       0.479482
                                                         0.953573      -0.035220
                                                         0.293985       0.310321
                                                         0.094240       0.004612
                          3      10    5dz2              5.019530       2.148330
                                                         2.325184       0.276829
                                                         0.953573      -0.020334
                                                         0.293985       0.179164
                                                         0.094240       0.002663

                          3      11    4fx3              5.019530      -1.924712
                                                         2.325184       0.389895
                                                         0.953573       0.447644
                                                         0.293985       0.075676
                                                         0.094240      -0.000425
                          3      11    4fx2y             5.019530      -4.303788
                                                         2.325184       0.871832
                                                         0.953573       1.000963
                                                         0.293985       0.169217
                                                         0.094240      -0.000950
                          3      11    4fx2z             5.019530      -4.303788
                                                         2.325184       0.871832
                                                         0.953573       1.000963
                                                         0.293985       0.169217
                                                         0.094240      -0.000950
                          3      11    4fxy2             5.019530      -4.303788
                                                         2.325184       0.871832
                                                         0.953573       1.000963
                                                         0.293985       0.169217
                                                         0.094240      -0.000950
                          3      11    4fxyz             5.019530      -7.454379
                                                         2.325184       1.510057
                                                         0.953573       1.733719
                                                         0.293985       0.293092
                                                         0.094240      -0.001645
                          3      11    4fxz2             5.019530      -4.303788
                                                         2.325184       0.871832
                                                         0.953573       1.000963
                                                         0.293985       0.169217
                                                         0.094240      -0.000950
                          3      11    4fy3              5.019530      -1.924712
                                                         2.325184       0.389895
                                                         0.953573       0.447644
                                                         0.293985       0.075676
                                                         0.094240      -0.000425
                          3      11    4fy2z             5.019530      -4.303788
                                                         2.325184       0.871832
                                                         0.953573       1.000963
                                                         0.293985       0.169217
                                                         0.094240      -0.000950
                          3      11    4fyz2             5.019530      -4.303788
                                                         2.325184       0.871832
                                                         0.953573       1.000963
                                                         0.293985       0.169217
                                                         0.094240      -0.000950
                          3      11    4fz3              5.019530      -1.924712
                                                         2.325184       0.389895
                                                         0.953573       0.447644
                                                         0.293985       0.075676
                                                         0.094240      -0.000425

       Atomic covalent radius [Angstrom]:                                  1.060

       Atomic van der Waals radius [Angstrom]:                             1.800

     The atoms of this atomic kind are PAW atoms (GAPW):
       Hard Gaussian function radius:                                      1.800
       Rho0 radius:                                                        1.800
       Maximum GTO radius used for PAW projector construction:            24.566

     GAPW Soft Basis Set                                TZVPP-MOLOPT-PBE-ae_soft

       Number of orbital shell sets:                                           3
       Number of orbital shells:                                              14
       Number of primitive Cartesian functions:                                4
       Number of Cartesian basis functions:                                   48
       Number of spherical basis functions:                                   42
       Norm type:                                                              2

       Normalised Cartesian orbitals:

                        Set   Shell   Orbital            Exponent    Coefficient

                          1       1    1s         

                          2       1    1s         

                          2       2    2px        
                          2       2    2py        
                          2       2    2pz        

                          3       1    1s                2.325184       0.957214
                                                         0.953573       0.151079
                                                         0.293985       0.006847
                                                         0.094240       0.007974

                          3       2    2s                2.325184      -0.075038
                                                         0.953573       0.032963
                                                         0.293985       0.253098
                                                         0.094240       0.015108

                          3       3    3s                2.325184      -0.073692
                                                         0.953573      -0.103242
                                                         0.293985      -0.045293
                                                         0.094240       0.141672

                          3       4    2px               2.325184       4.300828
                                                         0.953573      -0.064177
                                                         0.293985      -0.026024
                                                         0.094240       0.000520
                          3       4    2py               2.325184       4.300828
                                                         0.953573      -0.064177
                                                         0.293985      -0.026024
                                                         0.094240       0.000520
                          3       4    2pz               2.325184       4.300828
                                                         0.953573      -0.064177
                                                         0.293985      -0.026024
                                                         0.094240       0.000520

                          3       5    3px               2.325184       0.177350
                                                         0.953573       1.302437
                                                         0.293985      -0.002753
                                                         0.094240       0.000286
                          3       5    3py               2.325184       0.177350
                                                         0.953573       1.302437
                                                         0.293985      -0.002753
                                                         0.094240       0.000286
                          3       5    3pz               2.325184       0.177350
                                                         0.953573       1.302437
                                                         0.293985      -0.002753
                                                         0.094240       0.000286

                          3       6    4px               2.325184       0.288350
                                                         0.953573       0.006128
                                                         0.293985       0.275038
                                                         0.094240       0.006687
                          3       6    4py               2.325184       0.288350
                                                         0.953573       0.006128
                                                         0.293985       0.275038
                                                         0.094240       0.006687
                          3       6    4pz               2.325184       0.288350
                                                         0.953573       0.006128
                                                         0.293985       0.275038
                                                         0.094240       0.006687

                          3       7    5px               2.325184      -0.059563
                                                         0.953573      -0.005836
                                                         0.293985      -0.030606
                                                         0.094240       0.079223
                          3       7    5py               2.325184      -0.059563
                                                         0.953573      -0.005836
                                                         0.293985      -0.030606
                                                         0.094240       0.079223
                          3       7    5pz               2.325184      -0.059563
                                                         0.953573      -0.005836
                                                         0.293985      -0.030606
                                                         0.094240       0.079223

                          3       8    3dx2              2.325184       8.127855
                                                         0.953573      -0.116817
                                                         0.293985      -0.007895
                                                         0.094240       0.000084
                          3       8    3dxy              2.325184      14.077858
                                                         0.953573      -0.202332
                                                         0.293985      -0.013674
                                                         0.094240       0.000146
                          3       8    3dxz              2.325184      14.077858
                                                         0.953573      -0.202332
                                                         0.293985      -0.013674
                                                         0.094240       0.000146
                          3       8    3dy2              2.325184       8.127855
                                                         0.953573      -0.116817
                                                         0.293985      -0.007895
                                                         0.094240       0.000084
                          3       8    3dyz              2.325184      14.077858
                                                         0.953573      -0.202332
                                                         0.293985      -0.013674
                                                         0.094240       0.000146
                          3       8    3dz2              2.325184       8.127855
                                                         0.953573      -0.116817
                                                         0.293985      -0.007895
                                                         0.094240       0.000084

                          3       9    4dx2              2.325184       0.483960
                                                         0.953573       1.407551
                                                         0.293985       0.001208
                                                         0.094240       0.000184
                          3       9    4dxy              2.325184       0.838243
                                                         0.953573       2.437950
                                                         0.293985       0.002092
                                                         0.094240       0.000319
                          3       9    4dxz              2.325184       0.838243
                                                         0.953573       2.437950
                                                         0.293985       0.002092
                                                         0.094240       0.000319
                          3       9    4dy2              2.325184       0.483960
                                                         0.953573       1.407551
                                                         0.293985       0.001208
                                                         0.094240       0.000184
                          3       9    4dyz              2.325184       0.838243
                                                         0.953573       2.437950
                                                         0.293985       0.002092
                                                         0.094240       0.000319
                          3       9    4dz2              2.325184       0.483960
                                                         0.953573       1.407551
                                                         0.293985       0.001208
                                                         0.094240       0.000184

                          3      10    5dx2              2.325184       0.276829
                                                         0.953573      -0.020334
                                                         0.293985       0.179164
                                                         0.094240       0.002663
                          3      10    5dxy              2.325184       0.479482
                                                         0.953573      -0.035220
                                                         0.293985       0.310321
                                                         0.094240       0.004612
                          3      10    5dxz              2.325184       0.479482
                                                         0.953573      -0.035220
                                                         0.293985       0.310321
                                                         0.094240       0.004612
                          3      10    5dy2              2.325184       0.276829
                                                         0.953573      -0.020334
                                                         0.293985       0.179164
                                                         0.094240       0.002663
                          3      10    5dyz              2.325184       0.479482
                                                         0.953573      -0.035220
                                                         0.293985       0.310321
                                                         0.094240       0.004612
                          3      10    5dz2              2.325184       0.276829
                                                         0.953573      -0.020334
                                                         0.293985       0.179164
                                                         0.094240       0.002663

                          3      11    4fx3              2.325184       0.389895
                                                         0.953573       0.447644
                                                         0.293985       0.075676
                                                         0.094240      -0.000425
                          3      11    4fx2y             2.325184       0.871832
                                                         0.953573       1.000963
                                                         0.293985       0.169217
                                                         0.094240      -0.000950
                          3      11    4fx2z             2.325184       0.871832
                                                         0.953573       1.000963
                                                         0.293985       0.169217
                                                         0.094240      -0.000950
                          3      11    4fxy2             2.325184       0.871832
                                                         0.953573       1.000963
                                                         0.293985       0.169217
                                                         0.094240      -0.000950
                          3      11    4fxyz             2.325184       1.510057
                                                         0.953573       1.733719
                                                         0.293985       0.293092
                                                         0.094240      -0.001645
                          3      11    4fxz2             2.325184       0.871832
                                                         0.953573       1.000963
                                                         0.293985       0.169217
                                                         0.094240      -0.000950
                          3      11    4fy3              2.325184       0.389895
                                                         0.953573       0.447644
                                                         0.293985       0.075676
                                                         0.094240      -0.000425
                          3      11    4fy2z             2.325184       0.871832
                                                         0.953573       1.000963
                                                         0.293985       0.169217
                                                         0.094240      -0.000950
                          3      11    4fyz2             2.325184       0.871832
                                                         0.953573       1.000963
                                                         0.293985       0.169217
                                                         0.094240      -0.000950
                          3      11    4fz3              2.325184       0.389895
                                                         0.953573       0.447644
                                                         0.293985       0.075676
                                                         0.094240      -0.000425

     AE Potential information for                                            ALL

       Description:                                       All-electron potential
                                          Krack, Parrinello, PCCP 2, 2105 (2000)

       Gaussian exponent of the core charge distribution:               2.704164
       Electronic configuration (s p d ...):                           6   9   0


 MOLECULE KIND INFORMATION


 All atoms are their own molecule, skipping detailed information


 TOTAL NUMBERS AND MAXIMUM NUMBERS

  Total number of            - Atomic kinds:                                   2
                             - Atoms:                                          8
                             - Shell sets:                                    20
                             - Shells:                                       100
                             - Primitive Cartesian functions:                116
                             - Cartesian basis functions:                    336
                             - Spherical basis functions:                    292

  Maximum angular momentum of the orbital basis functions:                     3


 MODULE QUICKSTEP: ATOMIC COORDINATES IN ANGSTROM

   Atom Kind Element         X             Y             Z       Z(eff)     Mass
      1    1 B     5      0.000000      0.000000      0.000000   5.0000  10.8110
      2    1 B     5      0.000000      2.237076      2.237076   5.0000  10.8110
      3    1 B     5      2.237076      0.000000      2.237076   5.0000  10.8110
      4    1 B     5      2.237076      2.237076      0.000000   5.0000  10.8110
      5    2 P    15      1.118538      1.118538      1.118538  15.0000  30.9738
      6    2 P    15      1.118538      3.355615      3.355615  15.0000  30.9738
      7    2 P    15      3.355615      1.118538      3.355615  15.0000  30.9738
      8    2 P    15      3.355615      3.355615      1.118538  15.0000  30.9738



 SCF PARAMETERS         Density guess:                                    ATOMIC
                        --------------------------------------------------------
                        max_scf:                                             200
                        max_scf_history:                                       0
                        max_diis:                                              4
                        --------------------------------------------------------
                        eps_scf:                                        5.00E-06
                        eps_scf_history:                                0.00E+00
                        eps_diis:                                       1.00E-01
                        eps_eigval:                                     1.00E-05
                        --------------------------------------------------------
                        level_shift [a.u.]:                             0.000000
                        --------------------------------------------------------
                        Mixing method:                           DIRECT_P_MIXING
                        --------------------------------------------------------
                        Outer loop SCF in use 
                        No variables optimised in outer loop
                        eps_scf                                         5.00E-06
                        max_scf                                                5
                        No outer loop optimization
                        step_size                                       5.00E-01

 PW_GRID| Information for grid number                                          1
 PW_GRID| Cutoff [a.u.]                                                    400.0
 PW_GRID| spherical cutoff:                                                   NO
 PW_GRID|   Bounds   1            -40      39                Points:          80
 PW_GRID|   Bounds   2            -40      39                Points:          80
 PW_GRID|   Bounds   3            -40      39                Points:          80
 PW_GRID| Volume element (a.u.^3)  0.1180E-02     Volume (a.u.^3)       604.4065
 PW_GRID| Grid span                                                    FULLSPACE

 PW_GRID| Information for grid number                                          2
 PW_GRID| Number of the reference grid                                         1
 PW_GRID| Cutoff [a.u.]                                                    133.3
 PW_GRID| spherical cutoff:                                                   NO
 PW_GRID|   Bounds   1            -22      22                Points:          45
 PW_GRID|   Bounds   2            -22      22                Points:          45
 PW_GRID|   Bounds   3            -22      22                Points:          45
 PW_GRID| Volume element (a.u.^3)  0.6633E-02     Volume (a.u.^3)       604.4065
 PW_GRID| Grid span                                                    FULLSPACE

 PW_GRID| Information for grid number                                          3
 PW_GRID| Number of the reference grid                                         1
 PW_GRID| Cutoff [a.u.]                                                     44.4
 PW_GRID| spherical cutoff:                                                   NO
 PW_GRID|   Bounds   1            -12      12                Points:          25
 PW_GRID|   Bounds   2            -12      12                Points:          25
 PW_GRID|   Bounds   3            -12      12                Points:          25
 PW_GRID| Volume element (a.u.^3)  0.3868E-01     Volume (a.u.^3)       604.4065
 PW_GRID| Grid span                                                    FULLSPACE

 PW_GRID| Information for grid number                                          4
 PW_GRID| Number of the reference grid                                         1
 PW_GRID| Cutoff [a.u.]                                                     14.8
 PW_GRID| spherical cutoff:                                                   NO
 PW_GRID|   Bounds   1             -7       7                Points:          15
 PW_GRID|   Bounds   2             -7       7                Points:          15
 PW_GRID|   Bounds   3             -7       7                Points:          15
 PW_GRID| Volume element (a.u.^3)  0.1791         Volume (a.u.^3)       604.4065
 PW_GRID| Grid span                                                    FULLSPACE

 PW_GRID| Information for grid number                                          5
 PW_GRID| Number of the reference grid                                         1
 PW_GRID| Cutoff [a.u.]                                                      4.9
 PW_GRID| spherical cutoff:                                                   NO
 PW_GRID|   Bounds   1             -4       4                Points:           9
 PW_GRID|   Bounds   2             -4       4                Points:           9
 PW_GRID|   Bounds   3             -4       4                Points:           9
 PW_GRID| Volume element (a.u.^3)  0.8291         Volume (a.u.^3)       604.4065
 PW_GRID| Grid span                                                    FULLSPACE

 POISSON| Solver                                                        PERIODIC
 POISSON| Periodicity                                                        XYZ

 RS_GRID| Information for grid number                                          1
 RS_GRID|   Bounds   1            -40      39                Points:          80
 RS_GRID|   Bounds   2            -40      39                Points:          80
 RS_GRID|   Bounds   3            -40      39                Points:          80

 RS_GRID| Information for grid number                                          2
 RS_GRID|   Bounds   1            -22      22                Points:          45
 RS_GRID|   Bounds   2            -22      22                Points:          45
 RS_GRID|   Bounds   3            -22      22                Points:          45

 RS_GRID| Information for grid number                                          3
 RS_GRID|   Bounds   1            -12      12                Points:          25
 RS_GRID|   Bounds   2            -12      12                Points:          25
 RS_GRID|   Bounds   3            -12      12                Points:          25

 RS_GRID| Information for grid number                                          4
 RS_GRID|   Bounds   1             -7       7                Points:          15
 RS_GRID|   Bounds   2             -7       7                Points:          15
 RS_GRID|   Bounds   3             -7       7                Points:          15

 RS_GRID| Information for grid number                                          5
 RS_GRID|   Bounds   1             -4       4                Points:           9
 RS_GRID|   Bounds   2             -4       4                Points:           9
 RS_GRID|   Bounds   3             -4       4                Points:           9

 *******************************************************************************
                                    Kpoints
 *******************************************************************************
 BRILLOUIN| K-point scheme                                        Monkhorst-Pack
 BRILLOUIN| K-Point grid                                             5    5    5
 BRILLOUIN| Gamma-centered k-point mesh                                     ON
 BRILLOUIN| K-point symmetry accuracy                               0.100000E-07
 BRILLOUIN| K-Point point group symmetrization                                ON
 BRILLOUIN| Symmetry backend                                               K290
 BRILLOUIN| Symmetry reduction method                                      K290
 BRILLOUIN| Wavefunction type                                            COMPLEX
 BRILLOUIN| List of Kpoints [2 Pi/Bohr]                                       10
 BRILLOUIN| Number           Weight            X              Y              Z
 BRILLOUIN|     1           0.06400       -0.40000       -0.40000       -0.40000
 BRILLOUIN|     2           0.19200       -0.40000       -0.40000       -0.20000
 BRILLOUIN|     3           0.09600       -0.40000       -0.40000        0.00000
 BRILLOUIN|     4           0.19200       -0.40000       -0.20000       -0.20000
 BRILLOUIN|     5           0.19200       -0.40000       -0.20000        0.00000
 BRILLOUIN|     6           0.04800       -0.40000        0.00000        0.00000
 BRILLOUIN|     7           0.06400       -0.20000       -0.20000       -0.20000
 BRILLOUIN|     8           0.09600       -0.20000       -0.20000        0.00000
 BRILLOUIN|     9           0.04800       -0.20000        0.00000        0.00000
 BRILLOUIN|    10           0.00800        0.00000        0.00000        0.00000
 *******************************************************************************

 Extrapolation method: initial_guess

 Atomic guess: The first density matrix is obtained in terms of atomic orbitals
               and electronic configurations assigned to each atomic kind

 Guess for atomic kind: B

 Electronic structure
    Total number of core electrons                                          0.00
    Total number of valence electrons                                       5.00
    Total number of electrons                                               5.00
    Multiplicity                                                   not specified
    S      2.00  2.00
    P      1.00


 *******************************************************************************
                  Iteration          Convergence                     Energy [au]
 *******************************************************************************
                          1        0.411928E-01                 -24.323923629747
                          2        0.122390E-01                 -24.324290738342
                          3        0.355038E-03                 -24.324332537194
                          4        0.277771E-04                 -24.324332606610
                          5        0.229277E-07                 -24.324332606963

 Energy components [Hartree]           Total Energy ::          -24.324332606963
                                        Band Energy ::          -13.708603228466
                                     Kinetic Energy ::           24.295053713074
                                   Potential Energy ::          -48.619386320038
                                      Virial (-V/T) ::            2.001205138060
                                        Core Energy ::          -32.503315210572
                                          XC Energy ::           -3.562631617554
                                     Coulomb Energy ::           11.741614221163

 Orbital energies  State     L     Occupation   Energy[a.u.]          Energy[eV]

                       1     0          2.000      -6.497314         -176.800916
                       2     0          2.000      -0.313185           -8.522195

                       1     1          1.000      -0.087605           -2.383843


 Total Electron Density at R=0:                                        68.324305

 Guess for atomic kind: P

 Electronic structure
    Total number of core electrons                                          0.00
    Total number of valence electrons                                      15.00
    Total number of electrons                                              15.00
    Multiplicity                                                   not specified
    S      2.00  2.00  2.00
    P      6.00  3.00


 *******************************************************************************
                  Iteration          Convergence                     Energy [au]
 *******************************************************************************
                          1         1.02766                    -339.885890602203
                          2        0.481511                    -339.910985030966
                          3        0.282638E-01                -339.922814157702
                          4        0.664266E-02                -339.923072533886
                          5        0.351439E-04                -339.923084197756
                          6        0.575730E-06                -339.923084198462

 Energy components [Hartree]           Total Energy ::         -339.923084198462
                                        Band Energy ::         -193.835041515887
                                     Kinetic Energy ::          340.347789123153
                                   Potential Energy ::         -680.270873321615
                                      Virial (-V/T) ::            1.998752144312
                                        Core Energy ::         -471.217193872332
                                          XC Energy ::          -21.803385081811
                                     Coulomb Energy ::          153.097494755681

 Orbital energies  State     L     Occupation   Energy[a.u.]          Energy[eV]

                       1     0          2.000     -76.036191        -2069.049974
                       2     0          2.000      -6.328040         -172.194726
                       3     0          2.000      -0.513004          -13.959561

                       1     1          6.000      -4.577254         -124.553402
                       2     1          3.000      -0.205683           -5.596928


 Total Electron Density at R=0:                                      2093.272809
 Re-scaling the density matrix to get the right number of electrons
                  # Electrons              Trace(P)               Scaling factor
                           80                80.000                        1.000

 Number of electrons:                                                         80
 Number of occupied orbitals:                                                 40
 Number of molecular orbitals:                                                40

 Number of orbital functions:                                                292
 Number of independent orbital functions:                                    292


 SCF WAVEFUNCTION OPTIMIZATION

  Step     Update method      Time    Convergence         Total energy    Change
  ------------------------------------------------------------------------------

 *** WARNING in qs_ks_methods.F:773 :: Native SKALA grid evaluation with   ***
 *** k-points is using the CPU TorchScript path. Use a mutually compatible ***
 *** BLAS, ScaLAPACK, OpenMP, and LibTorch runtime stack, or select        ***
 *** NATIVE_GRID_USE_CUDA T.                                               ***

 SKALA_GPW| Atom-composite cross support/maxima   2.588967072374E+00   5.481379832723E+02   9.521651976370E+03   6.381516079608E+04
 SKALA_GPW| Active atom-composite XC energy  -1.0940707316416784E+02
 SKALA_GPW| Active atom-composite electrons   8.0055402731605597E+01
 SKALA_GPW| Active atom-composite density range   5.8907664537686047E-03   1.0466392359896327E+03
 SKALA_GPW| Active atom-composite tau range   2.4929371199714540E-03   1.1439168645555899E+05
 SKALA_GPW| Active atom-composite tau integral   1.4585973602152717E+03
 SKALA_GPW| Active atom-composite max gradient   2.9128283053982581E+04
     1 P_Mix/Diag. 0.10E+00  838.6     0.60695427     -1467.7301241417 -1.47E+03
 SKALA_GPW| Atom-composite cross support/maxima   2.588967072374E+00   5.481062295867E+02   9.520519979491E+03   6.380605208774E+04
 SKALA_GPW| Active atom-composite XC energy  -1.0944888018407525E+02
 SKALA_GPW| Active atom-composite electrons   8.0054056207383852E+01
 SKALA_GPW| Active atom-composite density range   5.5785703679346243E-03   1.0465344434156518E+03
 SKALA_GPW| Active atom-composite tau range   2.4915309795495977E-03   1.1437218263595251E+05
 SKALA_GPW| Active atom-composite tau integral   1.4592537249223658E+03
 SKALA_GPW| Active atom-composite max gradient   2.9123998725464244E+04
     2 P_Mix/Diag. 0.10E+00  801.3     0.54200401     -1467.4718515836  2.58E-01
 SKALA_GPW| Atom-composite cross support/maxima   2.691815396945E+00   5.480782898226E+02   9.519516471123E+03   6.379801493990E+04
 SKALA_GPW| Active atom-composite XC energy  -1.0948872781230580E+02
 SKALA_GPW| Active atom-composite electrons   8.0052861484057772E+01
 SKALA_GPW| Active atom-composite density range   5.2976048586086807E-03   1.0464417211538553E+03
 SKALA_GPW| Active atom-composite tau range   2.4905221826728588E-03   1.1435491803833107E+05
 SKALA_GPW| Active atom-composite tau integral   1.4598380891744309E+03
 SKALA_GPW| Active atom-composite max gradient   2.9120198476101330E+04
     3 P_Mix/Diag. 0.10E+00  823.3     0.48550978     -1467.2394905314  2.32E-01
 SKALA_GPW| Atom-composite cross support/maxima   2.691815396945E+00   5.480534866209E+02   9.518623173856E+03   6.379086819087E+04
 SKALA_GPW| Active atom-composite XC energy  -1.0952595337925611E+02
 SKALA_GPW| Active atom-composite electrons   8.0051805280098861E+01
 SKALA_GPW| Active atom-composite density range   5.0456441650227352E-03   1.0463592382199388E+03
 SKALA_GPW| Active atom-composite tau range   2.4901516478548638E-03   1.1433955107129471E+05
 SKALA_GPW| Active atom-composite tau integral   1.4603555378300098E+03
 SKALA_GPW| Active atom-composite max gradient   2.9116814596291624E+04
     4 P_Mix/Diag. 0.10E+00  821.6     0.43669463     -1467.0304877851  2.09E-01
 SKALA_GPW| Atom-composite cross support/maxima   2.691815396945E+00   5.480312730980E+02   9.517824554880E+03   6.378447127205E+04
 SKALA_GPW| Active atom-composite XC energy  -1.0956043822803326E+02
 SKALA_GPW| Active atom-composite electrons   8.0050872557645690E+01
 SKALA_GPW| Active atom-composite density range   4.8199664816278758E-03   1.0462854723059745E+03
 SKALA_GPW| Active atom-composite tau range   2.4903696462727073E-03   1.1432580726726595E+05
 SKALA_GPW| Active atom-composite tau integral   1.4608122093646246E+03
 SKALA_GPW| Active atom-composite max gradient   2.9113789949060545E+04
     5 P_Mix/Diag. 0.10E+00  805.8     0.39459687     -1466.8426537915  1.88E-01
 SKALA_GPW| Atom-composite cross support/maxima   2.691815396945E+00   5.480112146281E+02   9.517107582843E+03   6.377871415669E+04
 SKALA_GPW| Active atom-composite XC energy  -1.0959232726276701E+02
 SKALA_GPW| Active atom-composite electrons   8.0050048131087408E+01
 SKALA_GPW| Active atom-composite density range   4.6177545508216530E-03   1.0462191702331838E+03
 SKALA_GPW| Active atom-composite tau range   2.4909849900758615E-03   1.1431346462325948E+05
 SKALA_GPW| Active atom-composite tau integral   1.4612145703223948E+03
 SKALA_GPW| Active atom-composite max gradient   2.9111076637268994E+04
     6 P_Mix/Diag. 0.10E+00  799.7     0.35813150     -1466.6740187021  1.69E-01
 SKALA_GPW| Atom-composite cross support/maxima   2.691815396945E+00   5.479929730288E+02   9.516461484802E+03   6.377350986890E+04
 SKALA_GPW| Active atom-composite XC energy  -1.0962185075957652E+02
 SKALA_GPW| Active atom-composite electrons   8.0049317799123443E+01
 SKALA_GPW| Active atom-composite density range   4.4363318002265412E-03   1.0461593131068880E+03
 SKALA_GPW| Active atom-composite tau range   2.4917771403996083E-03   1.1430234244220701E+05
 SKALA_GPW| Active atom-composite tau integral   1.4615688830290669E+03
 SKALA_GPW| Active atom-composite max gradient   2.9108634834658485E+04
     7 P_Mix/Diag. 0.10E+00  808.7     0.32622293     -1466.5227587727  1.51E-01
 SKALA_GPW| Atom-composite cross support/maxima   2.691815396945E+00   5.479762904127E+02   9.515877457576E+03   6.376878881908E+04
 SKALA_GPW| Active atom-composite XC energy  -1.0964922692722570E+02
 SKALA_GPW| Active atom-composite electrons   8.0048668974028374E+01
 SKALA_GPW| Active atom-composite density range   4.2732919871404261E-03   1.0461050806607373E+03
 SKALA_GPW| Active atom-composite tau range   2.4925625608251192E-03   1.1429229254380161E+05
 SKALA_GPW| Active atom-composite tau integral   1.4618808823682307E+03
 SKALA_GPW| Active atom-composite max gradient   2.9106431615729856E+04
     8 P_Mix/Diag. 0.10E+00  795.4     0.29791668     -1466.3871673281  1.36E-01
 SKALA_GPW| Atom-composite cross support/maxima   2.691815396945E+00   5.479609729193E+02   9.515348342624E+03   6.376449461056E+04
 SKALA_GPW| Active atom-composite XC energy  -1.0967462498551987E+02
 SKALA_GPW| Active atom-composite electrons   8.0048090949079835E+01
 SKALA_GPW| Active atom-composite density range   4.1265610169687085E-03   1.0460558150389591E+03
 SKALA_GPW| Active atom-composite tau range   2.4932248140054807E-03   1.1428319236044832E+05
 SKALA_GPW| Active atom-composite tau integral   1.4621556316189217E+03
 SKALA_GPW| Active atom-composite max gradient   2.9104439781808800E+04
     9 P_Mix/Diag. 0.10E+00  814.8     0.27244413     -1466.2656549298  1.22E-01
 SKALA_GPW| Atom-composite cross support/maxima   2.691815396945E+00   5.479468760941E+02   9.514868301478E+03   6.376058136647E+04
 SKALA_GPW| Active atom-composite XC energy  -1.0969816292638524E+02
 SKALA_GPW| Active atom-composite electrons   8.0047574866473624E+01
 SKALA_GPW| Active atom-composite density range   3.9943947387968779E-03   1.0460109875333931E+03
 SKALA_GPW| Active atom-composite tau range   2.4937140294430302E-03   1.1427494007545292E+05
 SKALA_GPW| Active atom-composite tau integral   1.4623975390628273E+03
 SKALA_GPW| Active atom-composite max gradient   2.9102636781180609E+04
    10 P_Mix/Diag. 0.10E+00  797.1     0.24927577     -1466.1567559316  1.09E-01
 SKALA_GPW| Atom-composite cross support/maxima   2.691815396945E+00   5.479338877719E+02   9.514432442708E+03   6.375701071624E+04
 SKALA_GPW| Active atom-composite XC energy  -1.0971992629511793E+02
 SKALA_GPW| Active atom-composite electrons   8.0047113454593116E+01
 SKALA_GPW| Active atom-composite density range   3.8753286603939183E-03   1.0459701602384296E+03
 SKALA_GPW| Active atom-composite tau range   2.4940317621466560E-03   1.1426744916563618E+05
 SKALA_GPW| Active atom-composite tau integral   1.4626104145780739E+03
 SKALA_GPW| Active atom-composite max gradient   2.9101003480311581E+04
    11 P_Mix/Diag. 0.10E+00  783.8     0.22810239     -1466.0591394913  9.76E-02
 SKALA_GPW| Atom-composite cross support/maxima   2.691815396945E+00   5.479219121244E+02   9.514036480600E+03   6.375374876408E+04
 SKALA_GPW| Active atom-composite XC energy  -1.0973997915461564E+02
 SKALA_GPW| Active atom-composite electrons   8.0046700667413106E+01
 SKALA_GPW| Active atom-composite density range   3.7681105558749098E-03   1.0459329505036396E+03
 SKALA_GPW| Active atom-composite tau range   2.4942123520205355E-03   1.1426064303756198E+05
 SKALA_GPW| Active atom-composite tau integral   1.4627975310083514E+03
 SKALA_GPW| Active atom-composite max gradient   2.9099523023066653E+04
    12 P_Mix/Diag. 0.10E+00  794.7     0.20871289     -1465.9716047308  8.75E-02
 SKALA_GPW| Atom-composite cross support/maxima   2.691815396945E+00   5.479108645718E+02   9.513676597611E+03   6.375076539870E+04
 SKALA_GPW| Active atom-composite XC energy  -1.0975838281350983E+02
 SKALA_GPW| Active atom-composite electrons   8.0046331367806133E+01
 SKALA_GPW| Active atom-composite density range   3.6716406080789668E-03   1.0458990180285209E+03
 SKALA_GPW| Active atom-composite tau range   2.4943029519712196E-03   1.1425445346616747E+05
 SKALA_GPW| Active atom-composite tau integral   1.4629617473436549E+03
 SKALA_GPW| Active atom-composite max gradient   2.9098180381227838E+04
    13 P_Mix/Diag. 0.10E+00  853.7     0.19094783     -1465.8930777484  7.85E-02
 SKALA_GPW| Atom-composite cross support/maxima   2.691815396945E+00   5.479006692814E+02   9.513349366133E+03   6.374803387621E+04
 SKALA_GPW| Active atom-composite XC energy  -1.0977520598884215E+02
 SKALA_GPW| Active atom-composite electrons   8.0046001092005611E+01
 SKALA_GPW| Active atom-composite density range   3.5849300034785201E-03   1.0458680577348175E+03
 SKALA_GPW| Active atom-composite tau range   2.4943509194108619E-03   1.1424881961313359E+05
 SKALA_GPW| Active atom-composite tau integral   1.4631055990015882E+03
 SKALA_GPW| Active atom-composite max gradient   2.9096962086007225E+04
    14 P_Mix/Diag. 0.10E+00  802.0     0.17467426     -1465.8226035314  7.05E-02
 SKALA_GPW| Atom-composite cross support/maxima   2.691815396945E+00   5.478912576372E+02   9.513051697204E+03   6.374553040706E+04
 SKALA_GPW| Active atom-composite XC energy  -1.0979052379515934E+02
 SKALA_GPW| Active atom-composite electrons   8.0045705897076317E+01
 SKALA_GPW| Active atom-composite density range   3.5070775406053391E-03   1.0458397949606394E+03
 SKALA_GPW| Active atom-composite tau range   2.4943983696247263E-03   1.1424368715774774E+05
 SKALA_GPW| Active atom-composite tau integral   1.4632313513506097E+03
 SKALA_GPW| Active atom-composite max gradient   2.9095856036002235E+04
    15 P_Mix/Diag. 0.10E+00  842.5     0.15973852     -1465.7593314818  6.33E-02
 SKALA_GPW| Atom-composite cross support/maxima   2.691815396945E+00   5.478825710230E+02   9.512780868476E+03   6.374323478148E+04
 SKALA_GPW| Active atom-composite XC energy  -1.0980442103074628E+02
 SKALA_GPW| Active atom-composite electrons   8.0045442273350332E+01
 SKALA_GPW| Active atom-composite density range   3.4372571235849548E-03   1.0458139896835241E+03
 SKALA_GPW| Active atom-composite tau range   2.4944774261051439E-03   1.1423900908711215E+05
 SKALA_GPW| Active atom-composite tau integral   1.4633410732859061E+03
 SKALA_GPW| Active atom-composite max gradient   2.9094851583727166E+04
    16 P_Mix/Diag. 0.10E+00  794.7     0.14600338     -1465.7025055190  5.68E-02
 SKALA_GPW| Atom-composite cross support/maxima   2.691815396945E+00   5.478745592282E+02   9.512534480374E+03   6.374112984398E+04
 SKALA_GPW| Active atom-composite XC energy  -1.0981699055016506E+02
 SKALA_GPW| Active atom-composite electrons   8.0045207066991523E+01
 SKALA_GPW| Active atom-composite density range   3.3747094436735493E-03   1.0457904320018797E+03
 SKALA_GPW| Active atom-composite tau range   2.4946092836326261E-03   1.1423474473658534E+05
 SKALA_GPW| Active atom-composite tau integral   1.4634366576248458E+03
 SKALA_GPW| Active atom-composite max gradient   2.9093939363380803E+04
    17 P_Mix/Diag. 0.10E+00  797.6     0.13338139     -1465.6514535038  5.11E-02
 SKALA_GPW| Atom-composite cross support/maxima   2.691815396945E+00   5.478671751967E+02   9.512310350140E+03   6.373920000617E+04
 SKALA_GPW| Active atom-composite XC energy  -1.0982832835758317E+02
 SKALA_GPW| Active atom-composite electrons   8.0044997412777136E+01
 SKALA_GPW| Active atom-composite density range   3.3187357751194454E-03   1.0457689302315562E+03
 SKALA_GPW| Active atom-composite tau range   2.4948070700908567E-03   1.1423085734772071E+05
 SKALA_GPW| Active atom-composite tau integral   1.4635197978720016E+03
 SKALA_GPW| Active atom-composite max gradient   2.9093110895404327E+04
    18 P_Mix/Diag. 0.10E+00  776.9     0.12180481     -1465.6055773561  4.59E-02
 SKALA_GPW| Atom-composite cross support/maxima   2.797827671472E+00   5.478603732788E+02   9.512106465268E+03   6.373743067196E+04
 SKALA_GPW| Active atom-composite XC energy  -1.0983852776011778E+02
 SKALA_GPW| Active atom-composite electrons   8.0044810699473331E+01
 SKALA_GPW| Active atom-composite density range   3.2686937392246151E-03   1.0457493061247994E+03
 SKALA_GPW| Active atom-composite tau range   2.4950780141138862E-03   1.1422731302975223E+05
 SKALA_GPW| Active atom-composite tau integral   1.4635919931252133E+03
 SKALA_GPW| Active atom-composite max gradient   2.9092358405026440E+04
    19 P_Mix/Diag. 0.10E+00  781.1     0.11119843     -1465.5643416594  4.12E-02
 SKALA_GPW| Atom-composite cross support/maxima   2.797827671472E+00   5.478541105117E+02   9.511920990126E+03   6.373580846671E+04
 SKALA_GPW| Active atom-composite XC energy  -1.0984768206380359E+02
 SKALA_GPW| Active atom-composite electrons   8.0044644554742135E+01
 SKALA_GPW| Active atom-composite density range   3.2239942674728108E-03   1.0457313963146096E+03
 SKALA_GPW| Active atom-composite tau range   2.4954241169636154E-03   1.1422408097581993E+05
 SKALA_GPW| Active atom-composite tau integral   1.4636545782588396E+03
 SKALA_GPW| Active atom-composite max gradient   2.9091674832772202E+04
    20 P_Mix/Diag. 0.10E+00  806.3     0.10148119     -1465.5272698763  3.71E-02
 SKALA_GPW| Atom-composite cross support/maxima   2.797827671472E+00   5.478483476417E+02   9.511752269825E+03   6.373432141769E+04
 SKALA_GPW| Active atom-composite XC energy  -1.0985588278477138E+02
 SKALA_GPW| Active atom-composite electrons   8.0044496830708525E+01
 SKALA_GPW| Active atom-composite density range   3.1840988746798132E-03   1.0457150533669162E+03
 SKALA_GPW| Active atom-composite tau range   2.4958427115529215E-03   1.1422113361854288E+05
 SKALA_GPW| Active atom-composite tau integral   1.4637087500833532E+03
 SKALA_GPW| Active atom-composite max gradient   2.9091053837106017E+04
    21 P_Mix/Diag. 0.10E+00  795.0     0.09257582     -1465.4939366899  3.33E-02
 SKALA_GPW| Atom-composite cross support/maxima   2.797827671472E+00   5.478430489982E+02   9.511598816200E+03   6.373295884729E+04
 SKALA_GPW| Active atom-composite XC energy  -1.0986321645922480E+02
 SKALA_GPW| Active atom-composite electrons   8.0044365586802414E+01
 SKALA_GPW| Active atom-composite density range   3.1485169005364888E-03   1.0457001446332495E+03
 SKALA_GPW| Active atom-composite tau range   2.4963275336921747E-03   1.1421844635834181E+05
 SKALA_GPW| Active atom-composite tau integral   1.4637555805943600E+03
 SKALA_GPW| Active atom-composite max gradient   2.9090489734344326E+04
    22 DIIS/Diag.  0.99E-04  803.2     0.09084200     -1465.4639601308  3.00E-02
 SKALA_GPW| Atom-composite cross support/maxima   2.797827671472E+00   5.477886152705E+02   9.510118704529E+03   6.371920973439E+04
 SKALA_GPW| Active atom-composite XC energy  -1.0992443774240402E+02
 SKALA_GPW| Active atom-composite electrons   8.0043305226243589E+01
 SKALA_GPW| Active atom-composite density range   2.8522343535371448E-03   1.0455537255857055E+03
 SKALA_GPW| Active atom-composite tau range   2.5092301089879370E-03   1.1419211174694718E+05
 SKALA_GPW| Active atom-composite tau integral   1.4640589176343922E+03
 SKALA_GPW| Active atom-composite max gradient   2.9085087781909489E+04
    23 DIIS/Diag.  0.72E-03  793.4     0.00225943     -1465.1950482095  2.69E-01
 SKALA_GPW| Atom-composite cross support/maxima   2.797827671472E+00   5.477905086859E+02   9.510149120464E+03   6.371964163199E+04
 SKALA_GPW| Active atom-composite XC energy  -1.0992701280514845E+02
 SKALA_GPW| Active atom-composite electrons   8.0043256416808632E+01
 SKALA_GPW| Active atom-composite density range   2.8418737891036635E-03   1.0455573578489739E+03
 SKALA_GPW| Active atom-composite tau range   2.5051738173556418E-03   1.1419276211432218E+05
 SKALA_GPW| Active atom-composite tau integral   1.4640926142752464E+03
 SKALA_GPW| Active atom-composite max gradient   2.9085190394906618E+04
    24 DIIS/Diag.  0.22E-02  790.9     0.00009579     -1465.1950220143  2.62E-05
 SKALA_GPW| Atom-composite cross support/maxima   2.797827671472E+00   5.477905188465E+02   9.510148564868E+03   6.371964534891E+04
 SKALA_GPW| Active atom-composite XC energy  -1.0992703034010967E+02
 SKALA_GPW| Active atom-composite electrons   8.0043258823897105E+01
 SKALA_GPW| Active atom-composite density range   2.8425029511914275E-03   1.0455573308808091E+03
 SKALA_GPW| Active atom-composite tau range   2.5054154897992688E-03   1.1419276087600942E+05
 SKALA_GPW| Active atom-composite tau integral   1.4640933626247252E+03
 SKALA_GPW| Active atom-composite max gradient   2.9085188319956007E+04
    25 DIIS/Diag.  0.21E-02  803.0     0.00296565     -1465.1950238915 -1.88E-06
 SKALA_GPW| Atom-composite cross support/maxima   2.797827671472E+00   5.477934740563E+02   9.510188558053E+03   6.372029030779E+04
 SKALA_GPW| Active atom-composite XC energy  -1.0992983935013777E+02
 SKALA_GPW| Active atom-composite electrons   8.0043222021300224E+01
 SKALA_GPW| Active atom-composite density range   2.8360950115545562E-03   1.0455624596260520E+03
 SKALA_GPW| Active atom-composite tau range   2.5033766646342494E-03   1.1419366123849017E+05
 SKALA_GPW| Active atom-composite tau integral   1.4641461415150859E+03
 SKALA_GPW| Active atom-composite max gradient   2.9085317268672592E+04
    26 DIIS/Diag.  0.42E-02  760.7     0.00729222     -1465.1949768399  4.71E-05
 SKALA_GPW| Atom-composite cross support/maxima   2.797827671472E+00   5.477876258199E+02   9.510096718205E+03   6.371901157207E+04
 SKALA_GPW| Active atom-composite XC energy  -1.0992350678618418E+02
 SKALA_GPW| Active atom-composite electrons   8.0043352330666281E+01
 SKALA_GPW| Active atom-composite density range   2.8631423538194064E-03   1.0455514528015174E+03
 SKALA_GPW| Active atom-composite tau range   2.5133431700590171E-03   1.1419175524465018E+05
 SKALA_GPW| Active atom-composite tau integral   1.4640477235899452E+03
 SKALA_GPW| Active atom-composite max gradient   2.9085013273467965E+04
    27 DIIS/Diag.  0.57E-05  812.9     0.00022482     -1465.1950592659 -8.24E-05
 SKALA_GPW| Atom-composite cross support/maxima   2.797827671472E+00   5.477872335432E+02   9.510092515921E+03   6.371891101142E+04
 SKALA_GPW| Active atom-composite XC energy  -1.0992305031110084E+02
 SKALA_GPW| Active atom-composite electrons   8.0043352439064748E+01
 SKALA_GPW| Active atom-composite density range   2.8633744720573625E-03   1.0455508292301176E+03
 SKALA_GPW| Active atom-composite tau range   2.5134903261841285E-03   1.1419162379709489E+05
 SKALA_GPW| Active atom-composite tau integral   1.4640397424210414E+03
 SKALA_GPW| Active atom-composite max gradient   2.9084999074150113E+04
    28 DIIS/Diag.  0.33E-05  806.6     0.00010703     -1465.1950591831  8.28E-08
 SKALA_GPW| Atom-composite cross support/maxima   2.797827671472E+00   5.477874030576E+02   9.510094687094E+03   6.371895284091E+04
 SKALA_GPW| Active atom-composite XC energy  -1.0992320767117043E+02
 SKALA_GPW| Active atom-composite electrons   8.0043352817545752E+01
 SKALA_GPW| Active atom-composite density range   2.8633425184556422E-03   1.0455511196982338E+03
 SKALA_GPW| Active atom-composite tau range   2.5134552903419514E-03   1.1419168148805278E+05
 SKALA_GPW| Active atom-composite tau integral   1.4640425358678776E+03
 SKALA_GPW| Active atom-composite max gradient   2.9085006410156260E+04
    29 DIIS/Diag.  0.53E-07  798.3     0.00000965     -1465.1950592623 -7.91E-08
 SKALA_GPW| Atom-composite cross support/maxima   2.797827671472E+00   5.477873932088E+02   9.510094443999E+03   6.371895085063E+04
 SKALA_GPW| Active atom-composite XC energy  -1.0992321004266711E+02
 SKALA_GPW| Active atom-composite electrons   8.0043352731826261E+01
 SKALA_GPW| Active atom-composite density range   2.8633437523291165E-03   1.0455510966361232E+03
 SKALA_GPW| Active atom-composite tau range   2.5134574821613605E-03   1.1419167769748927E+05
 SKALA_GPW| Active atom-composite tau integral   1.4640425460063839E+03
 SKALA_GPW| Active atom-composite max gradient   2.9085005598234897E+04
    30 DIIS/Diag.  0.12E-07  791.6     0.00000146     -1465.1950592466  1.57E-08

  *** SCF run converged in    30 steps ***


  Electronic density on regular grids:        -41.0160960588       38.9839039412
  Core density on regular grids:               80.0000000000        0.0000000000
  Hard and soft densities (Lebedev):         -180.4309641869     -141.4470602110
  Total Rho_soft + Rho1_hard - Rho1_soft      -80.0000000346
  Total charge density (r-space):              -0.0000000346
  Total Rho_soft + Rho0_soft (g-space):        -0.0000000542

  Overlap energy of the core charge distribution:               0.00000067532622
  Self energy of the core charge distribution:               -655.44031076194949
  Core Hamiltonian energy:                                   -800.04478454724131
  Hartree energy:                                             113.05839942845223
  Exchange-correlation energy:                                  0.00000000000000
  Dispersion energy:                                           -0.17692418672138

  GAPW| Exc from hard and soft atomic rho1:                  -109.92321004266711
  GAPW| local Eh = 1 center integrals:                        -12.66822981178861

  Total energy:                                             -1465.19505924658961

  outer SCF iter =    1 RMS gradient =   0.00E+00 energy =      -1465.1950592466
  outer SCF loop converged in   1 iterations or   30 steps


 !-----------------------------------------------------------------------------!
                     Mulliken Population Analysis

 #  Atom  Element  Kind  Atomic population                           Net charge
       1     B        1          5.089817                             -0.089817
       2     B        1          5.088760                             -0.088760
       3     B        1          5.088760                             -0.088760
       4     B        1          5.088760                             -0.088760
       5     P        2         14.911760                              0.088240
       6     P        2         14.910921                              0.089079
       7     P        2         14.910826                              0.089174
       8     P        2         14.910396                              0.089604
 # Total charge                             80.000000                  0.000000

 !-----------------------------------------------------------------------------!

 !-----------------------------------------------------------------------------!
                           Hirshfeld Charges

  #Atom  Element  Kind  Ref Charge     Population                    Net charge
      1       B      1       5.000          4.303                         0.697
      2       B      1       5.000          4.303                         0.697
      3       B      1       5.000          4.303                         0.697
      4       B      1       5.000          4.303                         0.697
      5       P      2      15.000         15.697                        -0.697
      6       P      2      15.000         15.697                        -0.697
      7       P      2      15.000         15.697                        -0.697
      8       P      2      15.000         15.697                        -0.697

  Total Charge                                                           -0.000
 !-----------------------------------------------------------------------------!

 ENERGY| Total FORCE_EVAL ( QS ) energy [hartree]          -1465.195059246589608

 -------------------------------------------------------------------------------
 -                                                                             -
 -                                DBCSR STATISTICS                             -
 -                                                                             -
 -------------------------------------------------------------------------------
 COUNTER                                    TOTAL       BLAS       SMM       ACC
 flops inhomo. stacks                           0       0.0%      0.0%      0.0%
 flops total                         0.000000E+00       0.0%      0.0%      0.0%
 flops max/rank                      0.000000E+00       0.0%      0.0%      0.0%
 matmuls inhomo. stacks                         0       0.0%      0.0%      0.0%
 matmuls total                                  0       0.0%      0.0%      0.0%
 number of processed stacks                     0       0.0%      0.0%      0.0%
 average stack size                                     0.0       0.0       0.0
 marketing flops                     0.000000E+00
 -------------------------------------------------------------------------------

 -------------------------------------------------------------------------------
 -                                                                             -
 -                                GRID STATISTICS                              -
 -                                                                             -
 -------------------------------------------------------------------------------
 LP    KERNEL             BACKEND                              COUNT     PERCENT
 6     collocate ortho    CPU                                 766196      25.41%
 8     collocate ortho    CPU                                 766196      25.41%
 6     integrate ortho    CPU                                 741480      24.59%
 8     integrate ortho    CPU                                 741480      24.59%
 4     collocate general  CPU                                    240       0.01%
 4     integrate general  CPU                                    240       0.01%
 0     collocate general  CPU                                     16       0.00%
 0     integrate general  CPU                                      8       0.00%
 -------------------------------------------------------------------------------

 -------------------------------------------------------------------------------
 -                                                                             -
 -                          OFFLOAD MEMPOOL STATISTICS                         -
 -                                                                             -
 -------------------------------------------------------------------------------
 Memory consumption                Number of allocations  Used [MiB]  Size [MiB]
 Host                                                  8         131          58
 -------------------------------------------------------------------------------

 MEMORY| Estimated peak process memory [MiB]                                4698

 -------------------------------------------------------------------------------
 ----                             MULTIGRID INFO                            ----
 -------------------------------------------------------------------------------
 count for grid        1:          59108          cutoff [a.u.]          400.00
 count for grid        2:          23902          cutoff [a.u.]          133.33
 count for grid        3:          17466          cutoff [a.u.]           44.44
 count for grid        4:          17680          cutoff [a.u.]           14.81
 count for grid        5:           2497          cutoff [a.u.]            4.94
 total gridlevel count  :         120653

 -------------------------------------------------------------------------------
 -                                                                             -
 -                           R E F E R E N C E S                               -
 -                                                                             -
 -------------------------------------------------------------------------------
 
 CP2K version 2026.2 (Development Version), the CP2K developers group (2026).
 CP2K is freely available from https://www.cp2k.org/ .
 
 M. Iannuzzi, J. Wilhelm, F. Stein, A. Bussy, H. Elgabarty, D. Golze, A. Hehn, 
 M. Graml, S. Marek, B. Sertcan Gökmen, C. Schran, H. Forbert, R. Z. 
 Khaliullin, A. Kozhevnikov, M. Taillefumier, R. Meli, V. V. Rybkin, M. Brehm, 
 R. Schade, O. Schütt, J. V. Pototschnig, H. Mirhosseini, A. Knüpfer, D. Marx, 
 M. Krack, J. Hutter, T. D. Kühne.
 J. Phys. Chem. B 130, 1237-1310 (2026).
 The CP2K Program Package Made Simple.
 https://doi.org/10.1021/acs.jpcb.5c05851

 L. Wittmann, I. Gordiy, M. Friede, B. Helmich-Paris, S. Grimme, A. Hansen, M. 
 Bursch.
 Phys. Chem. Chem. Phys. 26, 21379-21394 (2024).
 Extension of the D3 and D4 London dispersion corrections to the full actinides 
 series.
 https://doi.org/10.1039/d4cp01514b

 T. D. Kühne, M. Iannuzzi, M. Del Ben, V. V. Rybkin, P. Seewald, F. Stein, T. 
 Laino, R. Z. Khaliullin, O. Schütt, F. Schiffmann, D. Golze, J. Wilhelm, S. 
 Chulkov, M. H. Bani-Hashemian, V. Weber, U. Borstnik, M. Taillefumier, A. S. 
 Jakobovits, A. Lazzaro, H. Pabst, T. Müller, R. Schade, M. Guidon, S. 
 Andermatt, N. Holmberg, G. K. Schenter, A. Hehn, A. Bussy, F. Belleflamme, G. 
 Tabacchi, A. Glöß, M. Lass, I. Bethune, C. J. Mundy, C. Plessl, M. Watkins, 
 J. VandeVondele, M. Krack, J. Hutter.
 J. Chem. Phys. 152, 194103 (2020).
 CP2K: An electronic structure and molecular dynamics software package - 
 Quickstep: Efficient and accurate electronic structure calculations.
 https://doi.org/10.1063/5.0007045

 A. Togo, I. Tanaka.
 arXiv, 1808.01590 (2018).
 Spglib : a software library for crystal symmetry search.

 L. Goerigk, A. Hansen, C. Bauer, S. Ehrlich, A. Najibi, S. Grimme.
 Phys. Chem. Chem. Phys. 19, 32184-32215 (2017).
 A look at the density functional theory zoo with the advanced GMTKN55 database 
 for general main group thermochemistry, kinetics and noncovalent interactions.
 https://doi.org/10.1039/C7CP04913G

 O. Schuett, P. Messmer, J. Hutter, J. VandeVondele.
 Electronic Structure Calculations on Graphics Processing Units, 173-190 (2016).
 GPU-Accelerated Sparse Matrix-Matrix Multiplication for Linear Scaling Density 
 Functional Theory.
 https://doi.org/10.1002/9781118670712.ch8

 U. Borstnik, J. VandeVondele, V. Weber, J. Hutter.
 Parallel Comput. 40, 47-58 (2014).
 Sparse matrix multiplication: The distributed block-compressed sparse row 
 library.
 https://doi.org/10.1016/j.parco.2014.03.012

 S. Grimme, S. Ehrlich, L. Goerigk.
 J. Comput. Chem. 32, 1456 (2011).
 Effect of the damping function in dispersion corrected density functional 
 theory.
 https://doi.org/10.1002/jcc.21759

 S. Grimme, J. Antony, S. Ehrlich, H. Krieg.
 J. Chem. Phys. 132, 154104 (2010).
 A consistent and accurate ab initio parametrization of density functional 
 dispersion correction (DFT-D) for the 94 elements H-Pu.
 https://doi.org/10.1063/1.3382344

 J. VandeVondele, J. Hutter.
 J. Chem. Phys. 127, 114105 (2007).
 Gaussian basis sets for accurate calculations on molecular systems in gas and 
 condensed phases.
 https://doi.org/10.1063/1.2770708

 M. Frigo, S. G. Johnson.
 Proc. IEEE 93, 216-231 (2005).
 The design and implementation of FFTW3.
 https://doi.org/10.1109/JPROC.2004.840301

 M. Krack, M. Parrinello.
 Phys. Chem. Chem. Phys. 2, 2105-2112 (2000).
 All-electron ab-initio molecular dynamics.
 https://doi.org/10.1039/b001167n

 G. Lippert, J. Hutter, M. Parrinello.
 Theor. Chem. Acc. 103, 124-140 (1999).
 The Gaussian and augmented-plane-wave density functional method for ab initio 
 molecular dynamics simulations.
 https://doi.org/10.1007/s002140050523

 C.-L. Fu, K.-M. Ho.
 Phys. Rev. B 28, 5480-5486 (1983).
 First-principles calculation of the equilibrium ground-state properties of 
 transition metals: Applications to Nb and Mo.
 https://doi.org/10.1103/PhysRevB.28.5480

 T. G. Worlton, J. L. Warren.
 Comput. Phys. Commun. 3, 88-117 (1972).
 Group-theoretical analysis of lattice vibrations.
 https://doi.org/10.1016/0010-4655(72)90058-6


 -------------------------------------------------------------------------------
 -                                                                             -
 -                                T I M I N G                                  -
 -                                                                             -
 -------------------------------------------------------------------------------
 SUBROUTINE                       CALLS  ASD         SELF TIME        TOTAL TIME
                                MAXIMUM       AVERAGE  MAXIMUM  AVERAGE  MAXIMUM
 CP2K                                 1  1.0     0.05     0.05 24106.80 24106.80
 qs_energies                          1  2.0     0.00     0.00 24106.37 24106.37
 scf_env_do_scf                       1  3.0     0.00     0.00 24103.02 24103.02
 scf_env_do_scf_inner_loop           30  4.0     1.11     1.11 24103.02 24103.02
 qs_ks_update_qs_env                 30  5.0     0.00     0.00 23760.37 23760.37
 rebuild_ks_matrix                   30  6.0     0.00     0.00 23756.59 23756.59
 qs_ks_build_kohn_sham_matrix        30  7.0     0.05     0.05 23756.59 23756.59
 calculate_vxc_atom                  30  8.0 19771.86 19771.86 23541.02 23541.02
 calc_tau_atom                      720  9.0   950.04   950.04   950.04   950.04
 skala_atom_torch_backward           90  9.0   936.08   936.08   936.08   936.08
 gaVxcgb_GC                         480  9.0   735.23   735.23   735.23   735.23
 dgaVtaudgb                         480  9.0   576.75   576.75   576.75   576.75
 skala_atom_torch_forward            90  9.0     0.09     0.09   515.40   515.40
 torch_model_forward_mol_tensor      90 10.0   515.31   515.31   515.31   515.31
 -------------------------------------------------------------------------------

 The number of warnings for this run is : 1
 
 -------------------------------------------------------------------------------
  **** **** ******  **  PROGRAM ENDED AT                 2026-09-01 04:14:40.663
 ***** ** ***  *** **   PROGRAM RAN ON                                    cge008
 **    ****   ******    PROGRAM RAN BY                                  kuehne88
 ***** **    ** ** **   PROGRAM PROCESS ID                               1725231
  **** **  *******  **  PROGRAM STOPPED IN /data/home2/kuehne88/cp2k-native-skal
                                           a/goldzak12/runs/production/gapw-ae/B
                                           P/v04
