 DBCSR| CPU Multiplication driver                                           BLAS (U)
 DBCSR| Multrec recursion limit                                              512 (U)
 DBCSR| Multiplication stack size                                          30000 (D)
 DBCSR| Maximum elements for images                                    UNLIMITED (U)
 DBCSR| Multiplicative factor virtual images                                   1 (U)
 DBCSR| Use multiplication densification                                       F (D)
 DBCSR| Multiplication size stacks                                             3 (U)
 DBCSR| Use memory pool for CPU allocation                                     F (U)
 DBCSR| Number of 3D layers                                               SINGLE (U)
 DBCSR| Use MPI memory allocation                                              F (U)
 DBCSR| Use RMA algorithm                                                      F (U)
 DBCSR| Use Communication thread                                               T (U)
 DBCSR| Communication thread load                                              0 (D)
 DBCSR| MPI: My process id                                                     0
 DBCSR| MPI: Number of processes                                               1
 DBCSR| OMP: Current number of threads                                        32
 DBCSR| OMP: Max number of threads                                            32
 DBCSR| ACC: Number of devices/node                                            1
 DBCSR| ACC: Number of stack-buffers per thread                                8 (U)
 DBCSR| ACC: Avoid driver after busy                                           F (U)
 DBCSR| ACC: Process inhomogeneous stacks                                      T (U)
 DBCSR| ACC: Min. flop for processing                                          0 (U)
 DBCSR| ACC: Use G2G algorithm                                                 F (D)
 DBCSR| ACC: Min. flop for sorting                                          4000 (U)
 DBCSR| ACC: Number of binning bins                                         4096 (U)
 DBCSR| ACC: Size of binning bins                                             16 (U)
 DBCSR| ACC: GPU backend is enabled                                            T (D)
 DBCSR| Split modifier for TAS multiplication algorithm                  1.0E+00 (U)


  **** **** ******  **  PROGRAM STARTED AT               2026-08-25 13:48:41.736
 ***** ** ***  *** **   PROGRAM STARTED ON                                 gh003
 **    ****   ******    PROGRAM STARTED BY                              kuehne88
 ***** **    ** ** **   PROGRAM PROCESS ID                               2287740
  **** **  *******  **  PROGRAM STARTED IN /data/home2/kuehne88/cp2k-native-skal
                                           a/validation-uzh/diet-production-p25/
                                           gapwxc-gth-one-center/3be8c690706b161
                                           7647bf4952e471f96a073f4fa

 CP2K| version string:                 CP2K version 2026.2 (Development Version)
 CP2K| source code revision number:                                   c1bff3eeb8
 CP2K| cp2kflags: omp fftw3 parallel scalapack mpi_f08 dbcsr_acc spglib openblas
 CP2K|             libtorch libtorch_cuda offload_cuda
 CP2K| is freely available from                            https://www.cp2k.org/
 CP2K| Program compiled at                                   2026-08-22 00:15:05
 CP2K| Program compiled on                                                ctu011
 CP2K| Program compiled for                                               x86_64
 CP2K| Data directory path    /home/kuehne88/cp2k-native-skala/install/cp2k-h100
 CP2K| Input file name                                                 input.inp

 GLOBAL| Force Environment number                                              1
 GLOBAL| Basis set file name                             BASIS_MOLOPT_UZH_2026.2
 GLOBAL| Potential file name                                POTENTIAL_UZH_2026.2
 GLOBAL| MM Potential file name                                     MM_POTENTIAL
 GLOBAL| Coordinate file name                                      __STD_INPUT__
 GLOBAL| Method name                                                        CP2K
 GLOBAL| Project name                                3be8c690706b_gapwxc_gth_paw
 GLOBAL| Run type                                                         ENERGY
 GLOBAL| FFT library                                                       FFTW3
 GLOBAL| Diagonalization library                                       ScaLAPACK
 GLOBAL| Cholesky decomposition library                                ScaLAPACK
 GLOBAL| DGEMM library                                                      BLAS
 GLOBAL| Direct generalized diagonalization requested                          F
 GLOBAL| Orthonormality check for eigenvectors                          DISABLED
 GLOBAL| Matrix multiplication library                                 ScaLAPACK
 GLOBAL| All-to-all communication in single precision                          F
 GLOBAL| FFTs using library dependent lengths                                  F
 GLOBAL| Grid backend                                                       AUTO
 GLOBAL| Global print level                                               MEDIUM
 GLOBAL| MPI I/O enabled                                                       T
 GLOBAL| Total number of message passing processes                             1
 GLOBAL| Number of distributed systems (nodes)                                 1
 GLOBAL| Number of threads for this process                                   32
 GLOBAL| This output is from process                                           0
 GLOBAL| OpenMP stack size per thread (OMP_STACKSIZE)                       512M
 GLOBAL| CPU model name                          AMD EPYC 9654 96-Core Processor

 MEMORY| system memory details [Kb]
 MEMORY|                        rank 0           min           max       average
 MEMORY| MemTotal           2377692460    2377692460    2377692460    2377692460
 MEMORY| MemFree            2083412212    2083412212    2083412212    2083412212
 MEMORY| Buffers                     0             0             0             0
 MEMORY| Cached              192365440     192365440     192365440     192365440
 MEMORY| Slab                  3381844       3381844       3381844       3381844
 MEMORY| SReclaimable          1211516       1211516       1211516       1211516
 MEMORY| MemLikelyFree      2276989168    2276989168    2276989168    2276989168


 *** Fundamental physical constants (SI units) ***

 *** Literature: B. J. Mohr and B. N. Taylor,
 ***             CODATA recommended values of the fundamental physical
 ***             constants: 2006, Web Version 5.1
 ***             http://physics.nist.gov/constants

 Speed of light in vacuum [m/s]                             2.99792458000000E+08
 Magnetic constant or permeability of vacuum [N/A**2]       1.25663706143592E-06
 Electric constant or permittivity of vacuum [F/m]          8.85418781762039E-12
 Planck constant (h) [J*s]                                  6.62606896000000E-34
 Planck constant (h-bar) [J*s]                              1.05457162825177E-34
 Elementary charge [C]                                      1.60217648700000E-19
 Electron mass [kg]                                         9.10938215000000E-31
 Electron g factor [ ]                                     -2.00231930436220E+00
 Proton mass [kg]                                           1.67262163700000E-27
 Fine-structure constant                                    7.29735253760000E-03
 Rydberg constant [1/m]                                     1.09737315685270E+07
 Avogadro constant [1/mol]                                  6.02214179000000E+23
 Boltzmann constant [J/K]                                   1.38065040000000E-23
 Atomic mass unit [kg]                                      1.66053878200000E-27
 Bohr radius [m]                                            5.29177208590000E-11

 *** Conversion factors ***

 [u] -> [a.u.]                                              1.82288848426455E+03
 [Angstrom] -> [Bohr] = [a.u.]                              1.88972613288564E+00
 [a.u.] = [Bohr] -> [Angstrom]                              5.29177208590000E-01
 [a.u.] -> [s]                                              2.41888432650478E-17
 [a.u.] -> [fs]                                             2.41888432650478E-02
 [a.u.] -> [J]                                              4.35974393937059E-18
 [a.u.] -> [N]                                              8.23872205491840E-08
 [a.u.] -> [K]                                              3.15774647902944E+05
 [a.u.] -> [kJ/mol]                                         2.62549961709828E+03
 [a.u.] -> [kcal/mol]                                       6.27509468713739E+02
 [a.u.] -> [Pa]                                             2.94210107994716E+13
 [a.u.] -> [bar]                                            2.94210107994716E+08
 [a.u.] -> [atm]                                            2.90362800883016E+08
 [a.u.] -> [eV]                                             2.72113838565563E+01
 [a.u.] -> [Hz]                                             6.57968392072181E+15
 [a.u.] -> [1/cm] (wave numbers)                            2.19474631370540E+05
 [a.u./Bohr**2] -> [1/cm]                                   5.14048714338585E+03
 

 CELL| Volume [angstrom^3]:                                         28800.000000
 CELL| Vector a [angstrom]:      32.000     0.000     0.000   |a| =    32.000000
 CELL| Vector b [angstrom]:       0.000    30.000     0.000   |b| =    30.000000
 CELL| Vector c [angstrom]:       0.000     0.000    30.000   |c| =    30.000000
 CELL| Angle (b,c), alpha [degree]:                                    90.000000
 CELL| Angle (a,c), beta  [degree]:                                    90.000000
 CELL| Angle (a,b), gamma [degree]:                                    90.000000
 CELL| Numerically orthorhombic:                                             YES
 CELL| Periodicity                                                          NONE

 CELL_REF| Volume [angstrom^3]:                                     28800.000000
 CELL_REF| Vector a [angstrom    32.000     0.000     0.000   |a| =    32.000000
 CELL_REF| Vector b [angstrom     0.000    30.000     0.000   |b| =    30.000000
 CELL_REF| Vector c [angstrom     0.000     0.000    30.000   |c| =    30.000000
 CELL_REF| Angle (b,c), alpha [degree]:                                90.000000
 CELL_REF| Angle (a,c), beta  [degree]:                                90.000000
 CELL_REF| Angle (a,b), gamma [degree]:                                90.000000
 CELL_REF| Numerically orthorhombic:                                         YES
 CELL_REF| Periodicity                                                      NONE

 GENERATE|  Preliminary Number of Bonds generated:                             0
 GENERATE|  Achieved consistency in connectivity generation.

 *******************************************************************************
 *******************************************************************************
 **                                                                           **
 **     #####                         ##              ##                      **
 **    ##   ##            ##          ##              ##                      **
 **   ##     ##                       ##            ######                    **
 **   ##     ##  ##   ##  ##   #####  ##  ##   ####   ##    #####    #####    **
 **   ##     ##  ##   ##  ##  ##      ## ##   ##      ##   ##   ##  ##   ##   **
 **   ##  ## ##  ##   ##  ##  ##      ####     ###    ##   ######   ######    **
 **    ##  ###   ##   ##  ##  ##      ## ##      ##   ##   ##       ##        **
 **     #######   #####   ##   #####  ##  ##  ####    ##    #####   ##        **
 **           ##                                                    ##        **
 **                                                                           **
 **                                                ... make the atoms dance   **
 **                                                                           **
 **            Copyright (C) by CP2K developers group (2000-2026)             **
 **                      J. Chem. Phys. 152, 194103 (2020)                    **
 **                                                                           **
 *******************************************************************************

 DFT| Spin restricted Kohn-Sham (RKS) calculation                            RKS
 DFT| Multiplicity                                                             1
 DFT| Number of spin states                                                    1
 DFT| Charge                                                                   0
 DFT| Self-interaction correction (SIC)                                       NO
 DFT| Cutoffs: density                                              1.000000E-10
 DFT|          gradient                                             1.000000E-10
 DFT|          tau                                                  1.000000E-10
 DFT|          cutoff_smoothing_range                               0.000000E+00
 DFT| XC density smoothing                                                  NONE
 DFT| XC derivatives                                                          PW

 FUNCTIONAL| GAUXC:
 FUNCTIONAL| Functional computed by GauXC Skala model SKALA                     

 vdW POTENTIAL|                                                   Pair Potential
 vdW POTENTIAL|          DFT-D3 (Version 3.1)
 vdW POTENTIAL|          Potential Form: S. Grimme et al, JCP 132: 154104 (2010)
 vdW POTENTIAL|          BJ Damping: S. Grimme et al, JCC 32: 1456 (2011)
 vdW POTENTIAL|          Cutoff Radius [Bohr]:                             37.79
 vdW POTENTIAL|          s6 Scaling Factor:                               1.0000
 vdW POTENTIAL|          a1 Damping Factor:                               0.3981
 vdW POTENTIAL|          s8 Scaling Factor:                               1.9889
 vdW POTENTIAL|          a2 Damping Factor:                               4.4211
 vdW POTENTIAL|          Cutoff for CN calculation:                   0.1000E-05

 QS| Method:                                                             GAPW_XC
 QS| Density plane wave grid type                        NON-SPHERICAL FULLSPACE
 QS| Number of grid levels:                                                    5
 QS| Density cutoff [a.u.]:                                                200.0
 QS| Multi grid cutoff [a.u.]: 1) grid level                               200.0
 QS|                           2) grid level                                66.7
 QS|                           3) grid level                                22.2
 QS|                           4) grid level                                 7.4
 QS|                           5) grid level                                 2.5
 QS| Grid level progression factor:                                          3.0
 QS| Relative density cutoff [a.u.]:                                        30.0
 QS| Interaction thresholds: eps_pgf_orb:                                1.0E-06
 QS|                         eps_filter_matrix:                          0.0E+00
 QS|                         eps_core_charge:                            1.0E-14
 QS|                         eps_rho_gspace:                             1.0E-12
 QS|                         eps_rho_rspace:                             1.0E-12
 QS|                         eps_gvg_rspace:                             1.0E-06
 QS|                         eps_ppl:                                    1.0E-02
 QS|                         eps_ppnl:                                   1.0E-08
 QS| GAPW_XC|      One center basis extended with primitives (small:s)
 QS| GAPW_XC|                eps_fit:                                    1.0E-04
 QS| GAPW_XC|                eps_iso:                                    1.0E-12
 QS| GAPW_XC|                eps_svd:                                    1.0E-08
 QS| GAPW_XC|atom-r-grid: quadrature:                 GC_LOG                        
 QS| GAPW_XC|   atom-s-grid:  max l :                                          6


 ATOMIC KIND INFORMATION

  1. Atomic kind: C                                     Number of atoms:      12

     Orbital Basis Set                                   TZV2P-MOLOPT-PBE-GTH-q4

       Number of orbital shell sets:                                           1
       Number of orbital shells:                                               9
       Number of primitive Cartesian functions:                                5
       Number of Cartesian basis functions:                                   34
       Number of spherical basis functions:                                   29
       Norm type:                                                              2

       Normalised Cartesian orbitals:

                        Set   Shell   Orbital            Exponent    Coefficient

                          1       1    2s                5.599010      -0.388516
                                                         2.008517      -0.222960
                                                         0.755557       0.256069
                                                         0.292158       0.177682
                                                         0.105328       0.019401

                          1       2    3s                5.599010       0.700337
                                                         2.008517       0.202467
                                                         0.755557      -0.073086
                                                         0.292158      -0.004274
                                                         0.105328       0.122810

                          1       3    4s                5.599010      -2.176345
                                                         2.008517      -0.220775
                                                         0.755557       0.109238
                                                         0.292158      -0.129517
                                                         0.105328       0.038801

                          1       4    3px               5.599010      -0.769001
                                                         2.008517      -0.634471
                                                         0.755557      -0.400220
                                                         0.292158      -0.124705
                                                         0.105328      -0.014325
                          1       4    3py               5.599010      -0.769001
                                                         2.008517      -0.634471
                                                         0.755557      -0.400220
                                                         0.292158      -0.124705
                                                         0.105328      -0.014325
                          1       4    3pz               5.599010      -0.769001
                                                         2.008517      -0.634471
                                                         0.755557      -0.400220
                                                         0.292158      -0.124705
                                                         0.105328      -0.014325

                          1       5    4px               5.599010       0.895802
                                                         2.008517       0.817480
                                                         0.755557       0.269326
                                                         0.292158       0.009009
                                                         0.105328      -0.085852
                          1       5    4py               5.599010       0.895802
                                                         2.008517       0.817480
                                                         0.755557       0.269326
                                                         0.292158       0.009009
                                                         0.105328      -0.085852
                          1       5    4pz               5.599010       0.895802
                                                         2.008517       0.817480
                                                         0.755557       0.269326
                                                         0.292158       0.009009
                                                         0.105328      -0.085852

                          1       6    5px               5.599010       1.029767
                                                         2.008517       2.903527
                                                         0.755557       0.336187
                                                         0.292158      -0.258025
                                                         0.105328       0.023472
                          1       6    5py               5.599010       1.029767
                                                         2.008517       2.903527
                                                         0.755557       0.336187
                                                         0.292158      -0.258025
                                                         0.105328       0.023472
                          1       6    5pz               5.599010       1.029767
                                                         2.008517       2.903527
                                                         0.755557       0.336187
                                                         0.292158      -0.258025
                                                         0.105328       0.023472

                          1       7    4dx2              5.599010      -4.629244
                                                         2.008517       1.670071
                                                         0.755557       0.309368
                                                         0.292158       0.124707
                                                         0.105328      -0.001260
                          1       7    4dxy              5.599010      -8.018085
                                                         2.008517       2.892648
                                                         0.755557       0.535841
                                                         0.292158       0.215998
                                                         0.105328      -0.002182
                          1       7    4dxz              5.599010      -8.018085
                                                         2.008517       2.892648
                                                         0.755557       0.535841
                                                         0.292158       0.215998
                                                         0.105328      -0.002182
                          1       7    4dy2              5.599010      -4.629244
                                                         2.008517       1.670071
                                                         0.755557       0.309368
                                                         0.292158       0.124707
                                                         0.105328      -0.001260
                          1       7    4dyz              5.599010      -8.018085
                                                         2.008517       2.892648
                                                         0.755557       0.535841
                                                         0.292158       0.215998
                                                         0.105328      -0.002182
                          1       7    4dz2              5.599010      -4.629244
                                                         2.008517       1.670071
                                                         0.755557       0.309368
                                                         0.292158       0.124707
                                                         0.105328      -0.001260

                          1       8    5dx2              5.599010      -0.765539
                                                         2.008517       0.044731
                                                         0.755557       0.033894
                                                         0.292158       0.006499
                                                         0.105328       0.031042
                          1       8    5dxy              5.599010      -1.325952
                                                         2.008517       0.077477
                                                         0.755557       0.058707
                                                         0.292158       0.011257
                                                         0.105328       0.053766
                          1       8    5dxz              5.599010      -1.325952
                                                         2.008517       0.077477
                                                         0.755557       0.058707
                                                         0.292158       0.011257
                                                         0.105328       0.053766
                          1       8    5dy2              5.599010      -0.765539
                                                         2.008517       0.044731
                                                         0.755557       0.033894
                                                         0.292158       0.006499
                                                         0.105328       0.031042
                          1       8    5dyz              5.599010      -1.325952
                                                         2.008517       0.077477
                                                         0.755557       0.058707
                                                         0.292158       0.011257
                                                         0.105328       0.053766
                          1       8    5dz2              5.599010      -0.765539
                                                         2.008517       0.044731
                                                         0.755557       0.033894
                                                         0.292158       0.006499
                                                         0.105328       0.031042

                          1       9    5fx3              5.599010      -0.150044
                                                         2.008517      -0.042629
                                                         0.755557       0.009866
                                                         0.292158       0.091648
                                                         0.105328       0.000020
                          1       9    5fx2y             5.599010      -0.335509
                                                         2.008517      -0.095321
                                                         0.755557       0.022061
                                                         0.292158       0.204931
                                                         0.105328       0.000045
                          1       9    5fx2z             5.599010      -0.335509
                                                         2.008517      -0.095321
                                                         0.755557       0.022061
                                                         0.292158       0.204931
                                                         0.105328       0.000045
                          1       9    5fxy2             5.599010      -0.335509
                                                         2.008517      -0.095321
                                                         0.755557       0.022061
                                                         0.292158       0.204931
                                                         0.105328       0.000045
                          1       9    5fxyz             5.599010      -0.581119
                                                         2.008517      -0.165100
                                                         0.755557       0.038210
                                                         0.292158       0.354951
                                                         0.105328       0.000078
                          1       9    5fxz2             5.599010      -0.335509
                                                         2.008517      -0.095321
                                                         0.755557       0.022061
                                                         0.292158       0.204931
                                                         0.105328       0.000045
                          1       9    5fy3              5.599010      -0.150044
                                                         2.008517      -0.042629
                                                         0.755557       0.009866
                                                         0.292158       0.091648
                                                         0.105328       0.000020
                          1       9    5fy2z             5.599010      -0.335509
                                                         2.008517      -0.095321
                                                         0.755557       0.022061
                                                         0.292158       0.204931
                                                         0.105328       0.000045
                          1       9    5fyz2             5.599010      -0.335509
                                                         2.008517      -0.095321
                                                         0.755557       0.022061
                                                         0.292158       0.204931
                                                         0.105328       0.000045
                          1       9    5fz3              5.599010      -0.150044
                                                         2.008517      -0.042629
                                                         0.755557       0.009866
                                                         0.292158       0.091648
                                                         0.105328       0.000020

       Atomic covalent radius [Angstrom]:                                  0.770

       Atomic van der Waals radius [Angstrom]:                             1.700

     The atoms of this atomic kind are PAW atoms (GAPW):
       Hard Gaussian function radius:                                      1.520
       Rho0 radius:                                                        1.520
       Maximum GTO radius used for PAW projector construction:            24.566

     GAPW Soft Basis Set                            TZV2P-MOLOPT-PBE-GTH-q4_soft

       Number of orbital shell sets:                                           1
       Number of orbital shells:                                               9
       Number of primitive Cartesian functions:                                4
       Number of Cartesian basis functions:                                   34
       Number of spherical basis functions:                                   29
       Norm type:                                                              2

       Normalised Cartesian orbitals:

                        Set   Shell   Orbital            Exponent    Coefficient

                          1       1    2s                2.008517      -0.222960
                                                         0.755557       0.256069
                                                         0.292158       0.177682
                                                         0.105328       0.019401

                          1       2    3s                2.008517       0.202467
                                                         0.755557      -0.073086
                                                         0.292158      -0.004274
                                                         0.105328       0.122810

                          1       3    4s                2.008517      -0.220775
                                                         0.755557       0.109238
                                                         0.292158      -0.129517
                                                         0.105328       0.038801

                          1       4    3px               2.008517      -0.634471
                                                         0.755557      -0.400220
                                                         0.292158      -0.124705
                                                         0.105328      -0.014325
                          1       4    3py               2.008517      -0.634471
                                                         0.755557      -0.400220
                                                         0.292158      -0.124705
                                                         0.105328      -0.014325
                          1       4    3pz               2.008517      -0.634471
                                                         0.755557      -0.400220
                                                         0.292158      -0.124705
                                                         0.105328      -0.014325

                          1       5    4px               2.008517       0.817480
                                                         0.755557       0.269326
                                                         0.292158       0.009009
                                                         0.105328      -0.085852
                          1       5    4py               2.008517       0.817480
                                                         0.755557       0.269326
                                                         0.292158       0.009009
                                                         0.105328      -0.085852
                          1       5    4pz               2.008517       0.817480
                                                         0.755557       0.269326
                                                         0.292158       0.009009
                                                         0.105328      -0.085852

                          1       6    5px               2.008517       2.903527
                                                         0.755557       0.336187
                                                         0.292158      -0.258025
                                                         0.105328       0.023472
                          1       6    5py               2.008517       2.903527
                                                         0.755557       0.336187
                                                         0.292158      -0.258025
                                                         0.105328       0.023472
                          1       6    5pz               2.008517       2.903527
                                                         0.755557       0.336187
                                                         0.292158      -0.258025
                                                         0.105328       0.023472

                          1       7    4dx2              2.008517       1.670071
                                                         0.755557       0.309368
                                                         0.292158       0.124707
                                                         0.105328      -0.001260
                          1       7    4dxy              2.008517       2.892648
                                                         0.755557       0.535841
                                                         0.292158       0.215998
                                                         0.105328      -0.002182
                          1       7    4dxz              2.008517       2.892648
                                                         0.755557       0.535841
                                                         0.292158       0.215998
                                                         0.105328      -0.002182
                          1       7    4dy2              2.008517       1.670071
                                                         0.755557       0.309368
                                                         0.292158       0.124707
                                                         0.105328      -0.001260
                          1       7    4dyz              2.008517       2.892648
                                                         0.755557       0.535841
                                                         0.292158       0.215998
                                                         0.105328      -0.002182
                          1       7    4dz2              2.008517       1.670071
                                                         0.755557       0.309368
                                                         0.292158       0.124707
                                                         0.105328      -0.001260

                          1       8    5dx2              2.008517       0.044731
                                                         0.755557       0.033894
                                                         0.292158       0.006499
                                                         0.105328       0.031042
                          1       8    5dxy              2.008517       0.077477
                                                         0.755557       0.058707
                                                         0.292158       0.011257
                                                         0.105328       0.053766
                          1       8    5dxz              2.008517       0.077477
                                                         0.755557       0.058707
                                                         0.292158       0.011257
                                                         0.105328       0.053766
                          1       8    5dy2              2.008517       0.044731
                                                         0.755557       0.033894
                                                         0.292158       0.006499
                                                         0.105328       0.031042
                          1       8    5dyz              2.008517       0.077477
                                                         0.755557       0.058707
                                                         0.292158       0.011257
                                                         0.105328       0.053766
                          1       8    5dz2              2.008517       0.044731
                                                         0.755557       0.033894
                                                         0.292158       0.006499
                                                         0.105328       0.031042

                          1       9    5fx3              2.008517      -0.042629
                                                         0.755557       0.009866
                                                         0.292158       0.091648
                                                         0.105328       0.000020
                          1       9    5fx2y             2.008517      -0.095321
                                                         0.755557       0.022061
                                                         0.292158       0.204931
                                                         0.105328       0.000045
                          1       9    5fx2z             2.008517      -0.095321
                                                         0.755557       0.022061
                                                         0.292158       0.204931
                                                         0.105328       0.000045
                          1       9    5fxy2             2.008517      -0.095321
                                                         0.755557       0.022061
                                                         0.292158       0.204931
                                                         0.105328       0.000045
                          1       9    5fxyz             2.008517      -0.165100
                                                         0.755557       0.038210
                                                         0.292158       0.354951
                                                         0.105328       0.000078
                          1       9    5fxz2             2.008517      -0.095321
                                                         0.755557       0.022061
                                                         0.292158       0.204931
                                                         0.105328       0.000045
                          1       9    5fy3              2.008517      -0.042629
                                                         0.755557       0.009866
                                                         0.292158       0.091648
                                                         0.105328       0.000020
                          1       9    5fy2z             2.008517      -0.095321
                                                         0.755557       0.022061
                                                         0.292158       0.204931
                                                         0.105328       0.000045
                          1       9    5fyz2             2.008517      -0.095321
                                                         0.755557       0.022061
                                                         0.292158       0.204931
                                                         0.105328       0.000045
                          1       9    5fz3              2.008517      -0.042629
                                                         0.755557       0.009866
                                                         0.292158       0.091648
                                                         0.105328       0.000020

     GTH Potential information for                                    GTH-PBE-q4

       Description:                       Goedecker-Teter-Hutter pseudopotential
                                           Goedecker et al., PRB 54, 1703 (1996)
                                          Hartwigsen et al., PRB 58, 3641 (1998)
                                                      Krack, TCA 114, 145 (2005)

       Gaussian exponent of the core charge distribution:               4.362265
       Electronic configuration (s p d ...):                       2   2   0   0

       Parameters of the local part of the GTH pseudopotential:

                          rloc        C1          C2          C3          C4
                        0.338555   -8.804552    1.338377

       Parameters of the non-local part of the GTH pseudopotential:

                   l      r(l)      h(i,j,l)

                   0    0.302610    9.622862

  2. Atomic kind: H                                     Number of atoms:      12

     Orbital Basis Set                                   TZV2P-MOLOPT-PBE-GTH-q1

       Number of orbital shell sets:                                           1
       Number of orbital shells:                                               6
       Number of primitive Cartesian functions:                                5
       Number of Cartesian basis functions:                                   15
       Number of spherical basis functions:                                   14
       Norm type:                                                              2

       Normalised Cartesian orbitals:

                        Set   Shell   Orbital            Exponent    Coefficient

                          1       1    2s                9.586642       0.069481
                                                         2.202360       0.112147
                                                         0.604094       0.130550
                                                         0.146498       0.088477
                                                         0.139526       0.035929

                          1       2    3s                9.586642      -0.087313
                                                         2.202360      -0.117928
                                                         0.604094      -0.099372
                                                         0.146498      -0.105375
                                                         0.139526       0.287433

                          1       3    4s                9.586642       0.882480
                                                         2.202360       0.096105
                                                         0.604094      -0.739894
                                                         0.146498       0.120904
                                                         0.139526       0.013904

                          1       4    3px               9.586642      -2.186125
                                                         2.202360       1.112625
                                                         0.604094       0.330981
                                                         0.146498       0.087385
                                                         0.139526      -0.016905
                          1       4    3py               9.586642      -2.186125
                                                         2.202360       1.112625
                                                         0.604094       0.330981
                                                         0.146498       0.087385
                                                         0.139526      -0.016905
                          1       4    3pz               9.586642      -2.186125
                                                         2.202360       1.112625
                                                         0.604094       0.330981
                                                         0.146498       0.087385
                                                         0.139526      -0.016905

                          1       5    4px               9.586642       1.866908
                                                         2.202360       0.174551
                                                         0.604094       0.060190
                                                         0.146498       0.014182
                                                         0.139526       0.100545
                          1       5    4py               9.586642       1.866908
                                                         2.202360       0.174551
                                                         0.604094       0.060190
                                                         0.146498       0.014182
                                                         0.139526       0.100545
                          1       5    4pz               9.586642       1.866908
                                                         2.202360       0.174551
                                                         0.604094       0.060190
                                                         0.146498       0.014182
                                                         0.139526       0.100545

                          1       6    4dx2              9.586642       0.111501
                                                         2.202360      -0.020603
                                                         0.604094      -0.012612
                                                         0.146498      -0.000171
                                                         0.139526       0.052995
                          1       6    4dxy              9.586642       0.193125
                                                         2.202360      -0.035686
                                                         0.604094      -0.021844
                                                         0.146498      -0.000296
                                                         0.139526       0.091790
                          1       6    4dxz              9.586642       0.193125
                                                         2.202360      -0.035686
                                                         0.604094      -0.021844
                                                         0.146498      -0.000296
                                                         0.139526       0.091790
                          1       6    4dy2              9.586642       0.111501
                                                         2.202360      -0.020603
                                                         0.604094      -0.012612
                                                         0.146498      -0.000171
                                                         0.139526       0.052995
                          1       6    4dyz              9.586642       0.193125
                                                         2.202360      -0.035686
                                                         0.604094      -0.021844
                                                         0.146498      -0.000296
                                                         0.139526       0.091790
                          1       6    4dz2              9.586642       0.111501
                                                         2.202360      -0.020603
                                                         0.604094      -0.012612
                                                         0.146498      -0.000171
                                                         0.139526       0.052995

       Atomic covalent radius [Angstrom]:                                  0.320

       Atomic van der Waals radius [Angstrom]:                             1.090

     The atoms of this atomic kind are PAW atoms (GAPW):
       Hard Gaussian function radius:                                      1.000
       Rho0 radius:                                                        1.000
       Maximum GTO radius used for PAW projector construction:            24.566

     GAPW Soft Basis Set                            TZV2P-MOLOPT-PBE-GTH-q1_soft

       Number of orbital shell sets:                                           1
       Number of orbital shells:                                               6
       Number of primitive Cartesian functions:                                4
       Number of Cartesian basis functions:                                   15
       Number of spherical basis functions:                                   14
       Norm type:                                                              2

       Normalised Cartesian orbitals:

                        Set   Shell   Orbital            Exponent    Coefficient

                          1       1    2s                2.202360       0.112147
                                                         0.604094       0.130550
                                                         0.146498       0.088477
                                                         0.139526       0.035929

                          1       2    3s                2.202360      -0.117928
                                                         0.604094      -0.099372
                                                         0.146498      -0.105375
                                                         0.139526       0.287433

                          1       3    4s                2.202360       0.096105
                                                         0.604094      -0.739894
                                                         0.146498       0.120904
                                                         0.139526       0.013904

                          1       4    3px               2.202360       1.112625
                                                         0.604094       0.330981
                                                         0.146498       0.087385
                                                         0.139526      -0.016905
                          1       4    3py               2.202360       1.112625
                                                         0.604094       0.330981
                                                         0.146498       0.087385
                                                         0.139526      -0.016905
                          1       4    3pz               2.202360       1.112625
                                                         0.604094       0.330981
                                                         0.146498       0.087385
                                                         0.139526      -0.016905

                          1       5    4px               2.202360       0.174551
                                                         0.604094       0.060190
                                                         0.146498       0.014182
                                                         0.139526       0.100545
                          1       5    4py               2.202360       0.174551
                                                         0.604094       0.060190
                                                         0.146498       0.014182
                                                         0.139526       0.100545
                          1       5    4pz               2.202360       0.174551
                                                         0.604094       0.060190
                                                         0.146498       0.014182
                                                         0.139526       0.100545

                          1       6    4dx2              2.202360      -0.020603
                                                         0.604094      -0.012612
                                                         0.146498      -0.000171
                                                         0.139526       0.052995
                          1       6    4dxy              2.202360      -0.035686
                                                         0.604094      -0.021844
                                                         0.146498      -0.000296
                                                         0.139526       0.091790
                          1       6    4dxz              2.202360      -0.035686
                                                         0.604094      -0.021844
                                                         0.146498      -0.000296
                                                         0.139526       0.091790
                          1       6    4dy2              2.202360      -0.020603
                                                         0.604094      -0.012612
                                                         0.146498      -0.000171
                                                         0.139526       0.052995
                          1       6    4dyz              2.202360      -0.035686
                                                         0.604094      -0.021844
                                                         0.146498      -0.000296
                                                         0.139526       0.091790
                          1       6    4dz2              2.202360      -0.020603
                                                         0.604094      -0.012612
                                                         0.146498      -0.000171
                                                         0.139526       0.052995

     GTH Potential information for                                    GTH-PBE-q1

       Description:                       Goedecker-Teter-Hutter pseudopotential
                                           Goedecker et al., PRB 54, 1703 (1996)
                                          Hartwigsen et al., PRB 58, 3641 (1998)
                                                      Krack, TCA 114, 145 (2005)

       Gaussian exponent of the core charge distribution:              12.426182
       Electronic configuration (s p d ...):                       1   0   0   0

       Parameters of the local part of the GTH pseudopotential:

                          rloc        C1          C2          C3          C4
                        0.200593   -4.178068    0.724409


 MOLECULE KIND INFORMATION


 All atoms are their own molecule, skipping detailed information


 TOTAL NUMBERS AND MAXIMUM NUMBERS

  Total number of            - Atomic kinds:                                   2
                             - Atoms:                                         24
                             - Shell sets:                                    24
                             - Shells:                                       180
                             - Primitive Cartesian functions:                120
                             - Cartesian basis functions:                    588
                             - Spherical basis functions:                    516

  Maximum angular momentum of- Orbital basis functions:                        3
                             - Local part of the GTH pseudopotential:          2
                             - Non-local part of the GTH pseudopotential:      0


 MODULE QUICKSTEP: ATOMIC COORDINATES IN ANGSTROM

   Atom Kind Element         X             Y             Z       Z(eff)     Mass
      1    1 C     6     16.193575     16.121165     13.255105   4.0000  12.0107
      2    2 H     1     16.838775     16.986575     13.322295   1.0000   1.0079
      3    1 C     6     16.739165     14.840925     13.318795   4.0000  12.0107
      4    2 H     1     17.805885     14.713075     13.441305   1.0000   1.0079
      5    1 C     6     15.907815     13.725645     13.237215   4.0000  12.0107
      6    2 H     1     16.331375     12.731735     13.289315   1.0000   1.0079
      7    1 C     6     14.531355     13.890095     13.094245   4.0000  12.0107
      8    2 H     1     13.886475     13.023895     13.030845   1.0000   1.0079
      9    1 C     6     13.985405     15.171225     13.033015   4.0000  12.0107
     10    2 H     1     12.917145     15.299395     12.920855   1.0000   1.0079
     11    1 C     6     14.817105     16.286815     13.111155   4.0000  12.0107
     12    2 H     1     14.394035     17.281175     13.061675   1.0000   1.0079
     13    1 C     6     17.468695     16.109925     16.904885   4.0000  12.0107
     14    2 H     1     18.113535     16.976115     16.968635   1.0000   1.0079
     15    1 C     6     18.014645     14.828775     16.966395   4.0000  12.0107
     16    2 H     1     19.082855     14.700635     17.079145   1.0000   1.0079
     17    1 C     6     17.182995     13.713175     16.887745   4.0000  12.0107
     18    2 H     1     17.606075     12.718825     16.937405   1.0000   1.0079
     19    1 C     6     15.806595     13.878815     16.743035   4.0000  12.0107
     20    2 H     1     15.161495     13.013405     16.675405   1.0000   1.0079
     21    1 C     6     15.261035     15.159045     16.679065   4.0000  12.0107
     22    2 H     1     14.194405     15.286875     16.555885   1.0000   1.0079
     23    1 C     6     16.092315     16.274325     16.761135   4.0000  12.0107
     24    2 H     1     15.668785     17.268235     16.708765   1.0000   1.0079



 SCF PARAMETERS         Density guess:                                    ATOMIC
                        --------------------------------------------------------
                        max_scf:                                             200
                        max_scf_history:                                       0
                        max_diis:                                              4
                        --------------------------------------------------------
                        eps_scf:                                        1.00E-07
                        eps_scf_history:                                0.00E+00
                        eps_diis:                                       0.00E+00
                        eps_eigval:                                     1.00E-05
                        --------------------------------------------------------
                        level_shift [a.u.]:                             0.000000
                        --------------------------------------------------------
                        Outer loop SCF in use 
                        No variables optimised in outer loop
                        eps_scf                                         1.00E-07
                        max_scf                                               20
                        No outer loop optimization
                        step_size                                       5.00E-01

 PW_GRID| Information for grid number                                          1
 PW_GRID| Cutoff [a.u.]                                                    200.0
 PW_GRID| spherical cutoff:                                                   NO
 PW_GRID|   Bounds   1           -200     199                Points:         400
 PW_GRID|   Bounds   2           -187     187                Points:         375
 PW_GRID|   Bounds   3           -187     187                Points:         375
 PW_GRID| Volume element (a.u.^3)  0.3455E-02     Volume (a.u.^3)    194352.0360
 PW_GRID| Grid span                                                    FULLSPACE

 PW_GRID| Information for grid number                                          2
 PW_GRID| Number of the reference grid                                         1
 PW_GRID| Cutoff [a.u.]                                                     66.7
 PW_GRID| spherical cutoff:                                                   NO
 PW_GRID|   Bounds   1           -112     112                Points:         225
 PW_GRID|   Bounds   2           -108     107                Points:         216
 PW_GRID|   Bounds   3           -108     107                Points:         216
 PW_GRID| Volume element (a.u.^3)  0.1851E-01     Volume (a.u.^3)    194352.0360
 PW_GRID| Grid span                                                    FULLSPACE

 PW_GRID| Information for grid number                                          3
 PW_GRID| Number of the reference grid                                         1
 PW_GRID| Cutoff [a.u.]                                                     22.2
 PW_GRID| spherical cutoff:                                                   NO
 PW_GRID|   Bounds   1            -67      67                Points:         135
 PW_GRID|   Bounds   2            -62      62                Points:         125
 PW_GRID|   Bounds   3            -62      62                Points:         125
 PW_GRID| Volume element (a.u.^3)  0.9214E-01     Volume (a.u.^3)    194352.0360
 PW_GRID| Grid span                                                    FULLSPACE

 PW_GRID| Information for grid number                                          4
 PW_GRID| Number of the reference grid                                         1
 PW_GRID| Cutoff [a.u.]                                                      7.4
 PW_GRID| spherical cutoff:                                                   NO
 PW_GRID|   Bounds   1            -37      37                Points:          75
 PW_GRID|   Bounds   2            -36      35                Points:          72
 PW_GRID|   Bounds   3            -36      35                Points:          72
 PW_GRID| Volume element (a.u.^3)  0.4999         Volume (a.u.^3)    194352.0360
 PW_GRID| Grid span                                                    FULLSPACE

 PW_GRID| Information for grid number                                          5
 PW_GRID| Number of the reference grid                                         1
 PW_GRID| Cutoff [a.u.]                                                      2.5
 PW_GRID| spherical cutoff:                                                   NO
 PW_GRID|   Bounds   1            -22      22                Points:          45
 PW_GRID|   Bounds   2            -22      22                Points:          45
 PW_GRID|   Bounds   3            -22      22                Points:          45
 PW_GRID| Volume element (a.u.^3)   2.133         Volume (a.u.^3)    194352.0360
 PW_GRID| Grid span                                                    FULLSPACE

 POISSON| Solver                                                        ANALYTIC
 POISSON| Periodicity                                                       NONE

 RS_GRID| Information for grid number                                          1
 RS_GRID|   Bounds   1           -200     199                Points:         400
 RS_GRID|   Bounds   2           -187     187                Points:         375
 RS_GRID|   Bounds   3           -187     187                Points:         375

 RS_GRID| Information for grid number                                          2
 RS_GRID|   Bounds   1           -112     112                Points:         225
 RS_GRID|   Bounds   2           -108     107                Points:         216
 RS_GRID|   Bounds   3           -108     107                Points:         216

 RS_GRID| Information for grid number                                          3
 RS_GRID|   Bounds   1            -67      67                Points:         135
 RS_GRID|   Bounds   2            -62      62                Points:         125
 RS_GRID|   Bounds   3            -62      62                Points:         125

 RS_GRID| Information for grid number                                          4
 RS_GRID|   Bounds   1            -37      37                Points:          75
 RS_GRID|   Bounds   2            -36      35                Points:          72
 RS_GRID|   Bounds   3            -36      35                Points:          72

 RS_GRID| Information for grid number                                          5
 RS_GRID|   Bounds   1            -22      22                Points:          45
 RS_GRID|   Bounds   2            -22      22                Points:          45
 RS_GRID|   Bounds   3            -22      22                Points:          45

 Extrapolation method: initial_guess

 Atomic guess: The first density matrix is obtained in terms of atomic orbitals
               and electronic configurations assigned to each atomic kind

 Guess for atomic kind: C

 Electronic structure
    Total number of core electrons                                          2.00
    Total number of valence electrons                                       4.00
    Total number of electrons                                               6.00
    Multiplicity                                                   not specified
    S   [  2.00] 2.00
    P      2.00


 *******************************************************************************
                  Iteration          Convergence                     Energy [au]
 *******************************************************************************
                          1        0.117779                      -5.273315477849
                          2        0.811746E-01                  -5.277882950325
                          3        0.375808E-03                  -5.282044538817
                          4        0.116303E-03                  -5.282044581600
                          5        0.136159E-06                  -5.282044589276

 Energy components [Hartree]           Total Energy ::           -5.282044589276
                                        Band Energy ::           -1.313808155897
                                     Kinetic Energy ::            3.394620915655
                                   Potential Energy ::           -8.676665504931
                                      Virial (-V/T) ::            2.556004255119
                                        Core Energy ::           -8.294411848339
                                          XC Energy ::           -1.378447971455
                                     Coulomb Energy ::            4.390815230518
                       Total Pseudopotential Energy ::          -11.723548360395
                       Local Pseudopotential Energy ::          -12.387857835263
                    Nonlocal Pseudopotential Energy ::            0.664309474867
                                        Confinement ::            0.345155964011

 Orbital energies  State     L     Occupation   Energy[a.u.]          Energy[eV]

                       1     0          2.000      -0.483294          -13.151096

                       1     1          2.000      -0.173610           -4.724173


 Total Electron Density at R=0:                                         0.000017

 Guess for atomic kind: H

 Electronic structure
    Total number of core electrons                                          0.00
    Total number of valence electrons                                       1.00
    Total number of electrons                                               1.00
    Multiplicity                                                   not specified
    S      1.00


 *******************************************************************************
                  Iteration          Convergence                     Energy [au]
 *******************************************************************************
                          1        0.471942E-02                  -0.424095106469
                          2        0.464819E-03                  -0.424113671871
                          3        0.190364E-04                  -0.424114007136
                          4        0.633677E-08                  -0.424114007691

 Energy components [Hartree]           Total Energy ::           -0.424114007691
                                        Band Energy ::           -0.198799540676
                                     Kinetic Energy ::            0.462903625467
                                   Potential Energy ::           -0.887017633158
                                      Virial (-V/T) ::            1.916203685515
                                        Core Energy ::           -0.479182004469
                                          XC Energy ::           -0.244447840446
                                     Coulomb Energy ::            0.299515837225
                       Total Pseudopotential Energy ::           -0.960851778720
                       Local Pseudopotential Energy ::           -0.960851778720
                    Nonlocal Pseudopotential Energy ::            0.000000000000
                                        Confinement ::            0.187661487833

 Orbital energies  State     L     Occupation   Energy[a.u.]          Energy[eV]

                       1     0          1.000      -0.198800           -5.409611


 Total Electron Density at R=0:                                         0.230125
 Re-scaling the density matrix to get the right number of electrons
                  # Electrons              Trace(P)               Scaling factor
                           60                60.000                        1.000

 Number of electrons:                                                         60
 Number of occupied orbitals:                                                 30
 Number of molecular orbitals:                                                30

 Number of orbital functions:                                                516
 Number of independent orbital functions:                                    516


 SCF WAVEFUNCTION OPTIMIZATION

  ----------------------------------- OT ---------------------------------------
  Minimizer      : DIIS                : direct inversion
                                         in the iterative subspace
                                         using   7 DIIS vectors
                                         safer DIIS on
  Preconditioner : FULL_ALL            : diagonalization, state selective
  Precond_solver : DEFAULT
  stepsize       :    0.10000000                  energy_gap     :    0.00100000
  eps_taylor     :   0.10000E-15                  max_taylor     :             4
  ----------------------------------- OT ---------------------------------------

  Step     Update method      Time    Convergence         Total energy    Change
  ------------------------------------------------------------------------------
 SKALA_GPW| Atom-composite cross support/maxima   2.607069088142E+00   4.528171836977E-02   3.294365759016E-01   1.211626332648E+00

 SKALA_GPW| Native grid Torch CUDA device 0 of 1 requested -1
 SKALA_GPW| Native grid Torch CUDA rank devices 0:0
 SKALA_GPW| Active atom-composite XC energy  -2.2919836280415495E+01
 SKALA_GPW| Active atom-composite electrons   6.0000200716163889E+01
 SKALA_GPW| Active atom-composite density range  -1.0205146449589666E-09   2.3241450582022011E-01
 SKALA_GPW| Active atom-composite tau range  -5.4874966257781946E-09   2.0384328026497984E+00
 SKALA_GPW| Active atom-composite tau integral   5.7085282902801644E+01
 SKALA_GPW| Active atom-composite max gradient   6.1625565974168484E-01
     1 OT DIIS     0.10E+00  117.0     0.07279069       -67.4963046079 -6.75E+01
 SKALA_GPW| Atom-composite cross support/maxima   2.607069088142E+00   4.961209144210E-02   2.898627039069E-01   1.444423652180E+00
 SKALA_GPW| Active atom-composite XC energy  -2.4590329297453167E+01
 SKALA_GPW| Active atom-composite electrons   6.0000131852262498E+01
 SKALA_GPW| Active atom-composite density range  -1.5993644199754551E-09   2.2827549338850744E-01
 SKALA_GPW| Active atom-composite tau range  -5.1933434312591082E-09   2.6196108633329822E+00
 SKALA_GPW| Active atom-composite tau integral   6.0082027995897889E+01
 SKALA_GPW| Active atom-composite max gradient   6.8926376630112551E-01
     2 OT DIIS     0.10E+00  116.8     0.06978454       -71.7853510895 -4.29E+00
 SKALA_GPW| Atom-composite cross support/maxima   2.607069088142E+00   5.073487359145E-02   2.646211272772E-01   1.276536352552E+00
 SKALA_GPW| Active atom-composite XC energy  -2.4404253500488942E+01
 SKALA_GPW| Active atom-composite electrons   6.0000122091624412E+01
 SKALA_GPW| Active atom-composite density range  -2.4434063309847076E-09   1.9541693110364972E-01
 SKALA_GPW| Active atom-composite tau range  -6.8209052272952991E-09   2.3238621839146436E+00
 SKALA_GPW| Active atom-composite tau integral   5.7976033024632997E+01
 SKALA_GPW| Active atom-composite max gradient   5.4854897306364570E-01
     3 OT DIIS     0.10E+00  116.4     0.03423152       -73.3730529795 -1.59E+00
 SKALA_GPW| Atom-composite cross support/maxima   2.607069088142E+00   5.873475190119E-02   1.999348899109E-01   1.177230603950E+00
 SKALA_GPW| Active atom-composite XC energy  -2.4593386641386559E+01
 SKALA_GPW| Active atom-composite electrons   6.0000112613796247E+01
 SKALA_GPW| Active atom-composite density range  -1.9701395298627601E-09   1.9616884992256350E-01
 SKALA_GPW| Active atom-composite tau range  -6.3710899287768411E-09   2.0605844339641646E+00
 SKALA_GPW| Active atom-composite tau integral   5.7910027290920155E+01
 SKALA_GPW| Active atom-composite max gradient   4.4068296286353564E-01
     4 OT DIIS     0.10E+00  116.3     0.02103576       -74.1447212630 -7.72E-01
 SKALA_GPW| Atom-composite cross support/maxima   2.607069088142E+00   5.823005585183E-02   2.105275306702E-01   1.192516457616E+00
 SKALA_GPW| Active atom-composite XC energy  -2.4723384682568749E+01
 SKALA_GPW| Active atom-composite electrons   6.0000106607911491E+01
 SKALA_GPW| Active atom-composite density range  -1.6257699337402723E-09   1.9492758423255077E-01
 SKALA_GPW| Active atom-composite tau range  -6.1975856253750356E-09   2.0455116632518404E+00
 SKALA_GPW| Active atom-composite tau integral   5.8308134266045208E+01
 SKALA_GPW| Active atom-composite max gradient   4.5364739181767089E-01
     5 OT DIIS     0.10E+00  116.3     0.01354862       -74.4405550241 -2.96E-01
 SKALA_GPW| Atom-composite cross support/maxima   2.607069088142E+00   5.866221579721E-02   1.871676163012E-01   1.172903614361E+00
 SKALA_GPW| Active atom-composite XC energy  -2.4812346774770464E+01
 SKALA_GPW| Active atom-composite electrons   6.0000103500519735E+01
 SKALA_GPW| Active atom-composite density range  -1.4953656263733725E-09   1.9554834339047289E-01
 SKALA_GPW| Active atom-composite tau range  -6.4441978787663191E-09   1.9869432300613836E+00
 SKALA_GPW| Active atom-composite tau integral   5.8477586191713961E+01
 SKALA_GPW| Active atom-composite max gradient   4.0882324508348444E-01
     6 OT DIIS     0.10E+00  116.6     0.00981580       -74.6667029894 -2.26E-01
 SKALA_GPW| Atom-composite cross support/maxima   2.607069088142E+00   5.939220875767E-02   1.881503993865E-01   1.177983618176E+00
 SKALA_GPW| Active atom-composite XC energy  -2.4857838315091488E+01
 SKALA_GPW| Active atom-composite electrons   6.0000102438265479E+01
 SKALA_GPW| Active atom-composite density range  -1.4165605884407886E-09   1.9871753690376415E-01
 SKALA_GPW| Active atom-composite tau range  -6.6345247601325127E-09   1.9914125373094831E+00
 SKALA_GPW| Active atom-composite tau integral   5.8525859116745046E+01
 SKALA_GPW| Active atom-composite max gradient   4.1168812789409887E-01
     7 OT DIIS     0.10E+00  116.3     0.00890554       -74.8043696487 -1.38E-01
 SKALA_GPW| Atom-composite cross support/maxima   2.607069088142E+00   5.908211881443E-02   1.939747952140E-01   1.168455351898E+00
 SKALA_GPW| Active atom-composite XC energy  -2.4881316035541964E+01
 SKALA_GPW| Active atom-composite electrons   6.0000103187791602E+01
 SKALA_GPW| Active atom-composite density range  -1.3980783616270892E-09   1.9940319822897079E-01
 SKALA_GPW| Active atom-composite tau range  -6.5665509949149520E-09   1.9774909625115655E+00
 SKALA_GPW| Active atom-composite tau integral   5.8475249805369316E+01
 SKALA_GPW| Active atom-composite max gradient   4.1139989272303273E-01
     8 OT DIIS     0.10E+00  116.5     0.00906047       -74.9039466802 -9.96E-02
 SKALA_GPW| Atom-composite cross support/maxima   2.607069088142E+00   5.928419840484E-02   1.933134848789E-01   1.168310919101E+00
 SKALA_GPW| Active atom-composite XC energy  -2.4884761345021470E+01
 SKALA_GPW| Active atom-composite electrons   6.0000103019792711E+01
 SKALA_GPW| Active atom-composite density range  -1.4006382909918918E-09   1.9985373117841895E-01
 SKALA_GPW| Active atom-composite tau range  -6.5830065477096673E-09   1.9787824461820758E+00
 SKALA_GPW| Active atom-composite tau integral   5.8480196436046327E+01
 SKALA_GPW| Active atom-composite max gradient   4.1233092726413390E-01
     9 OT DIIS     0.10E+00  116.3     0.00889569       -74.9127529910 -8.81E-03
 SKALA_GPW| Atom-composite cross support/maxima   2.607069088142E+00   5.923311967046E-02   1.945806058580E-01   1.164391888211E+00
 SKALA_GPW| Active atom-composite XC energy  -2.4897338364558269E+01
 SKALA_GPW| Active atom-composite electrons   6.0000102376610329E+01
 SKALA_GPW| Active atom-composite density range  -1.4041518463715819E-09   1.9971466081106923E-01
 SKALA_GPW| Active atom-composite tau range  -6.6916372023628412E-09   1.9800087538087308E+00
 SKALA_GPW| Active atom-composite tau integral   5.8542767833760450E+01
 SKALA_GPW| Active atom-composite max gradient   4.1167269942423335E-01
    10 OT DIIS     0.10E+00  116.2     0.00911464       -74.9197323126 -6.98E-03
 SKALA_GPW| Atom-composite cross support/maxima   2.607069088142E+00   5.929237300750E-02   1.941371443945E-01   1.161799400820E+00
 SKALA_GPW| Active atom-composite XC energy  -2.4902052052537115E+01
 SKALA_GPW| Active atom-composite electrons   6.0000102186453610E+01
 SKALA_GPW| Active atom-composite density range  -1.3990361674654872E-09   2.0007015953709581E-01
 SKALA_GPW| Active atom-composite tau range  -6.6815570590629706E-09   1.9761533368357829E+00
 SKALA_GPW| Active atom-composite tau integral   5.8551348033232451E+01
 SKALA_GPW| Active atom-composite max gradient   4.1127836182226696E-01
    11 OT DIIS     0.10E+00  116.1     0.00889132       -74.9297372698 -1.00E-02
 SKALA_GPW| Atom-composite cross support/maxima   2.607069088142E+00   5.955563441657E-02   1.922310147001E-01   1.169072002842E+00
 SKALA_GPW| Active atom-composite XC energy  -2.4917584325883510E+01
 SKALA_GPW| Active atom-composite electrons   6.0000101459946670E+01
 SKALA_GPW| Active atom-composite density range  -1.4242117964499573E-09   2.0034819986161759E-01
 SKALA_GPW| Active atom-composite tau range  -6.8060695182103685E-09   1.9781979219713359E+00
 SKALA_GPW| Active atom-composite tau integral   5.8533463506352888E+01
 SKALA_GPW| Active atom-composite max gradient   4.1297821130789081E-01
    12 OT SD       0.10E+00  116.0     0.00971213       -74.9880330839 -5.83E-02
 SKALA_GPW| Atom-composite cross support/maxima   2.607069088142E+00   5.980322862145E-02   1.934834617355E-01   1.171943294006E+00
 SKALA_GPW| Active atom-composite XC energy  -2.4953269998194667E+01
 SKALA_GPW| Active atom-composite electrons   6.0000101561262305E+01
 SKALA_GPW| Active atom-composite density range  -1.3973100434557784E-09   2.0740708714263814E-01
 SKALA_GPW| Active atom-composite tau range  -6.6689258211405837E-09   1.9908429800058856E+00
 SKALA_GPW| Active atom-composite tau integral   5.8513085672027302E+01
 SKALA_GPW| Active atom-composite max gradient   4.2222309868576502E-01
    13 OT DIIS     0.10E+00  116.2     0.00714727       -75.1042746329 -1.16E-01
 SKALA_GPW| Atom-composite cross support/maxima   2.607069088142E+00   5.981677618416E-02   1.893944416059E-01   1.164608046128E+00
 SKALA_GPW| Active atom-composite XC energy  -2.4963904706301832E+01
 SKALA_GPW| Active atom-composite electrons   6.0000101552710667E+01
 SKALA_GPW| Active atom-composite density range  -1.3828153065826416E-09   2.0247140083387741E-01
 SKALA_GPW| Active atom-composite tau range  -6.7904264313633001E-09   1.9698196043177139E+00
 SKALA_GPW| Active atom-composite tau integral   5.8439846491930794E+01
 SKALA_GPW| Active atom-composite max gradient   4.1751593033620288E-01
    14 OT DIIS     0.10E+00  116.1     0.00608552       -75.1689033473 -6.46E-02
 SKALA_GPW| Atom-composite cross support/maxima   2.607069088142E+00   5.970051977356E-02   1.932272033647E-01   1.156581268930E+00
 SKALA_GPW| Active atom-composite XC energy  -2.4975705584870276E+01
 SKALA_GPW| Active atom-composite electrons   6.0000102185227099E+01
 SKALA_GPW| Active atom-composite density range  -1.4041658366818690E-09   2.0660237235505458E-01
 SKALA_GPW| Active atom-composite tau range  -6.7564983304295861E-09   1.9690249943807216E+00
 SKALA_GPW| Active atom-composite tau integral   5.8397455597986649E+01
 SKALA_GPW| Active atom-composite max gradient   4.2235868377297264E-01
    15 OT DIIS     0.10E+00  115.9     0.00316826       -75.2354121163 -6.65E-02
 SKALA_GPW| Atom-composite cross support/maxima   2.607069088142E+00   5.922628133670E-02   1.877717313527E-01   1.153738736454E+00
 SKALA_GPW| Active atom-composite XC energy  -2.4975492778997292E+01
 SKALA_GPW| Active atom-composite electrons   6.0000101546721069E+01
 SKALA_GPW| Active atom-composite density range  -1.4059656735166554E-09   2.0035122571418598E-01
 SKALA_GPW| Active atom-composite tau range  -6.8350665935656451E-09   1.9732180748462369E+00
 SKALA_GPW| Active atom-composite tau integral   5.8422950386138005E+01
 SKALA_GPW| Active atom-composite max gradient   4.1147271358910603E-01
    16 OT DIIS     0.10E+00  116.3     0.00492334       -75.2195838984  1.58E-02
 SKALA_GPW| Atom-composite cross support/maxima   2.607069088142E+00   5.917187008040E-02   1.880333740633E-01   1.152944950504E+00
 SKALA_GPW| Active atom-composite XC energy  -2.4979090337329044E+01
 SKALA_GPW| Active atom-composite electrons   6.0000101649392874E+01
 SKALA_GPW| Active atom-composite density range  -1.4170553816905911E-09   2.0121917747860779E-01
 SKALA_GPW| Active atom-composite tau range  -6.8856424303222291E-09   1.9571327912336600E+00
 SKALA_GPW| Active atom-composite tau integral   5.8397974611300974E+01
 SKALA_GPW| Active atom-composite max gradient   4.1155862569766494E-01
    17 OT DIIS     0.10E+00  116.4     0.00216031       -75.2463511390 -2.68E-02
 SKALA_GPW| Atom-composite cross support/maxima   2.607069088142E+00   5.913712733100E-02   1.869500978656E-01   1.150667189834E+00
 SKALA_GPW| Active atom-composite XC energy  -2.4979990131420319E+01
 SKALA_GPW| Active atom-composite electrons   6.0000101572040634E+01
 SKALA_GPW| Active atom-composite density range  -1.4204840479133400E-09   2.0039498337028500E-01
 SKALA_GPW| Active atom-composite tau range  -6.9059868966976227E-09   1.9534331036581052E+00
 SKALA_GPW| Active atom-composite tau integral   5.8393469487302525E+01
 SKALA_GPW| Active atom-composite max gradient   4.1083235613069535E-01
    18 OT DIIS     0.10E+00  116.2     0.00147241       -75.2532800099 -6.93E-03
 SKALA_GPW| Atom-composite cross support/maxima   2.607069088142E+00   5.914929676554E-02   1.876447087951E-01   1.150565505719E+00
 SKALA_GPW| Active atom-composite XC energy  -2.4982868549340019E+01
 SKALA_GPW| Active atom-composite electrons   6.0000101553777306E+01
 SKALA_GPW| Active atom-composite density range  -1.4216817372050912E-09   2.0038521369311835E-01
 SKALA_GPW| Active atom-composite tau range  -6.9233811336303696E-09   1.9512282027111376E+00
 SKALA_GPW| Active atom-composite tau integral   5.8405368978392282E+01
 SKALA_GPW| Active atom-composite max gradient   4.1082171808349810E-01
    19 OT DIIS     0.10E+00  116.0     0.00068962       -75.2563697790 -3.09E-03
 SKALA_GPW| Atom-composite cross support/maxima   2.607069088142E+00   5.911788252905E-02   1.871206822000E-01   1.150161690095E+00
 SKALA_GPW| Active atom-composite XC energy  -2.4983045986900500E+01
 SKALA_GPW| Active atom-composite electrons   6.0000101608663982E+01
 SKALA_GPW| Active atom-composite density range  -1.4206829918012579E-09   2.0039110790515055E-01
 SKALA_GPW| Active atom-composite tau range  -6.9162337211182301E-09   1.9453748839319962E+00
 SKALA_GPW| Active atom-composite tau integral   5.8403218276467939E+01
 SKALA_GPW| Active atom-composite max gradient   4.1033363989273458E-01
    20 OT DIIS     0.10E+00  116.6     0.00037157       -75.2572796233 -9.10E-04
 SKALA_GPW| Atom-composite cross support/maxima   2.607069088142E+00   5.912469343280E-02   1.871130689051E-01   1.149672059755E+00
 SKALA_GPW| Active atom-composite XC energy  -2.4983455173954216E+01
 SKALA_GPW| Active atom-composite electrons   6.0000101681033428E+01
 SKALA_GPW| Active atom-composite density range  -1.4201775508165073E-09   2.0033173686348721E-01
 SKALA_GPW| Active atom-composite tau range  -6.9218331645972046E-09   1.9452458920449800E+00
 SKALA_GPW| Active atom-composite tau integral   5.8404562908115160E+01
 SKALA_GPW| Active atom-composite max gradient   4.1005415947581031E-01
    21 OT DIIS     0.10E+00  116.2     0.00028736       -75.2576629834 -3.83E-04
 SKALA_GPW| Atom-composite cross support/maxima   2.607069088142E+00   5.909717254273E-02   1.869611678534E-01   1.150068360735E+00
 SKALA_GPW| Active atom-composite XC energy  -2.4983103640302531E+01
 SKALA_GPW| Active atom-composite electrons   6.0000101753217280E+01
 SKALA_GPW| Active atom-composite density range  -1.4197376126804643E-09   2.0027730347470160E-01
 SKALA_GPW| Active atom-composite tau range  -6.9368550132933471E-09   1.9446894558644701E+00
 SKALA_GPW| Active atom-composite tau integral   5.8402200507779988E+01
 SKALA_GPW| Active atom-composite max gradient   4.0952804331531090E-01
    22 OT DIIS     0.10E+00  116.4     0.00023551       -75.2579004819 -2.37E-04
 SKALA_GPW| Atom-composite cross support/maxima   2.607069088142E+00   5.908897514123E-02   1.867445513602E-01   1.149799130692E+00
 SKALA_GPW| Active atom-composite XC energy  -2.4982860439300179E+01
 SKALA_GPW| Active atom-composite electrons   6.0000101795407318E+01
 SKALA_GPW| Active atom-composite density range  -1.4206294856453607E-09   2.0026883622933545E-01
 SKALA_GPW| Active atom-composite tau range  -6.9438268522876807E-09   1.9440676563293509E+00
 SKALA_GPW| Active atom-composite tau integral   5.8400755929925005E+01
 SKALA_GPW| Active atom-composite max gradient   4.0910145209606352E-01
    23 OT DIIS     0.10E+00  116.2     0.00019780       -75.2580813988 -1.81E-04
 SKALA_GPW| Atom-composite cross support/maxima   2.607069088142E+00   5.908158105071E-02   1.867099674928E-01   1.149452307399E+00
 SKALA_GPW| Active atom-composite XC energy  -2.4982763935066693E+01
 SKALA_GPW| Active atom-composite electrons   6.0000101826924414E+01
 SKALA_GPW| Active atom-composite density range  -1.4222106327303783E-09   2.0023638116534753E-01
 SKALA_GPW| Active atom-composite tau range  -6.9526691479674004E-09   1.9442829520136993E+00
 SKALA_GPW| Active atom-composite tau integral   5.8400617054231020E+01
 SKALA_GPW| Active atom-composite max gradient   4.0864340532415538E-01
    24 OT DIIS     0.10E+00  116.0     0.00016690       -75.2582465836 -1.65E-04
 SKALA_GPW| Atom-composite cross support/maxima   2.607069088142E+00   5.907713084377E-02   1.865292991582E-01   1.149785734104E+00
 SKALA_GPW| Active atom-composite XC energy  -2.4982637017706239E+01
 SKALA_GPW| Active atom-composite electrons   6.0000101823052930E+01
 SKALA_GPW| Active atom-composite density range  -1.4223784053141574E-09   2.0024095046441839E-01
 SKALA_GPW| Active atom-composite tau range  -6.9516801610803240E-09   1.9437876823333253E+00
 SKALA_GPW| Active atom-composite tau integral   5.8400082270474059E+01
 SKALA_GPW| Active atom-composite max gradient   4.0841528933504712E-01
    25 OT DIIS     0.10E+00  115.8     0.00014256       -75.2583630047 -1.16E-04
 SKALA_GPW| Atom-composite cross support/maxima   2.607069088142E+00   5.907560317791E-02   1.865541647237E-01   1.149511478383E+00
 SKALA_GPW| Active atom-composite XC energy  -2.4982968511144392E+01
 SKALA_GPW| Active atom-composite electrons   6.0000101808461153E+01
 SKALA_GPW| Active atom-composite density range  -1.4225837953841947E-09   2.0023542163200858E-01
 SKALA_GPW| Active atom-composite tau range  -6.9514600132870228E-09   1.9438149052544720E+00
 SKALA_GPW| Active atom-composite tau integral   5.8401759361320217E+01
 SKALA_GPW| Active atom-composite max gradient   4.0851483062755745E-01
    26 OT DIIS     0.10E+00  116.4     0.00011766       -75.2584992145 -1.36E-04
 SKALA_GPW| Atom-composite cross support/maxima   2.607069088142E+00   5.906545861852E-02   1.864519411463E-01   1.149638621455E+00
 SKALA_GPW| Active atom-composite XC energy  -2.4983050156229584E+01
 SKALA_GPW| Active atom-composite electrons   6.0000101793231671E+01
 SKALA_GPW| Active atom-composite density range  -1.4226579292810554E-09   2.0022929429752792E-01
 SKALA_GPW| Active atom-composite tau range  -6.9477828714781928E-09   1.9436043560063612E+00
 SKALA_GPW| Active atom-composite tau integral   5.8401922186537838E+01
 SKALA_GPW| Active atom-composite max gradient   4.0869069832559840E-01
    27 OT DIIS     0.10E+00  116.1     0.00009612       -75.2585962409 -9.70E-05
 SKALA_GPW| Atom-composite cross support/maxima   2.607069088142E+00   5.905532529663E-02   1.865414022827E-01   1.149683334525E+00
 SKALA_GPW| Active atom-composite XC energy  -2.4983188179412121E+01
 SKALA_GPW| Active atom-composite electrons   6.0000101783725178E+01
 SKALA_GPW| Active atom-composite density range  -1.4222918976698606E-09   2.0021111506795050E-01
 SKALA_GPW| Active atom-composite tau range  -6.9457504596626752E-09   1.9433997478833900E+00
 SKALA_GPW| Active atom-composite tau integral   5.8402401720772978E+01
 SKALA_GPW| Active atom-composite max gradient   4.0880113475203467E-01
    28 OT DIIS     0.10E+00  116.5     0.00008367       -75.2586442038 -4.80E-05
 SKALA_GPW| Atom-composite cross support/maxima   2.607069088142E+00   5.905214808548E-02   1.865078851173E-01   1.149602644406E+00
 SKALA_GPW| Active atom-composite XC energy  -2.4983140088263362E+01
 SKALA_GPW| Active atom-composite electrons   6.0000101780893615E+01
 SKALA_GPW| Active atom-composite density range  -1.4217154222359732E-09   2.0020974425742855E-01
 SKALA_GPW| Active atom-composite tau range  -6.9461523118181109E-09   1.9431739722662398E+00
 SKALA_GPW| Active atom-composite tau integral   5.8401886160622588E+01
 SKALA_GPW| Active atom-composite max gradient   4.0888354441180730E-01
    29 OT DIIS     0.10E+00  116.9     0.00007221       -75.2586896386 -4.54E-05
 SKALA_GPW| Atom-composite cross support/maxima   2.607069088142E+00   5.904238199383E-02   1.865469695458E-01   1.149553675535E+00
 SKALA_GPW| Active atom-composite XC energy  -2.4983136852694436E+01
 SKALA_GPW| Active atom-composite electrons   6.0000101779993841E+01
 SKALA_GPW| Active atom-composite density range  -1.4207830251015468E-09   2.0020745835964920E-01
 SKALA_GPW| Active atom-composite tau range  -6.9462384596662222E-09   1.9431924168393651E+00
 SKALA_GPW| Active atom-composite tau integral   5.8401759079628199E+01
 SKALA_GPW| Active atom-composite max gradient   4.0891025866664249E-01
    30 OT DIIS     0.10E+00  116.6     0.00006363       -75.2587219589 -3.23E-05
 SKALA_GPW| Atom-composite cross support/maxima   2.607069088142E+00   5.904004817011E-02   1.865471817454E-01   1.149581219618E+00
 SKALA_GPW| Active atom-composite XC energy  -2.4983106792500759E+01
 SKALA_GPW| Active atom-composite electrons   6.0000101780365817E+01
 SKALA_GPW| Active atom-composite density range  -1.4200450676111518E-09   2.0020667155635058E-01
 SKALA_GPW| Active atom-composite tau range  -6.9478330814787082E-09   1.9430800975318934E+00
 SKALA_GPW| Active atom-composite tau integral   5.8401619198821408E+01
 SKALA_GPW| Active atom-composite max gradient   4.0899884097754657E-01
    31 OT DIIS     0.10E+00  116.6     0.00005889       -75.2587417049 -1.97E-05
 SKALA_GPW| Atom-composite cross support/maxima   2.607069088142E+00   5.903764634127E-02   1.865300160678E-01   1.149489467383E+00
 SKALA_GPW| Active atom-composite XC energy  -2.4983132622363939E+01
 SKALA_GPW| Active atom-composite electrons   6.0000101778033944E+01
 SKALA_GPW| Active atom-composite density range  -1.4192095508648946E-09   2.0021601007516357E-01
 SKALA_GPW| Active atom-composite tau range  -6.9487723649528233E-09   1.9430837740174658E+00
 SKALA_GPW| Active atom-composite tau integral   5.8401813025914592E+01
 SKALA_GPW| Active atom-composite max gradient   4.0899054876754098E-01
    32 OT DIIS     0.10E+00  116.3     0.00005305       -75.2587635228 -2.18E-05
 SKALA_GPW| Atom-composite cross support/maxima   2.607069088142E+00   5.903461618503E-02   1.865527548102E-01   1.149364162684E+00
 SKALA_GPW| Active atom-composite XC energy  -2.4983216221268613E+01
 SKALA_GPW| Active atom-composite electrons   6.0000101779462753E+01
 SKALA_GPW| Active atom-composite density range  -1.4184688591382921E-09   2.0022040626045420E-01
 SKALA_GPW| Active atom-composite tau range  -6.9490537192949858E-09   1.9433165430528154E+00
 SKALA_GPW| Active atom-composite tau integral   5.8402378876701540E+01
 SKALA_GPW| Active atom-composite max gradient   4.0904224881350632E-01
    33 OT DIIS     0.10E+00  116.2     0.00004627       -75.2587869509 -2.34E-05
 SKALA_GPW| Atom-composite cross support/maxima   2.607069088142E+00   5.902933681850E-02   1.865123907074E-01   1.149471056356E+00
 SKALA_GPW| Active atom-composite XC energy  -2.4983230626605817E+01
 SKALA_GPW| Active atom-composite electrons   6.0000101776435685E+01
 SKALA_GPW| Active atom-composite density range  -1.4179377051870121E-09   2.0022712162859660E-01
 SKALA_GPW| Active atom-composite tau range  -6.9489487836402999E-09   1.9432442269528727E+00
 SKALA_GPW| Active atom-composite tau integral   5.8402505255355507E+01
 SKALA_GPW| Active atom-composite max gradient   4.0912573897390903E-01
    34 OT DIIS     0.10E+00  116.7     0.00003906       -75.2588074823 -2.05E-05
 SKALA_GPW| Atom-composite cross support/maxima   2.607069088142E+00   5.902549913300E-02   1.865434696208E-01   1.149244282246E+00
 SKALA_GPW| Active atom-composite XC energy  -2.4983352598921794E+01
 SKALA_GPW| Active atom-composite electrons   6.0000101772613036E+01
 SKALA_GPW| Active atom-composite density range  -1.4176782553778309E-09   2.0023207984225683E-01
 SKALA_GPW| Active atom-composite tau range  -6.9481503430311609E-09   1.9435515794637612E+00
 SKALA_GPW| Active atom-composite tau integral   5.8403238634398122E+01
 SKALA_GPW| Active atom-composite max gradient   4.0912465067161136E-01
    35 OT DIIS     0.10E+00  116.0     0.00002991       -75.2588254730 -1.80E-05
 SKALA_GPW| Atom-composite cross support/maxima   2.607069088142E+00   5.902097287846E-02   1.865271026225E-01   1.149303951911E+00
 SKALA_GPW| Active atom-composite XC energy  -2.4983384967719942E+01
 SKALA_GPW| Active atom-composite electrons   6.0000101767909307E+01
 SKALA_GPW| Active atom-composite density range  -1.4175529431157340E-09   2.0023336618101265E-01
 SKALA_GPW| Active atom-composite tau range  -6.9468472925103860E-09   1.9435305319804188E+00
 SKALA_GPW| Active atom-composite tau integral   5.8403503264786536E+01
 SKALA_GPW| Active atom-composite max gradient   4.0918987286656666E-01
    36 OT DIIS     0.10E+00  116.1     0.00002223       -75.2588366191 -1.11E-05
 SKALA_GPW| Atom-composite cross support/maxima   2.607069088142E+00   5.901560786436E-02   1.865583450129E-01   1.149295449221E+00
 SKALA_GPW| Active atom-composite XC energy  -2.4983416394373506E+01
 SKALA_GPW| Active atom-composite electrons   6.0000101762762313E+01
 SKALA_GPW| Active atom-composite density range  -1.4175467368989721E-09   2.0023165313206542E-01
 SKALA_GPW| Active atom-composite tau range  -6.9460805132078640E-09   1.9436472843578287E+00
 SKALA_GPW| Active atom-composite tau integral   5.8403707986783481E+01
 SKALA_GPW| Active atom-composite max gradient   4.0918555170630383E-01
    37 OT DIIS     0.10E+00  116.5     0.00001600       -75.2588404424 -3.82E-06
 SKALA_GPW| Atom-composite cross support/maxima   2.607069088142E+00   5.901479115376E-02   1.865619123742E-01   1.149284783044E+00
 SKALA_GPW| Active atom-composite XC energy  -2.4983415093999483E+01
 SKALA_GPW| Active atom-composite electrons   6.0000101758073811E+01
 SKALA_GPW| Active atom-composite density range  -1.4174400600892051E-09   2.0023092355405325E-01
 SKALA_GPW| Active atom-composite tau range  -6.9458416973053928E-09   1.9435964169591369E+00
 SKALA_GPW| Active atom-composite tau integral   5.8403787206791769E+01
 SKALA_GPW| Active atom-composite max gradient   4.0918792497768108E-01
    38 OT DIIS     0.10E+00  116.3     0.00001179       -75.2588421892 -1.75E-06
 SKALA_GPW| Atom-composite cross support/maxima   2.607069088142E+00   5.901317895811E-02   1.865771194207E-01   1.149312316040E+00
 SKALA_GPW| Active atom-composite XC energy  -2.4983427865749359E+01
 SKALA_GPW| Active atom-composite electrons   6.0000101754239253E+01
 SKALA_GPW| Active atom-composite density range  -1.4173407284911483E-09   2.0022965530736542E-01
 SKALA_GPW| Active atom-composite tau range  -6.9450074913436527E-09   1.9436258773782791E+00
 SKALA_GPW| Active atom-composite tau integral   5.8403933576908514E+01
 SKALA_GPW| Active atom-composite max gradient   4.0916748234232458E-01
    39 OT DIIS     0.10E+00  116.0     0.00000882       -75.2588429915 -8.02E-07
 SKALA_GPW| Atom-composite cross support/maxima   2.607069088142E+00   5.901280889629E-02   1.865860275838E-01   1.149344322333E+00
 SKALA_GPW| Active atom-composite XC energy  -2.4983423269601857E+01
 SKALA_GPW| Active atom-composite electrons   6.0000101753086028E+01
 SKALA_GPW| Active atom-composite density range  -1.4172352054804044E-09   2.0022778602492636E-01
 SKALA_GPW| Active atom-composite tau range  -6.9447226941514819E-09   1.9436325771564122E+00
 SKALA_GPW| Active atom-composite tau integral   5.8403943579633470E+01
 SKALA_GPW| Active atom-composite max gradient   4.0917702492375774E-01
    40 OT DIIS     0.10E+00  116.0     0.00000673       -75.2588432523 -2.61E-07
 SKALA_GPW| Atom-composite cross support/maxima   2.607069088142E+00   5.901274680562E-02   1.865840463410E-01   1.149356996480E+00
 SKALA_GPW| Active atom-composite XC energy  -2.4983422903126666E+01
 SKALA_GPW| Active atom-composite electrons   6.0000101751784143E+01
 SKALA_GPW| Active atom-composite density range  -1.4171255901980116E-09   2.0022837786655032E-01
 SKALA_GPW| Active atom-composite tau range  -6.9443736198993500E-09   1.9436170753273962E+00
 SKALA_GPW| Active atom-composite tau integral   5.8403975559041719E+01
 SKALA_GPW| Active atom-composite max gradient   4.0916407756376011E-01
    41 OT DIIS     0.10E+00  115.9     0.00000530       -75.2588434055 -1.53E-07
 SKALA_GPW| Atom-composite cross support/maxima   2.607069088142E+00   5.901309935438E-02   1.865914307345E-01   1.149344037620E+00
 SKALA_GPW| Active atom-composite XC energy  -2.4983433308808397E+01
 SKALA_GPW| Active atom-composite electrons   6.0000101752058889E+01
 SKALA_GPW| Active atom-composite density range  -1.4170285289955065E-09   2.0022812231970527E-01
 SKALA_GPW| Active atom-composite tau range  -6.9440543720681712E-09   1.9436480959445188E+00
 SKALA_GPW| Active atom-composite tau integral   5.8404046105455933E+01
 SKALA_GPW| Active atom-composite max gradient   4.0915501203871624E-01
    42 OT DIIS     0.10E+00  115.9     0.00000441       -75.2588434858 -8.03E-08
 SKALA_GPW| Atom-composite cross support/maxima   2.607069088142E+00   5.901330006149E-02   1.865885286811E-01   1.149374133765E+00
 SKALA_GPW| Active atom-composite XC energy  -2.4983430259832286E+01
 SKALA_GPW| Active atom-composite electrons   6.0000101752433018E+01
 SKALA_GPW| Active atom-composite density range  -1.4169318582960907E-09   2.0022823413445270E-01
 SKALA_GPW| Active atom-composite tau range  -6.9438605405714995E-09   1.9436456125684887E+00
 SKALA_GPW| Active atom-composite tau integral   5.8404029709878273E+01
 SKALA_GPW| Active atom-composite max gradient   4.0915681955808686E-01
    43 OT DIIS     0.10E+00  116.2     0.00000370       -75.2588435372 -5.14E-08
 SKALA_GPW| Atom-composite cross support/maxima   2.607069088142E+00   5.901327357471E-02   1.865902572648E-01   1.149356740673E+00
 SKALA_GPW| Active atom-composite XC energy  -2.4983432121611646E+01
 SKALA_GPW| Active atom-composite electrons   6.0000101752770306E+01
 SKALA_GPW| Active atom-composite density range  -1.4168602051485447E-09   2.0022863035000665E-01
 SKALA_GPW| Active atom-composite tau range  -6.9437715314953071E-09   1.9436342124142842E+00
 SKALA_GPW| Active atom-composite tau integral   5.8404031053549389E+01
 SKALA_GPW| Active atom-composite max gradient   4.0914818722540186E-01
    44 OT DIIS     0.10E+00  116.4     0.00000326       -75.2588435721 -3.48E-08
 SKALA_GPW| Atom-composite cross support/maxima   2.607069088142E+00   5.901359326106E-02   1.865887529992E-01   1.149358246990E+00
 SKALA_GPW| Active atom-composite XC energy  -2.4983432264602150E+01
 SKALA_GPW| Active atom-composite electrons   6.0000101753186421E+01
 SKALA_GPW| Active atom-composite density range  -1.4167994651387911E-09   2.0022885905221235E-01
 SKALA_GPW| Active atom-composite tau range  -6.9437145432216759E-09   1.9436383933786399E+00
 SKALA_GPW| Active atom-composite tau integral   5.8404025913745556E+01
 SKALA_GPW| Active atom-composite max gradient   4.0914700433347811E-01
    45 OT DIIS     0.10E+00  116.2     0.00000294       -75.2588436070 -3.49E-08
 SKALA_GPW| Atom-composite cross support/maxima   2.607069088142E+00   5.901350970029E-02   1.865891399861E-01   1.149355400608E+00
 SKALA_GPW| Active atom-composite XC energy  -2.4983431737212044E+01
 SKALA_GPW| Active atom-composite electrons   6.0000101753557310E+01
 SKALA_GPW| Active atom-composite density range  -1.4167531284695246E-09   2.0022899857253976E-01
 SKALA_GPW| Active atom-composite tau range  -6.9436789240719396E-09   1.9436358974976218E+00
 SKALA_GPW| Active atom-composite tau integral   5.8404006111553670E+01
 SKALA_GPW| Active atom-composite max gradient   4.0914474575437804E-01
    46 OT DIIS     0.10E+00  116.2     0.00000266       -75.2588436423 -3.54E-08
 SKALA_GPW| Atom-composite cross support/maxima   2.607069088142E+00   5.901349779033E-02   1.865878724917E-01   1.149347399744E+00
 SKALA_GPW| Active atom-composite XC energy  -2.4983429084160981E+01
 SKALA_GPW| Active atom-composite electrons   6.0000101753679282E+01
 SKALA_GPW| Active atom-composite density range  -1.4167177621217402E-09   2.0022913958655639E-01
 SKALA_GPW| Active atom-composite tau range  -6.9436999187334607E-09   1.9436249795945666E+00
 SKALA_GPW| Active atom-composite tau integral   5.8403980824769306E+01
 SKALA_GPW| Active atom-composite max gradient   4.0914352938743176E-01
    47 OT DIIS     0.10E+00  116.2     0.00000244       -75.2588436608 -1.85E-08
 SKALA_GPW| Atom-composite cross support/maxima   2.607069088142E+00   5.901344028545E-02   1.865874464139E-01   1.149341350624E+00
 SKALA_GPW| Active atom-composite XC energy  -2.4983429550012367E+01
 SKALA_GPW| Active atom-composite electrons   6.0000101753594812E+01
 SKALA_GPW| Active atom-composite density range  -1.4167026190820824E-09   2.0022923198506024E-01
 SKALA_GPW| Active atom-composite tau range  -6.9436826760665528E-09   1.9436261966591946E+00
 SKALA_GPW| Active atom-composite tau integral   5.8403977532514688E+01
 SKALA_GPW| Active atom-composite max gradient   4.0914106859322086E-01
    48 OT DIIS     0.10E+00  116.1     0.00000228       -75.2588436842 -2.34E-08
 SKALA_GPW| Atom-composite cross support/maxima   2.607069088142E+00   5.901339217981E-02   1.865882567519E-01   1.149337920419E+00
 SKALA_GPW| Active atom-composite XC energy  -2.4983429436016785E+01
 SKALA_GPW| Active atom-composite electrons   6.0000101753524973E+01
 SKALA_GPW| Active atom-composite density range  -1.4166917562644314E-09   2.0022893207582618E-01
 SKALA_GPW| Active atom-composite tau range  -6.9436712982498879E-09   1.9436280721122237E+00
 SKALA_GPW| Active atom-composite tau integral   5.8403969576847842E+01
 SKALA_GPW| Active atom-composite max gradient   4.0914268729491521E-01
    49 OT DIIS     0.10E+00  116.3     0.00000208       -75.2588437119 -2.77E-08
 SKALA_GPW| Atom-composite cross support/maxima   2.607069088142E+00   5.901323137736E-02   1.865867346257E-01   1.149337286589E+00
 SKALA_GPW| Active atom-composite XC energy  -2.4983427545277557E+01
 SKALA_GPW| Active atom-composite electrons   6.0000101753175528E+01
 SKALA_GPW| Active atom-composite density range  -1.4166858176717281E-09   2.0022882249406415E-01
 SKALA_GPW| Active atom-composite tau range  -6.9436610467711686E-09   1.9436220324977453E+00
 SKALA_GPW| Active atom-composite tau integral   5.8403955127936015E+01
 SKALA_GPW| Active atom-composite max gradient   4.0914364654974256E-01
    50 OT DIIS     0.10E+00  116.2     0.00000187       -75.2588437413 -2.94E-08
 SKALA_GPW| Atom-composite cross support/maxima   2.607069088142E+00   5.901315935071E-02   1.865884125058E-01   1.149325712310E+00
 SKALA_GPW| Active atom-composite XC energy  -2.4983429823553720E+01
 SKALA_GPW| Active atom-composite electrons   6.0000101752906630E+01
 SKALA_GPW| Active atom-composite density range  -1.4166843922020961E-09   2.0022855794806230E-01
 SKALA_GPW| Active atom-composite tau range  -6.9436297559209268E-09   1.9436264748488026E+00
 SKALA_GPW| Active atom-composite tau integral   5.8403967223455851E+01
 SKALA_GPW| Active atom-composite max gradient   4.0914238629606536E-01
    51 OT DIIS     0.10E+00  116.1     0.00000168       -75.2588437632 -2.19E-08
 SKALA_GPW| Atom-composite cross support/maxima   2.607069088142E+00   5.901317460571E-02   1.865886991594E-01   1.149332173526E+00
 SKALA_GPW| Active atom-composite XC energy  -2.4983430602813119E+01
 SKALA_GPW| Active atom-composite electrons   6.0000101752687783E+01
 SKALA_GPW| Active atom-composite density range  -1.4166813443506105E-09   2.0022822698344778E-01
 SKALA_GPW| Active atom-composite tau range  -6.9435971317632059E-09   1.9436314777999548E+00
 SKALA_GPW| Active atom-composite tau integral   5.8403973099225226E+01
 SKALA_GPW| Active atom-composite max gradient   4.0914635533821725E-01
    52 OT DIIS     0.10E+00  116.5     0.00000151       -75.2588437824 -1.92E-08
 SKALA_GPW| Atom-composite cross support/maxima   2.607069088142E+00   5.901305395912E-02   1.865898058244E-01   1.149328626527E+00
 SKALA_GPW| Active atom-composite XC energy  -2.4983431159115117E+01
 SKALA_GPW| Active atom-composite electrons   6.0000101752548773E+01
 SKALA_GPW| Active atom-composite density range  -1.4166765432770290E-09   2.0022812000053139E-01
 SKALA_GPW| Active atom-composite tau range  -6.9435714093180141E-09   1.9436307544179541E+00
 SKALA_GPW| Active atom-composite tau integral   5.8403975507761523E+01
 SKALA_GPW| Active atom-composite max gradient   4.0914618973128491E-01
    53 OT DIIS     0.10E+00  115.9     0.00000136       -75.2588437979 -1.55E-08
 SKALA_GPW| Atom-composite cross support/maxima   2.607069088142E+00   5.901307908976E-02   1.865902988359E-01   1.149328113840E+00
 SKALA_GPW| Active atom-composite XC energy  -2.4983431981398880E+01
 SKALA_GPW| Active atom-composite electrons   6.0000101752492334E+01
 SKALA_GPW| Active atom-composite density range  -1.4166705601755288E-09   2.0022804358800592E-01
 SKALA_GPW| Active atom-composite tau range  -6.9435630532848456E-09   1.9436328963038609E+00
 SKALA_GPW| Active atom-composite tau integral   5.8403984144997438E+01
 SKALA_GPW| Active atom-composite max gradient   4.0914739176098863E-01
    54 OT DIIS     0.10E+00  116.2     0.00000124       -75.2588438113 -1.34E-08
 SKALA_GPW| Atom-composite cross support/maxima   2.607069088142E+00   5.901305600248E-02   1.865914072319E-01   1.149330461450E+00
 SKALA_GPW| Active atom-composite XC energy  -2.4983433094753135E+01
 SKALA_GPW| Active atom-composite electrons   6.0000101752538740E+01
 SKALA_GPW| Active atom-composite density range  -1.4166631316282017E-09   2.0022800551310480E-01
 SKALA_GPW| Active atom-composite tau range  -6.9435440373344862E-09   1.9436367708942996E+00
 SKALA_GPW| Active atom-composite tau integral   5.8403991662816523E+01
 SKALA_GPW| Active atom-composite max gradient   4.0914799705143784E-01
    55 OT DIIS     0.10E+00  116.2     0.00000114       -75.2588438234 -1.21E-08
 SKALA_GPW| Atom-composite cross support/maxima   2.607069088142E+00   5.901303361761E-02   1.865916611202E-01   1.149331526530E+00
 SKALA_GPW| Active atom-composite XC energy  -2.4983432603509268E+01
 SKALA_GPW| Active atom-composite electrons   6.0000101752667710E+01
 SKALA_GPW| Active atom-composite density range  -1.4166552850636070E-09   2.0022804401836602E-01
 SKALA_GPW| Active atom-composite tau range  -6.9435521122160716E-09   1.9436354883782618E+00
 SKALA_GPW| Active atom-composite tau integral   5.8403989771659894E+01
 SKALA_GPW| Active atom-composite max gradient   4.0914888268899807E-01
    56 OT DIIS     0.10E+00  116.1     0.00000106       -75.2588438326 -9.20E-09
 SKALA_GPW| Atom-composite cross support/maxima   2.607069088142E+00   5.901297142757E-02   1.865914091169E-01   1.149331451106E+00
 SKALA_GPW| Active atom-composite XC energy  -2.4983432603923450E+01
 SKALA_GPW| Active atom-composite electrons   6.0000101752748051E+01
 SKALA_GPW| Active atom-composite density range  -1.4166481441887585E-09   2.0022820538297267E-01
 SKALA_GPW| Active atom-composite tau range  -6.9435535200219315E-09   1.9436350336296564E+00
 SKALA_GPW| Active atom-composite tau integral   5.8403992461746263E+01
 SKALA_GPW| Active atom-composite max gradient   4.0914785451356439E-01
    57 OT DIIS     0.10E+00  116.2     0.00000097       -75.2588438446 -1.20E-08
 SKALA_GPW| Atom-composite cross support/maxima   2.607069088142E+00   5.901294395296E-02   1.865920950910E-01   1.149331179839E+00
 SKALA_GPW| Active atom-composite XC energy  -2.4983433405227977E+01
 SKALA_GPW| Active atom-composite electrons   6.0000101752885257E+01
 SKALA_GPW| Active atom-composite density range  -1.4166416780254562E-09   2.0022818620885491E-01
 SKALA_GPW| Active atom-composite tau range  -6.9435501451071288E-09   1.9436372342855410E+00
 SKALA_GPW| Active atom-composite tau integral   5.8403998854020763E+01
 SKALA_GPW| Active atom-composite max gradient   4.0914776664891461E-01
    58 OT DIIS     0.10E+00  116.0     0.00000089       -75.2588438492 -4.61E-09
 SKALA_GPW| Atom-composite cross support/maxima   2.607069088142E+00   5.901288364798E-02   1.865913010293E-01   1.149334864007E+00
 SKALA_GPW| Active atom-composite XC energy  -2.4983432727049468E+01
 SKALA_GPW| Active atom-composite electrons   6.0000101752946946E+01
 SKALA_GPW| Active atom-composite density range  -1.4166368149103336E-09   2.0022822376142613E-01
 SKALA_GPW| Active atom-composite tau range  -6.9435528038053929E-09   1.9436353484501425E+00
 SKALA_GPW| Active atom-composite tau integral   5.8403996060116121E+01
 SKALA_GPW| Active atom-composite max gradient   4.0914843985249172E-01
    59 OT DIIS     0.10E+00  116.3     0.00000083       -75.2588438527 -3.46E-09
 SKALA_GPW| Atom-composite cross support/maxima   2.607069088142E+00   5.901278459711E-02   1.865911296326E-01   1.149331396869E+00
 SKALA_GPW| Active atom-composite XC energy  -2.4983432974895315E+01
 SKALA_GPW| Active atom-composite electrons   6.0000101752975382E+01
 SKALA_GPW| Active atom-composite density range  -1.4166324454298135E-09   2.0022825259429647E-01
 SKALA_GPW| Active atom-composite tau range  -6.9435477617783569E-09   1.9436345373184267E+00
 SKALA_GPW| Active atom-composite tau integral   5.8403998437440649E+01
 SKALA_GPW| Active atom-composite max gradient   4.0914703001911767E-01
    60 OT DIIS     0.10E+00  116.4     0.00000077       -75.2588438560 -3.34E-09
 SKALA_GPW| Atom-composite cross support/maxima   2.607069088142E+00   5.901275553000E-02   1.865907957699E-01   1.149332923320E+00
 SKALA_GPW| Active atom-composite XC energy  -2.4983433244666781E+01
 SKALA_GPW| Active atom-composite electrons   6.0000101752958514E+01
 SKALA_GPW| Active atom-composite density range  -1.4166275040878535E-09   2.0022815617802259E-01
 SKALA_GPW| Active atom-composite tau range  -6.9435412639839450E-09   1.9436351364812872E+00
 SKALA_GPW| Active atom-composite tau integral   5.8404001323034244E+01
 SKALA_GPW| Active atom-composite max gradient   4.0914780497116582E-01
    61 OT DIIS     0.10E+00  116.1     0.00000072       -75.2588438664 -1.04E-08
 SKALA_GPW| Atom-composite cross support/maxima   2.607069088142E+00   5.901269124147E-02   1.865907295464E-01   1.149333064126E+00
 SKALA_GPW| Active atom-composite XC energy  -2.4983433394259016E+01
 SKALA_GPW| Active atom-composite electrons   6.0000101752917182E+01
 SKALA_GPW| Active atom-composite density range  -1.4166231426730705E-09   2.0022808472817852E-01
 SKALA_GPW| Active atom-composite tau range  -6.9435287370845081E-09   1.9436345857707735E+00
 SKALA_GPW| Active atom-composite tau integral   5.8404001506605347E+01
 SKALA_GPW| Active atom-composite max gradient   4.0914799951031189E-01
    62 OT DIIS     0.10E+00  116.2     0.00000068       -75.2588438726 -6.19E-09
 SKALA_GPW| Atom-composite cross support/maxima   2.607069088142E+00   5.901265573044E-02   1.865903964308E-01   1.149331979924E+00
 SKALA_GPW| Active atom-composite XC energy  -2.4983433229906659E+01
 SKALA_GPW| Active atom-composite electrons   6.0000101752865390E+01
 SKALA_GPW| Active atom-composite density range  -1.4166185025285488E-09   2.0022802176944085E-01
 SKALA_GPW| Active atom-composite tau range  -6.9435230996222483E-09   1.9436336544898629E+00
 SKALA_GPW| Active atom-composite tau integral   5.8404000596277804E+01
 SKALA_GPW| Active atom-composite max gradient   4.0914836707303620E-01
    63 OT DIIS     0.10E+00  116.2     0.00000065       -75.2588438672  5.42E-09
 SKALA_GPW| Atom-composite cross support/maxima   2.607069088142E+00   5.901262211337E-02   1.865905331834E-01   1.149331723297E+00
 SKALA_GPW| Active atom-composite XC energy  -2.4983433582469072E+01
 SKALA_GPW| Active atom-composite electrons   6.0000101752802735E+01
 SKALA_GPW| Active atom-composite density range  -1.4166130006441934E-09   2.0022792857935048E-01
 SKALA_GPW| Active atom-composite tau range  -6.9435085732668896E-09   1.9436344146826152E+00
 SKALA_GPW| Active atom-composite tau integral   5.8404002691509092E+01
 SKALA_GPW| Active atom-composite max gradient   4.0914879924259584E-01
    64 OT DIIS     0.10E+00  116.1     0.00000062       -75.2588438703 -3.06E-09
 SKALA_GPW| Atom-composite cross support/maxima   2.607069088142E+00   5.901261795268E-02   1.865907815816E-01   1.149332005079E+00
 SKALA_GPW| Active atom-composite XC energy  -2.4983433616998823E+01
 SKALA_GPW| Active atom-composite electrons   6.0000101752783664E+01
 SKALA_GPW| Active atom-composite density range  -1.4166082838215053E-09   2.0022781871786569E-01
 SKALA_GPW| Active atom-composite tau range  -6.9434992651249355E-09   1.9436343525522488E+00
 SKALA_GPW| Active atom-composite tau integral   5.8404002321051244E+01
 SKALA_GPW| Active atom-composite max gradient   4.0914988723141149E-01
    65 OT DIIS     0.10E+00  116.3     0.00000060       -75.2588438682  2.10E-09
 SKALA_GPW| Atom-composite cross support/maxima   2.607069088142E+00   5.901259957681E-02   1.865906230899E-01   1.149332284542E+00
 SKALA_GPW| Active atom-composite XC energy  -2.4983433268703411E+01
 SKALA_GPW| Active atom-composite electrons   6.0000101752764145E+01
 SKALA_GPW| Active atom-composite density range  -1.4166040497638986E-09   2.0022778885376150E-01
 SKALA_GPW| Active atom-composite tau range  -6.9434930436535474E-09   1.9436335859436245E+00
 SKALA_GPW| Active atom-composite tau integral   5.8404000230118697E+01
 SKALA_GPW| Active atom-composite max gradient   4.0915053830790338E-01
    66 OT DIIS     0.10E+00  116.2     0.00000057       -75.2588438771 -8.92E-09
 SKALA_GPW| Atom-composite cross support/maxima   2.607069088142E+00   5.901259583315E-02   1.865911110453E-01   1.149330968008E+00
 SKALA_GPW| Active atom-composite XC energy  -2.4983433507004545E+01
 SKALA_GPW| Active atom-composite electrons   6.0000101752794158E+01
 SKALA_GPW| Active atom-composite density range  -1.4166011980708593E-09   2.0022771998073588E-01
 SKALA_GPW| Active atom-composite tau range  -6.9434875144093320E-09   1.9436345366439900E+00
 SKALA_GPW| Active atom-composite tau integral   5.8404002032704369E+01
 SKALA_GPW| Active atom-composite max gradient   4.0915087468054584E-01
    67 OT DIIS     0.10E+00  116.2     0.00000055       -75.2588438806 -3.56E-09
 SKALA_GPW| Atom-composite cross support/maxima   2.607069088142E+00   5.901261325546E-02   1.865912151916E-01   1.149333159464E+00
 SKALA_GPW| Active atom-composite XC energy  -2.4983433229416995E+01
 SKALA_GPW| Active atom-composite electrons   6.0000101752841779E+01
 SKALA_GPW| Active atom-composite density range  -1.4165992530218984E-09   2.0022764742484953E-01
 SKALA_GPW| Active atom-composite tau range  -6.9434880658232014E-09   1.9436344760745661E+00
 SKALA_GPW| Active atom-composite tau integral   5.8404000932919374E+01
 SKALA_GPW| Active atom-composite max gradient   4.0915221413929681E-01
    68 OT DIIS     0.10E+00  116.2     0.00000052       -75.2588438842 -3.52E-09
 SKALA_GPW| Atom-composite cross support/maxima   2.607069088142E+00   5.901260330432E-02   1.865913844886E-01   1.149332596688E+00
 SKALA_GPW| Active atom-composite XC energy  -2.4983433008950755E+01
 SKALA_GPW| Active atom-composite electrons   6.0000101752917246E+01
 SKALA_GPW| Active atom-composite density range  -1.4165995265376997E-09   2.0022763279939598E-01
 SKALA_GPW| Active atom-composite tau range  -6.9434926860980151E-09   1.9436339907914144E+00
 SKALA_GPW| Active atom-composite tau integral   5.8403999681340380E+01
 SKALA_GPW| Active atom-composite max gradient   4.0915226090863854E-01
    69 OT DIIS     0.10E+00  116.2     0.00000050       -75.2588438933 -9.13E-09
 SKALA_GPW| Atom-composite cross support/maxima   2.607069088142E+00   5.901260882543E-02   1.865914056588E-01   1.149333000279E+00
 SKALA_GPW| Active atom-composite XC energy  -2.4983432776895963E+01
 SKALA_GPW| Active atom-composite electrons   6.0000101753016416E+01
 SKALA_GPW| Active atom-composite density range  -1.4166006655339091E-09   2.0022758321772810E-01
 SKALA_GPW| Active atom-composite tau range  -6.9435051301394781E-09   1.9436342708281784E+00
 SKALA_GPW| Active atom-composite tau integral   5.8403999490895231E+01
 SKALA_GPW| Active atom-composite max gradient   4.0915270108079016E-01
    70 OT DIIS     0.10E+00  116.4     0.00000047       -75.2588439020 -8.73E-09
 SKALA_GPW| Atom-composite cross support/maxima   2.607069088142E+00   5.901260386140E-02   1.865916069980E-01   1.149334102848E+00
 SKALA_GPW| Active atom-composite XC energy  -2.4983432698435479E+01
 SKALA_GPW| Active atom-composite electrons   6.0000101753119729E+01
 SKALA_GPW| Active atom-composite density range  -1.4166039116704163E-09   2.0022751741853720E-01
 SKALA_GPW| Active atom-composite tau range  -6.9435174761042973E-09   1.9436342559302990E+00
 SKALA_GPW| Active atom-composite tau integral   5.8403999387993736E+01
 SKALA_GPW| Active atom-composite max gradient   4.0915291782325913E-01
    71 OT DIIS     0.10E+00  116.0     0.00000044       -75.2588438948  7.24E-09
 SKALA_GPW| Atom-composite cross support/maxima   2.607069088142E+00   5.901259691281E-02   1.865914235454E-01   1.149334438355E+00
 SKALA_GPW| Active atom-composite XC energy  -2.4983432243890562E+01
 SKALA_GPW| Active atom-composite electrons   6.0000101753229664E+01
 SKALA_GPW| Active atom-composite density range  -1.4166076882929740E-09   2.0022746281332954E-01
 SKALA_GPW| Active atom-composite tau range  -6.9435369023076846E-09   1.9436331015724060E+00
 SKALA_GPW| Active atom-composite tau integral   5.8403996616928779E+01
 SKALA_GPW| Active atom-composite max gradient   4.0915305865681006E-01
    72 OT DIIS     0.10E+00  116.1     0.00000041       -75.2588439054 -1.06E-08
 SKALA_GPW| Atom-composite cross support/maxima   2.607069088142E+00   5.901257113706E-02   1.865912139636E-01   1.149334347584E+00
 SKALA_GPW| Active atom-composite XC energy  -2.4983432016277021E+01
 SKALA_GPW| Active atom-composite electrons   6.0000101753287225E+01
 SKALA_GPW| Active atom-composite density range  -1.4166109694895943E-09   2.0022742526652462E-01
 SKALA_GPW| Active atom-composite tau range  -6.9435496056144788E-09   1.9436328648293990E+00
 SKALA_GPW| Active atom-composite tau integral   5.8403995509195113E+01
 SKALA_GPW| Active atom-composite max gradient   4.0915265033755288E-01
    73 OT DIIS     0.10E+00  116.0     0.00000039       -75.2588439005  4.90E-09
 SKALA_GPW| Atom-composite cross support/maxima   2.607069088142E+00   5.901256212206E-02   1.865913581553E-01   1.149334153570E+00
 SKALA_GPW| Active atom-composite XC energy  -2.4983432001001134E+01
 SKALA_GPW| Active atom-composite electrons   6.0000101753351387E+01
 SKALA_GPW| Active atom-composite density range  -1.4166141576214302E-09   2.0022731012662692E-01
 SKALA_GPW| Active atom-composite tau range  -6.9435607054154776E-09   1.9436326550404788E+00
 SKALA_GPW| Active atom-composite tau integral   5.8403994747717022E+01
 SKALA_GPW| Active atom-composite max gradient   4.0915262471543123E-01
    74 OT DIIS     0.10E+00  116.2     0.00000035       -75.2588439018 -1.32E-09
 SKALA_GPW| Atom-composite cross support/maxima   2.607069088142E+00   5.901254916658E-02   1.865909571799E-01   1.149335246742E+00
 SKALA_GPW| Active atom-composite XC energy  -2.4983431515965204E+01
 SKALA_GPW| Active atom-composite electrons   6.0000101753374551E+01
 SKALA_GPW| Active atom-composite density range  -1.4166158737937551E-09   2.0022724729597291E-01
 SKALA_GPW| Active atom-composite tau range  -6.9435684025751850E-09   1.9436310253813782E+00
 SKALA_GPW| Active atom-composite tau integral   5.8403990832408560E+01
 SKALA_GPW| Active atom-composite max gradient   4.0915276731778039E-01
    75 OT DIIS     0.10E+00  116.2     0.00000032       -75.2588439050 -3.22E-09
 SKALA_GPW| Atom-composite cross support/maxima   2.607069088142E+00   5.901252707707E-02   1.865909952590E-01   1.149333549361E+00
 SKALA_GPW| Active atom-composite XC energy  -2.4983431459601956E+01
 SKALA_GPW| Active atom-composite electrons   6.0000101753392251E+01
 SKALA_GPW| Active atom-composite density range  -1.4166166803034910E-09   2.0022717693132533E-01
 SKALA_GPW| Active atom-composite tau range  -6.9435708419167998E-09   1.9436307242837363E+00
 SKALA_GPW| Active atom-composite tau integral   5.8403989530609458E+01
 SKALA_GPW| Active atom-composite max gradient   4.0915219247313278E-01
    76 OT DIIS     0.10E+00  116.1     0.00000030       -75.2588439078 -2.77E-09
 SKALA_GPW| Atom-composite cross support/maxima   2.607069088142E+00   5.901253357794E-02   1.865909855486E-01   1.149334221507E+00
 SKALA_GPW| Active atom-composite XC energy  -2.4983431311019366E+01
 SKALA_GPW| Active atom-composite electrons   6.0000101753393636E+01
 SKALA_GPW| Active atom-composite density range  -1.4166157445878113E-09   2.0022708585129126E-01
 SKALA_GPW| Active atom-composite tau range  -6.9435710997116380E-09   1.9436306311601228E+00
 SKALA_GPW| Active atom-composite tau integral   5.8403988317117395E+01
 SKALA_GPW| Active atom-composite max gradient   4.0915260097584955E-01
    77 OT DIIS     0.10E+00  116.3     0.00000027       -75.2588439103 -2.49E-09
 SKALA_GPW| Atom-composite cross support/maxima   2.607069088142E+00   5.901253203334E-02   1.865910876946E-01   1.149334032906E+00
 SKALA_GPW| Active atom-composite XC energy  -2.4983431197215332E+01
 SKALA_GPW| Active atom-composite electrons   6.0000101753393935E+01
 SKALA_GPW| Active atom-composite density range  -1.4166134638242806E-09   2.0022703310033813E-01
 SKALA_GPW| Active atom-composite tau range  -6.9435645539744326E-09   1.9436299394760845E+00
 SKALA_GPW| Active atom-composite tau integral   5.8403986732309889E+01
 SKALA_GPW| Active atom-composite max gradient   4.0915261218920262E-01
    78 OT DIIS     0.10E+00  116.5     0.00000025       -75.2588439176 -7.30E-09
 SKALA_GPW| Atom-composite cross support/maxima   2.607069088142E+00   5.901253702228E-02   1.865910987420E-01   1.149333726257E+00
 SKALA_GPW| Active atom-composite XC energy  -2.4983430972884140E+01
 SKALA_GPW| Active atom-composite electrons   6.0000101753404145E+01
 SKALA_GPW| Active atom-composite density range  -1.4166098260838145E-09   2.0022698725501073E-01
 SKALA_GPW| Active atom-composite tau range  -6.9435590378849350E-09   1.9436298517926023E+00
 SKALA_GPW| Active atom-composite tau integral   5.8403985468230054E+01
 SKALA_GPW| Active atom-composite max gradient   4.0915280651823682E-01
    79 OT DIIS     0.10E+00  116.4     0.00000023       -75.2588439139  3.67E-09
 SKALA_GPW| Atom-composite cross support/maxima   2.607069088142E+00   5.901254047492E-02   1.865913093159E-01   1.149333935765E+00
 SKALA_GPW| Active atom-composite XC energy  -2.4983430997622818E+01
 SKALA_GPW| Active atom-composite electrons   6.0000101753409695E+01
 SKALA_GPW| Active atom-composite density range  -1.4166055863099121E-09   2.0022694199840418E-01
 SKALA_GPW| Active atom-composite tau range  -6.9435483803092649E-09   1.9436303707716460E+00
 SKALA_GPW| Active atom-composite tau integral   5.8403985959481403E+01
 SKALA_GPW| Active atom-composite max gradient   4.0915298868390593E-01
    80 OT DIIS     0.10E+00  116.5     0.00000021       -75.2588439081  5.83E-09
 SKALA_GPW| Atom-composite cross support/maxima   2.607069088142E+00   5.901255108916E-02   1.865914717625E-01   1.149334242966E+00
 SKALA_GPW| Active atom-composite XC energy  -2.4983430926048136E+01
 SKALA_GPW| Active atom-composite electrons   6.0000101753427316E+01
 SKALA_GPW| Active atom-composite density range  -1.4166018644736703E-09   2.0022690451431888E-01
 SKALA_GPW| Active atom-composite tau range  -6.9435414222993221E-09   1.9436302516501214E+00
 SKALA_GPW| Active atom-composite tau integral   5.8403985631988213E+01
 SKALA_GPW| Active atom-composite max gradient   4.0915337596248647E-01
    81 OT DIIS     0.10E+00  115.9     0.00000020       -75.2588439133 -5.29E-09
 SKALA_GPW| Atom-composite cross support/maxima   2.607069088142E+00   5.901254929112E-02   1.865914490613E-01   1.149334622005E+00
 SKALA_GPW| Active atom-composite XC energy  -2.4983430774787919E+01
 SKALA_GPW| Active atom-composite electrons   6.0000101753445840E+01
 SKALA_GPW| Active atom-composite density range  -1.4165982457207038E-09   2.0022690314364275E-01
 SKALA_GPW| Active atom-composite tau range  -6.9435342038982950E-09   1.9436302578050140E+00
 SKALA_GPW| Active atom-composite tau integral   5.8403985296505553E+01
 SKALA_GPW| Active atom-composite max gradient   4.0915354918238223E-01
    82 OT DIIS     0.10E+00  116.0     0.00000018       -75.2588439097  3.68E-09
 SKALA_GPW| Atom-composite cross support/maxima   2.607069088142E+00   5.901254692246E-02   1.865916464529E-01   1.149334397526E+00
 SKALA_GPW| Active atom-composite XC energy  -2.4983430853169182E+01
 SKALA_GPW| Active atom-composite electrons   6.0000101753470801E+01
 SKALA_GPW| Active atom-composite density range  -1.4165960037471468E-09   2.0022688373195482E-01
 SKALA_GPW| Active atom-composite tau range  -6.9435296420212662E-09   1.9436309337759186E+00
 SKALA_GPW| Active atom-composite tau integral   5.8403986316811384E+01
 SKALA_GPW| Active atom-composite max gradient   4.0915363328105320E-01
    83 OT DIIS     0.10E+00  116.1     0.00000017       -75.2588439049  4.74E-09
 SKALA_GPW| Atom-composite cross support/maxima   2.607069088142E+00   5.901254826572E-02   1.865916135806E-01   1.149335251420E+00
 SKALA_GPW| Active atom-composite XC energy  -2.4983430762511560E+01
 SKALA_GPW| Active atom-composite electrons   6.0000101753487904E+01
 SKALA_GPW| Active atom-composite density range  -1.4165948820427659E-09   2.0022687271936443E-01
 SKALA_GPW| Active atom-composite tau range  -6.9435291662813683E-09   1.9436308748432056E+00
 SKALA_GPW| Active atom-composite tau integral   5.8403986119692242E+01
 SKALA_GPW| Active atom-composite max gradient   4.0915397020052274E-01
    84 OT DIIS     0.10E+00  115.9     0.00000016       -75.2588439125 -7.55E-09
 SKALA_GPW| Atom-composite cross support/maxima   2.607069088142E+00   5.901254042353E-02   1.865916011665E-01   1.149335063517E+00
 SKALA_GPW| Active atom-composite XC energy  -2.4983430737767030E+01
 SKALA_GPW| Active atom-composite electrons   6.0000101753508972E+01
 SKALA_GPW| Active atom-composite density range  -1.4165952587469004E-09   2.0022687817108012E-01
 SKALA_GPW| Active atom-composite tau range  -6.9435304723387801E-09   1.9436307928106218E+00
 SKALA_GPW| Active atom-composite tau integral   5.8403986068536732E+01
 SKALA_GPW| Active atom-composite max gradient   4.0915388958917065E-01
    85 OT DIIS     0.10E+00  116.5     0.00000016       -75.2588439170 -4.49E-09
 SKALA_GPW| Atom-composite cross support/maxima   2.607069088142E+00   5.901253608821E-02   1.865915425528E-01   1.149335275680E+00
 SKALA_GPW| Active atom-composite XC energy  -2.4983430695738953E+01
 SKALA_GPW| Active atom-composite electrons   6.0000101753523410E+01
 SKALA_GPW| Active atom-composite density range  -1.4165965014467455E-09   2.0022687010171319E-01
 SKALA_GPW| Active atom-composite tau range  -6.9435352032606971E-09   1.9436309810321659E+00
 SKALA_GPW| Active atom-composite tau integral   5.8403986223884701E+01
 SKALA_GPW| Active atom-composite max gradient   4.0915398962085581E-01
    86 OT DIIS     0.10E+00  116.2     0.00000015       -75.2588439095  7.50E-09
 SKALA_GPW| Atom-composite cross support/maxima   2.607069088142E+00   5.901253167806E-02   1.865915167235E-01   1.149335462500E+00
 SKALA_GPW| Active atom-composite XC energy  -2.4983430701162980E+01
 SKALA_GPW| Active atom-composite electrons   6.0000101753536164E+01
 SKALA_GPW| Active atom-composite density range  -1.4165985289502821E-09   2.0022686280466429E-01
 SKALA_GPW| Active atom-composite tau range  -6.9435396906846283E-09   1.9436308507521702E+00
 SKALA_GPW| Active atom-composite tau integral   5.8403986277244613E+01
 SKALA_GPW| Active atom-composite max gradient   4.0915399765702531E-01
    87 OT DIIS     0.10E+00  116.3     0.00000014       -75.2588439063  3.18E-09
 SKALA_GPW| Atom-composite cross support/maxima   2.607069088142E+00   5.901253016054E-02   1.865914232647E-01   1.149335443320E+00
 SKALA_GPW| Active atom-composite XC energy  -2.4983430623749911E+01
 SKALA_GPW| Active atom-composite electrons   6.0000101753549117E+01
 SKALA_GPW| Active atom-composite density range  -1.4166009488852204E-09   2.0022685988528149E-01
 SKALA_GPW| Active atom-composite tau range  -6.9435463785918248E-09   1.9436305187825325E+00
 SKALA_GPW| Active atom-composite tau integral   5.8403985715352121E+01
 SKALA_GPW| Active atom-composite max gradient   4.0915400205222080E-01
    88 OT DIIS     0.10E+00  116.1     0.00000014       -75.2588439109 -4.62E-09
 SKALA_GPW| Atom-composite cross support/maxima   2.607069088142E+00   5.901252563547E-02   1.865913643043E-01   1.149335426496E+00
 SKALA_GPW| Active atom-composite XC energy  -2.4983430602225223E+01
 SKALA_GPW| Active atom-composite electrons   6.0000101753554361E+01
 SKALA_GPW| Active atom-composite density range  -1.4166032377744743E-09   2.0022685583450417E-01
 SKALA_GPW| Active atom-composite tau range  -6.9435517890384178E-09   1.9436304719696798E+00
 SKALA_GPW| Active atom-composite tau integral   5.8403985582166960E+01
 SKALA_GPW| Active atom-composite max gradient   4.0915392722508920E-01
    89 OT DIIS     0.10E+00  116.2     0.00000014       -75.2588439118 -8.93E-10
 SKALA_GPW| Atom-composite cross support/maxima   2.607069088142E+00   5.901252685129E-02   1.865913889427E-01   1.149335382593E+00
 SKALA_GPW| Active atom-composite XC energy  -2.4983430608407517E+01
 SKALA_GPW| Active atom-composite electrons   6.0000101753568586E+01
 SKALA_GPW| Active atom-composite density range  -1.4166054338790069E-09   2.0022683517770781E-01
 SKALA_GPW| Active atom-composite tau range  -6.9435574311583480E-09   1.9436303320581514E+00
 SKALA_GPW| Active atom-composite tau integral   5.8403985449536833E+01
 SKALA_GPW| Active atom-composite max gradient   4.0915395304914670E-01
    90 OT DIIS     0.10E+00  115.9     0.00000013       -75.2588439145 -2.69E-09
 SKALA_GPW| Atom-composite cross support/maxima   2.607069088142E+00   5.901252843361E-02   1.865913079849E-01   1.149335582484E+00
 SKALA_GPW| Active atom-composite XC energy  -2.4983430505687085E+01
 SKALA_GPW| Active atom-composite electrons   6.0000101753569041E+01
 SKALA_GPW| Active atom-composite density range  -1.4166070703870408E-09   2.0022682706031289E-01
 SKALA_GPW| Active atom-composite tau range  -6.9435630208927332E-09   1.9436298905363742E+00
 SKALA_GPW| Active atom-composite tau integral   5.8403984694069699E+01
 SKALA_GPW| Active atom-composite max gradient   4.0915399467152525E-01
    91 OT DIIS     0.10E+00  115.7     0.00000013       -75.2588439118  2.69E-09
 SKALA_GPW| Atom-composite cross support/maxima   2.607069088142E+00   5.901252690220E-02   1.865913488947E-01   1.149335233686E+00
 SKALA_GPW| Active atom-composite XC energy  -2.4983430503730226E+01
 SKALA_GPW| Active atom-composite electrons   6.0000101753578612E+01
 SKALA_GPW| Active atom-composite density range  -1.4166080308042008E-09   2.0022681527325720E-01
 SKALA_GPW| Active atom-composite tau range  -6.9435664727326305E-09   1.9436298517026598E+00
 SKALA_GPW| Active atom-composite tau integral   5.8403984554606680E+01
 SKALA_GPW| Active atom-composite max gradient   4.0915390204847057E-01
    92 OT DIIS     0.10E+00  116.0     0.00000012       -75.2588439124 -5.83E-10
 SKALA_GPW| Atom-composite cross support/maxima   2.607069088142E+00   5.901253017027E-02   1.865913717359E-01   1.149335510035E+00
 SKALA_GPW| Active atom-composite XC energy  -2.4983430459820347E+01
 SKALA_GPW| Active atom-composite electrons   6.0000101753581092E+01
 SKALA_GPW| Active atom-composite density range  -1.4166078804337514E-09   2.0022679446990727E-01
 SKALA_GPW| Active atom-composite tau range  -6.9435679884357648E-09   1.9436298113040364E+00
 SKALA_GPW| Active atom-composite tau integral   5.8403984272895741E+01
 SKALA_GPW| Active atom-composite max gradient   4.0915405007435646E-01
    93 OT DIIS     0.10E+00  115.9     0.00000012       -75.2588439102  2.13E-09
 SKALA_GPW| Atom-composite cross support/maxima   2.607069088142E+00   5.901253097882E-02   1.865914154210E-01   1.149335461601E+00
 SKALA_GPW| Active atom-composite XC energy  -2.4983430427892891E+01
 SKALA_GPW| Active atom-composite electrons   6.0000101753581852E+01
 SKALA_GPW| Active atom-composite density range  -1.4166067838089685E-09   2.0022678274127256E-01
 SKALA_GPW| Active atom-composite tau range  -6.9435657257586075E-09   1.9436295492596423E+00
 SKALA_GPW| Active atom-composite tau integral   5.8403983871123678E+01
 SKALA_GPW| Active atom-composite max gradient   4.0915405601466120E-01
    94 OT DIIS     0.10E+00  116.2     0.00000011       -75.2588439119 -1.70E-09
 SKALA_GPW| Atom-composite cross support/maxima   2.607069088142E+00   5.901253166447E-02   1.865914355527E-01   1.149335443664E+00
 SKALA_GPW| Active atom-composite XC energy  -2.4983430340270772E+01
 SKALA_GPW| Active atom-composite electrons   6.0000101753589725E+01
 SKALA_GPW| Active atom-composite density range  -1.4166049539573245E-09   2.0022676720836038E-01
 SKALA_GPW| Active atom-composite tau range  -6.9435621728224783E-09   1.9436295750050692E+00
 SKALA_GPW| Active atom-composite tau integral   5.8403983401807587E+01
 SKALA_GPW| Active atom-composite max gradient   4.0915414512702486E-01
    95 OT DIIS     0.10E+00  116.0     0.00000011       -75.2588439092  2.76E-09
 SKALA_GPW| Atom-composite cross support/maxima   2.607069088142E+00   5.901252965789E-02   1.865915017996E-01   1.149335563960E+00
 SKALA_GPW| Active atom-composite XC energy  -2.4983430329084282E+01
 SKALA_GPW| Active atom-composite electrons   6.0000101753594102E+01
 SKALA_GPW| Active atom-composite density range  -1.4166027556255469E-09   2.0022674781643549E-01
 SKALA_GPW| Active atom-composite tau range  -6.9435553713838089E-09   1.9436297219173180E+00
 SKALA_GPW| Active atom-composite tau integral   5.8403983407413122E+01
 SKALA_GPW| Active atom-composite max gradient   4.0915421640332439E-01
    96 OT DIIS     0.10E+00  116.1     0.00000010       -75.2588439046  4.62E-09
 SKALA_GPW| Atom-composite cross support/maxima   2.607069088142E+00   5.901253081784E-02   1.865915382247E-01   1.149335630817E+00
 SKALA_GPW| Active atom-composite XC energy  -2.4983430284125291E+01
 SKALA_GPW| Active atom-composite electrons   6.0000101753601818E+01
 SKALA_GPW| Active atom-composite density range  -1.4166006755886764E-09   2.0022672996284474E-01
 SKALA_GPW| Active atom-composite tau range  -6.9435501123800347E-09   1.9436296174731660E+00
 SKALA_GPW| Active atom-composite tau integral   5.8403983103075859E+01
 SKALA_GPW| Active atom-composite max gradient   4.0915435011844725E-01
    97 OT DIIS     0.10E+00  115.8     0.00000010       -75.2588439101 -5.56E-09

  *** SCF run converged in    97 steps ***


  Electronic density on regular grids:        -60.0000000000        0.0000000000
  Core density on regular grids:               59.9999999999       -0.0000000001
  Total charge density on r-space grids:       -0.0000000000
  Total charge density g-space grids:          -0.0000000000

  Overlap energy of the core charge distribution:               0.00000759348923
  Self energy of the core charge distribution:               -176.85623834488035
  Core Hamiltonian energy:                                     55.74759807927605
  Hartree energy:                                              70.88042526521826
  Exchange-correlation energy:                                  0.00000000000000
  Dispersion energy:                                           -0.04720621910245

  GAPW_XC| Exc from hard and soft atomic rho1:                -24.98343028412529

  Total energy:                                               -75.25884391012457

  outer SCF iter =    1 RMS gradient =   0.98E-07 energy =        -75.2588439101
  outer SCF loop converged in   1 iterations or   97 steps


 !-----------------------------------------------------------------------------!
                     Mulliken Population Analysis

 #  Atom  Element  Kind  Atomic population                           Net charge
       1     C        1          3.819177                              0.180823
       2     H        2          1.182746                             -0.182746
       3     C        1          3.800508                              0.199492
       4     H        2          1.186375                             -0.186375
       5     C        1          3.823821                              0.176179
       6     H        2          1.181174                             -0.181174
       7     C        1          3.831080                              0.168920
       8     H        2          1.171991                             -0.171991
       9     C        1          3.831741                              0.168259
      10     H        2          1.168494                             -0.168494
      11     C        1          3.830280                              0.169720
      12     H        2          1.172618                             -0.172618
      13     C        1          3.831456                              0.168544
      14     H        2          1.171584                             -0.171584
      15     C        1          3.831762                              0.168238
      16     H        2          1.168416                             -0.168416
      17     C        1          3.829998                              0.170002
      18     H        2          1.173159                             -0.173159
      19     C        1          3.819820                              0.180180
      20     H        2          1.183397                             -0.183397
      21     C        1          3.800598                              0.199402
      22     H        2          1.186377                             -0.186377
      23     C        1          3.822871                              0.177129
      24     H        2          1.180557                             -0.180557
 # Total charge                             60.000000                  0.000000

 !-----------------------------------------------------------------------------!

 !-----------------------------------------------------------------------------!
                           Hirshfeld Charges

  #Atom  Element  Kind  Ref Charge     Population                    Net charge
      1       C      1       4.000          4.439                        -0.439
      2       H      2       1.000          0.555                         0.445
      3       C      1       4.000          4.436                        -0.436
      4       H      2       1.000          0.554                         0.446
      5       C      1       4.000          4.441                        -0.441
      6       H      2       1.000          0.555                         0.445
      7       C      1       4.000          4.449                        -0.449
      8       H      2       1.000          0.554                         0.446
      9       C      1       4.000          4.450                        -0.450
     10       H      2       1.000          0.554                         0.446
     11       C      1       4.000          4.448                        -0.448
     12       H      2       1.000          0.554                         0.446
     13       C      1       4.000          4.449                        -0.449
     14       H      2       1.000          0.554                         0.446
     15       C      1       4.000          4.450                        -0.450
     16       H      2       1.000          0.554                         0.446
     17       C      1       4.000          4.448                        -0.448
     18       H      2       1.000          0.554                         0.446
     19       C      1       4.000          4.440                        -0.440
     20       H      2       1.000          0.555                         0.445
     21       C      1       4.000          4.436                        -0.436
     22       H      2       1.000          0.554                         0.446
     23       C      1       4.000          4.441                        -0.441
     24       H      2       1.000          0.555                         0.445

  Total Charge                                                            0.019
 !-----------------------------------------------------------------------------!

 ENERGY| Total FORCE_EVAL ( QS ) energy [hartree]            -75.258843910124568

 -------------------------------------------------------------------------------
 -                                                                             -
 -                                DBCSR STATISTICS                             -
 -                                                                             -
 -------------------------------------------------------------------------------
 COUNTER                                    TOTAL       BLAS       SMM       ACC
 flops    30 x    30 x    30             46818000       0.0%      0.0%    100.0%     
 flops    14 x    14 x    30             89893440       0.0%      0.0%    100.0% (*) 
 flops    30 x    30 x    14            117633600       0.0%      0.0%    100.0% (*) 
 flops    14 x    30 x    30            146966400       0.0%      0.0%    100.0% (*) 
 flops    29 x    14 x    30            157560480       0.0%      0.0%    100.0% (*) 
 flops    14 x    29 x    30            186207840       0.0%      0.0%    100.0% (*) 
 flops    30 x    30 x    29            243669600       0.0%      0.0%    100.0% (*) 
 flops    29 x    30 x    30            304430400       0.0%      0.0%    100.0% (*) 
 flops    29 x    29 x    30            385716240       0.0%      0.0%    100.0% (*) 
 flops    14 x    30 x    14            682456320       0.0%      0.0%    100.0% (*) 
 flops    29 x    30 x    14           1413659520       0.0%      0.0%    100.0% (*) 
 flops    14 x    30 x    29           1413659520       0.0%      0.0%    100.0% (*) 
 flops    29 x    30 x    29           2928294720       0.0%      0.0%    100.0% (*) 

 *** WARNING in dbcsr_mm_sched.F:613 :: (*) ACC Untuned kernels, consider ***
 *** to run the ACC tuning procedure for them                             ***

 flops inhomo. stacks                           0       0.0%      0.0%      0.0%
 flops total                         8.116966E+09       0.0%      0.0%    100.0%
 flops max/rank                      8.116966E+09       0.0%      0.0%    100.0%
 matmuls inhomo. stacks                         0       0.0%      0.0%      0.0%
 matmuls total                             283395       0.0%      0.0%    100.0%
 number of processed stacks                 37259       0.0%      0.0%    100.0%
 average stack size                                     0.0       0.0       7.6
 marketing flops                     8.864013E+09
 -------------------------------------------------------------------------------
 # multiplications                           2244
 max memory usage/rank             268.453085E+09
 # max total images/rank                        1
 # max 3D layers                                1
 # MPI messages exchanged                       0
 -------------------------------------------------------------------------------
 -                                                                             -
 -                      DBCSR MESSAGE PASSING PERFORMANCE                      -
 -                                                                             -
 -------------------------------------------------------------------------------
 ROUTINE             CALLS      AVE VOLUME [Bytes]
 MP_Bcast               14                     12.
 MP_Allreduce         6777                      8.
 MP_Alltoall          7424                  10704.
 MP_ISend             8972                   1244.
 MP_IRecv             8972                   1244.
 -------------------------------------------------------------------------------

 -------------------------------------------------------------------------------
 -                                                                             -
 -                                GRID STATISTICS                              -
 -                                                                             -
 -------------------------------------------------------------------------------
 LP    KERNEL             BACKEND                              COUNT     PERCENT
 5     collocate ortho    GPU                                 469616      16.74%
 5     integrate ortho    GPU                                 464824      16.57%
 6     collocate ortho    GPU                                 380730      13.57%
 6     integrate ortho    GPU                                 376845      13.43%
 4     collocate ortho    GPU                                 245588       8.75%
 4     integrate ortho    GPU                                 243082       8.66%
 7     collocate ortho    GPU                                 199528       7.11%
 7     integrate ortho    GPU                                 197492       7.04%
 8     collocate ortho    GPU                                 114366       4.08%
 8     integrate ortho    GPU                                 113199       4.04%
 0     collocate general  CPU                                     72       0.00%
 0     integrate general  CPU                                     24       0.00%
 -------------------------------------------------------------------------------

 -------------------------------------------------------------------------------
 -                                                                             -
 -                          OFFLOAD MEMPOOL STATISTICS                         -
 -                                                                             -
 -------------------------------------------------------------------------------
 Memory consumption                Number of allocations  Used [MiB]  Size [MiB]
 Device                                                9         533         533
 Host                                                  9         533  13151375296887
 -------------------------------------------------------------------------------

 MEMORY| Estimated peak process memory [MiB]                               24411

 -------------------------------------------------------------------------------
 ----                             MULTIGRID INFO                            ----
 -------------------------------------------------------------------------------
 count for grid        1:          20101          cutoff [a.u.]          200.00
 count for grid        2:          10603          cutoff [a.u.]           66.67
 count for grid        3:           6414          cutoff [a.u.]           22.22
 count for grid        4:           1494          cutoff [a.u.]            7.41
 count for grid        5:              0          cutoff [a.u.]            2.47
 total gridlevel count  :          38612

 -------------------------------------------------------------------------------
 -                                                                             -
 -                         MESSAGE PASSING PERFORMANCE                         -
 -                                                                             -
 -------------------------------------------------------------------------------

 ROUTINE             CALLS      AVE VOLUME [Bytes]
 MP_Group              199
 MP_Bcast            10584                  52393.
 MP_Allreduce        38437               11598990.
 MP_Sync               110
 MP_comm_split         105
 -------------------------------------------------------------------------------


 -------------------------------------------------------------------------------
 -                                                                             -
 -                           R E F E R E N C E S                               -
 -                                                                             -
 -------------------------------------------------------------------------------
 
 CP2K version 2026.2 (Development Version), the CP2K developers group (2026).
 CP2K is freely available from https://www.cp2k.org/ .
 
 M. Iannuzzi, J. Wilhelm, F. Stein, A. Bussy, H. Elgabarty, D. Golze, A. Hehn, 
 M. Graml, S. Marek, B. Sertcan Gökmen, C. Schran, H. Forbert, R. Z. 
 Khaliullin, A. Kozhevnikov, M. Taillefumier, R. Meli, V. V. Rybkin, M. Brehm, 
 R. Schade, O. Schütt, J. V. Pototschnig, H. Mirhosseini, A. Knüpfer, D. Marx, 
 M. Krack, J. Hutter, T. D. Kühne.
 J. Phys. Chem. B 130, 1237-1310 (2026).
 The CP2K Program Package Made Simple.
 https://doi.org/10.1021/acs.jpcb.5c05851

 L. Wittmann, I. Gordiy, M. Friede, B. Helmich-Paris, S. Grimme, A. Hansen, M. 
 Bursch.
 Phys. Chem. Chem. Phys. 26, 21379-21394 (2024).
 Extension of the D3 and D4 London dispersion corrections to the full actinides 
 series.
 https://doi.org/10.1039/d4cp01514b

 T. D. Kühne, M. Iannuzzi, M. Del Ben, V. V. Rybkin, P. Seewald, F. Stein, T. 
 Laino, R. Z. Khaliullin, O. Schütt, F. Schiffmann, D. Golze, J. Wilhelm, S. 
 Chulkov, M. H. Bani-Hashemian, V. Weber, U. Borstnik, M. Taillefumier, A. S. 
 Jakobovits, A. Lazzaro, H. Pabst, T. Müller, R. Schade, M. Guidon, S. 
 Andermatt, N. Holmberg, G. K. Schenter, A. Hehn, A. Bussy, F. Belleflamme, G. 
 Tabacchi, A. Glöß, M. Lass, I. Bethune, C. J. Mundy, C. Plessl, M. Watkins, 
 J. VandeVondele, M. Krack, J. Hutter.
 J. Chem. Phys. 152, 194103 (2020).
 CP2K: An electronic structure and molecular dynamics software package - 
 Quickstep: Efficient and accurate electronic structure calculations.
 https://doi.org/10.1063/5.0007045

 L. Goerigk, A. Hansen, C. Bauer, S. Ehrlich, A. Najibi, S. Grimme.
 Phys. Chem. Chem. Phys. 19, 32184-32215 (2017).
 A look at the density functional theory zoo with the advanced GMTKN55 database 
 for general main group thermochemistry, kinetics and noncovalent interactions.
 https://doi.org/10.1039/C7CP04913G

 O. Schuett, P. Messmer, J. Hutter, J. VandeVondele.
 Electronic Structure Calculations on Graphics Processing Units, 173-190 (2016).
 GPU-Accelerated Sparse Matrix-Matrix Multiplication for Linear Scaling Density 
 Functional Theory.
 https://doi.org/10.1002/9781118670712.ch8

 U. Borstnik, J. VandeVondele, V. Weber, J. Hutter.
 Parallel Comput. 40, 47-58 (2014).
 Sparse matrix multiplication: The distributed block-compressed sparse row 
 library.
 https://doi.org/10.1016/j.parco.2014.03.012

 S. Grimme, S. Ehrlich, L. Goerigk.
 J. Comput. Chem. 32, 1456 (2011).
 Effect of the damping function in dispersion corrected density functional 
 theory.
 https://doi.org/10.1002/jcc.21759

 S. Grimme, J. Antony, S. Ehrlich, H. Krieg.
 J. Chem. Phys. 132, 154104 (2010).
 A consistent and accurate ab initio parametrization of density functional 
 dispersion correction (DFT-D) for the 94 elements H-Pu.
 https://doi.org/10.1063/1.3382344

 J. VandeVondele, J. Hutter.
 J. Chem. Phys. 127, 114105 (2007).
 Gaussian basis sets for accurate calculations on molecular systems in gas and 
 condensed phases.
 https://doi.org/10.1063/1.2770708

 M. Krack.
 Theor. Chem. Acc. 114, 145-152 (2005).
 Pseudopotentials for H to Kr optimized for gradient-corrected 
 exchange-correlation functionals.
 https://doi.org/10.1007/s00214-005-0655-y

 M. Frigo, S. G. Johnson.
 Proc. IEEE 93, 216-231 (2005).
 The design and implementation of FFTW3.
 https://doi.org/10.1109/JPROC.2004.840301

 J. VandeVondele, J. Hutter.
 J. Chem. Phys. 118, 4365-4369 (2003).
 An efficient orbital transformation method for electronic structure 
 calculations.
 https://doi.org/10.1063/1.1543154

 C. Hartwigsen, S. Goedecker, J. Hutter.
 Phys. Rev. B 58, 3641-3662 (1998).
 Relativistic separable dual-space Gaussian pseudopotentials from H to Rn.
 https://doi.org/10.1103/PhysRevB.58.3641

 S. Goedecker, M. Teter, J. Hutter.
 Phys. Rev. B 54, 1703-1710 (1996).
 Separable dual-space Gaussian pseudopotentials.
 https://doi.org/10.1103/PhysRevB.54.1703


 -------------------------------------------------------------------------------
 -                                                                             -
 -                                T I M I N G                                  -
 -                                                                             -
 -------------------------------------------------------------------------------
 SUBROUTINE                       CALLS  ASD         SELF TIME        TOTAL TIME
                                MAXIMUM       AVERAGE  MAXIMUM  AVERAGE  MAXIMUM
 CP2K                                 1  1.0     1.29     1.29 11291.98 11291.98
 qs_energies                          1  2.0     0.00     0.00 11279.92 11279.92
 scf_env_do_scf                       1  3.0     0.00     0.00 11274.70 11274.70
 scf_env_do_scf_inner_loop           97  4.0     0.11     0.11 11158.00 11158.00
 qs_ks_update_qs_env                 98  5.0     0.00     0.00 11125.38 11125.38
 rebuild_ks_matrix                   97  6.0     0.00     0.00 11125.32 11125.32
 qs_ks_build_kohn_sham_matrix        97  7.0     0.03     0.03 11125.32 11125.32
 calculate_vxc_atom                  97  8.0  9380.59  9380.59 10891.80 10891.80
 gaVxcgb_GC                        4656  9.0  1123.08  1123.08  1123.08  1123.08
 -------------------------------------------------------------------------------

 The number of warnings for this run is : 1
 
 -------------------------------------------------------------------------------
  **** **** ******  **  PROGRAM ENDED AT                 2026-08-25 16:56:54.714
 ***** ** ***  *** **   PROGRAM RAN ON                                     gh003
 **    ****   ******    PROGRAM RAN BY                                  kuehne88
 ***** **    ** ** **   PROGRAM PROCESS ID                               2287740
  **** **  *******  **  PROGRAM STOPPED IN /data/home2/kuehne88/cp2k-native-skal
                                           a/validation-uzh/diet-production-p25/
                                           gapwxc-gth-one-center/3be8c690706b161
                                           7647bf4952e471f96a073f4fa
