 DBCSR| CPU Multiplication driver                                           XSMM (U)
 DBCSR| Multrec recursion limit                                              512 (U)
 DBCSR| Multiplication stack size                                           1000 (D)
 DBCSR| Maximum elements for images                                    UNLIMITED (U)
 DBCSR| Multiplicative factor virtual images                                   1 (U)
 DBCSR| Use multiplication densification                                       T (D)
 DBCSR| Multiplication size stacks                                             3 (U)
 DBCSR| Use memory pool for CPU allocation                                     F (U)
 DBCSR| Number of 3D layers                                               SINGLE (U)
 DBCSR| Use MPI memory allocation                                              F (U)
 DBCSR| Use RMA algorithm                                                      F (U)
 DBCSR| Use Communication thread                                               T (U)
 DBCSR| Communication thread load                                             15 (D)
 DBCSR| MPI: My process id                                                     0
 DBCSR| MPI: Number of processes                                               1
 DBCSR| OMP: Current number of threads                                        20
 DBCSR| OMP: Max number of threads                                            20
 DBCSR| Split modifier for TAS multiplication algorithm                  1.0E+00 (U)


  **** **** ******  **  PROGRAM STARTED AT               2026-08-25 05:46:34.332
 ***** ** ***  *** **   PROGRAM STARTED ON                            spark-c86c
 **    ****   ******    PROGRAM STARTED BY                              kuehne88
 ***** **    ** ** **   PROGRAM PROCESS ID                                627212
  **** **  *******  **  PROGRAM STARTED IN /home/kuehne88/work/native-skala-spar
                                           k/diet-production-p25/gapwxc-gth-one-
                                           center/a4311fb749e9e7e31b39d12c2a4596
                                           1170a253a1

 CP2K| version string:                 CP2K version 2026.2 (Development Version)
 CP2K| source code revision number:                                   c1bff3eeb8
 CP2K| cp2kflags: omp fftw3 parallel scalapack spglib openblas libtorch libtorch
 CP2K|            _cuda
 CP2K| is freely available from                            https://www.cp2k.org/
 CP2K| Program compiled at                                   2026-08-23 22:42:03
 CP2K| Program compiled on                                            spark-c86c
 CP2K| Program compiled for                                              aarch64
 CP2K| Data directory path      /home/kuehne88/work/native-skala-spark/cp2k/data
 CP2K| Input file name                                                 input.inp

 GLOBAL| Force Environment number                                              1
 GLOBAL| Basis set file name                             BASIS_MOLOPT_UZH_2026.2
 GLOBAL| Potential file name                                POTENTIAL_UZH_2026.2
 GLOBAL| MM Potential file name                                     MM_POTENTIAL
 GLOBAL| Coordinate file name                                      __STD_INPUT__
 GLOBAL| Method name                                                        CP2K
 GLOBAL| Project name                                a4311fb749e9_gapwxc_gth_paw
 GLOBAL| Run type                                                         ENERGY
 GLOBAL| FFT library                                                       FFTW3
 GLOBAL| Diagonalization library                                       ScaLAPACK
 GLOBAL| Cholesky decomposition library                                ScaLAPACK
 GLOBAL| DGEMM library                                                      BLAS
 GLOBAL| Direct generalized diagonalization requested                          F
 GLOBAL| Orthonormality check for eigenvectors                          DISABLED
 GLOBAL| Matrix multiplication library                                 ScaLAPACK
 GLOBAL| All-to-all communication in single precision                          F
 GLOBAL| FFTs using library dependent lengths                                  F
 GLOBAL| Grid backend                                                       AUTO
 GLOBAL| Global print level                                               MEDIUM
 GLOBAL| MPI I/O enabled                                                       T
 GLOBAL| Total number of message passing processes                             1
 GLOBAL| Number of distributed systems (nodes)                                 1
 GLOBAL| Number of threads for this process                                   20
 GLOBAL| This output is from process                                           0
 GLOBAL| OpenMP stack size per thread (OMP_STACKSIZE)                       512M
 GLOBAL| CPU model name                                                  UNKNOWN
 GLOBAL| CPUID                                                              2000

 MEMORY| system memory details [Kb]
 MEMORY|                        rank 0           min           max       average
 MEMORY| MemTotal            125507828     125507828     125507828     125507828
 MEMORY| MemFree              94725592      94725592      94725592      94725592
 MEMORY| Buffers               3956636       3956636       3956636       3956636
 MEMORY| Cached               12458536      12458536      12458536      12458536
 MEMORY| Slab                  5948908       5948908       5948908       5948908
 MEMORY| SReclaimable          4998372       4998372       4998372       4998372
 MEMORY| MemLikelyFree       116139136     116139136     116139136     116139136


 *** Fundamental physical constants (SI units) ***

 *** Literature: B. J. Mohr and B. N. Taylor,
 ***             CODATA recommended values of the fundamental physical
 ***             constants: 2006, Web Version 5.1
 ***             http://physics.nist.gov/constants

 Speed of light in vacuum [m/s]                             2.99792458000000E+08
 Magnetic constant or permeability of vacuum [N/A**2]       1.25663706143592E-06
 Electric constant or permittivity of vacuum [F/m]          8.85418781762039E-12
 Planck constant (h) [J*s]                                  6.62606896000000E-34
 Planck constant (h-bar) [J*s]                              1.05457162825177E-34
 Elementary charge [C]                                      1.60217648700000E-19
 Electron mass [kg]                                         9.10938215000000E-31
 Electron g factor [ ]                                     -2.00231930436220E+00
 Proton mass [kg]                                           1.67262163700000E-27
 Fine-structure constant                                    7.29735253760000E-03
 Rydberg constant [1/m]                                     1.09737315685270E+07
 Avogadro constant [1/mol]                                  6.02214179000000E+23
 Boltzmann constant [J/K]                                   1.38065040000000E-23
 Atomic mass unit [kg]                                      1.66053878200000E-27
 Bohr radius [m]                                            5.29177208590000E-11

 *** Conversion factors ***

 [u] -> [a.u.]                                              1.82288848426455E+03
 [Angstrom] -> [Bohr] = [a.u.]                              1.88972613288564E+00
 [a.u.] = [Bohr] -> [Angstrom]                              5.29177208590000E-01
 [a.u.] -> [s]                                              2.41888432650478E-17
 [a.u.] -> [fs]                                             2.41888432650478E-02
 [a.u.] -> [J]                                              4.35974393937059E-18
 [a.u.] -> [N]                                              8.23872205491840E-08
 [a.u.] -> [K]                                              3.15774647902944E+05
 [a.u.] -> [kJ/mol]                                         2.62549961709828E+03
 [a.u.] -> [kcal/mol]                                       6.27509468713739E+02
 [a.u.] -> [Pa]                                             2.94210107994716E+13
 [a.u.] -> [bar]                                            2.94210107994716E+08
 [a.u.] -> [atm]                                            2.90362800883016E+08
 [a.u.] -> [eV]                                             2.72113838565563E+01
 [a.u.] -> [Hz]                                             6.57968392072181E+15
 [a.u.] -> [1/cm] (wave numbers)                            2.19474631370540E+05
 [a.u./Bohr**2] -> [1/cm]                                   5.14048714338585E+03
 

 CELL| Volume [angstrom^3]:                                         15625.000000
 CELL| Vector a [angstrom]:      25.000     0.000     0.000   |a| =    25.000000
 CELL| Vector b [angstrom]:       0.000    25.000     0.000   |b| =    25.000000
 CELL| Vector c [angstrom]:       0.000     0.000    25.000   |c| =    25.000000
 CELL| Angle (b,c), alpha [degree]:                                    90.000000
 CELL| Angle (a,c), beta  [degree]:                                    90.000000
 CELL| Angle (a,b), gamma [degree]:                                    90.000000
 CELL| Numerically orthorhombic:                                             YES
 CELL| Periodicity                                                          NONE

 CELL_REF| Volume [angstrom^3]:                                     15625.000000
 CELL_REF| Vector a [angstrom    25.000     0.000     0.000   |a| =    25.000000
 CELL_REF| Vector b [angstrom     0.000    25.000     0.000   |b| =    25.000000
 CELL_REF| Vector c [angstrom     0.000     0.000    25.000   |c| =    25.000000
 CELL_REF| Angle (b,c), alpha [degree]:                                90.000000
 CELL_REF| Angle (a,c), beta  [degree]:                                90.000000
 CELL_REF| Angle (a,b), gamma [degree]:                                90.000000
 CELL_REF| Numerically orthorhombic:                                         YES
 CELL_REF| Periodicity                                                      NONE

 GENERATE|  Preliminary Number of Bonds generated:                             0
 GENERATE|  Achieved consistency in connectivity generation.

 *******************************************************************************
 *******************************************************************************
 **                                                                           **
 **     #####                         ##              ##                      **
 **    ##   ##            ##          ##              ##                      **
 **   ##     ##                       ##            ######                    **
 **   ##     ##  ##   ##  ##   #####  ##  ##   ####   ##    #####    #####    **
 **   ##     ##  ##   ##  ##  ##      ## ##   ##      ##   ##   ##  ##   ##   **
 **   ##  ## ##  ##   ##  ##  ##      ####     ###    ##   ######   ######    **
 **    ##  ###   ##   ##  ##  ##      ## ##      ##   ##   ##       ##        **
 **     #######   #####   ##   #####  ##  ##  ####    ##    #####   ##        **
 **           ##                                                    ##        **
 **                                                                           **
 **                                                ... make the atoms dance   **
 **                                                                           **
 **            Copyright (C) by CP2K developers group (2000-2026)             **
 **                      J. Chem. Phys. 152, 194103 (2020)                    **
 **                                                                           **
 *******************************************************************************

 DFT| Spin restricted Kohn-Sham (RKS) calculation                            RKS
 DFT| Multiplicity                                                             1
 DFT| Number of spin states                                                    1
 DFT| Charge                                                                  -1
 DFT| Self-interaction correction (SIC)                                       NO
 DFT| Cutoffs: density                                              1.000000E-10
 DFT|          gradient                                             1.000000E-10
 DFT|          tau                                                  1.000000E-10
 DFT|          cutoff_smoothing_range                               0.000000E+00
 DFT| XC density smoothing                                                  NONE
 DFT| XC derivatives                                                          PW

 FUNCTIONAL| GAUXC:
 FUNCTIONAL| Functional computed by GauXC Skala model SKALA                     

 vdW POTENTIAL|                                                   Pair Potential
 vdW POTENTIAL|          DFT-D3 (Version 3.1)
 vdW POTENTIAL|          Potential Form: S. Grimme et al, JCP 132: 154104 (2010)
 vdW POTENTIAL|          BJ Damping: S. Grimme et al, JCC 32: 1456 (2011)
 vdW POTENTIAL|          Cutoff Radius [Bohr]:                             37.79
 vdW POTENTIAL|          s6 Scaling Factor:                               1.0000
 vdW POTENTIAL|          a1 Damping Factor:                               0.3981
 vdW POTENTIAL|          s8 Scaling Factor:                               1.9889
 vdW POTENTIAL|          a2 Damping Factor:                               4.4211
 vdW POTENTIAL|          Cutoff for CN calculation:                   0.1000E-05

 QS| Method:                                                             GAPW_XC
 QS| Density plane wave grid type                        NON-SPHERICAL FULLSPACE
 QS| Number of grid levels:                                                    5
 QS| Density cutoff [a.u.]:                                                200.0
 QS| Multi grid cutoff [a.u.]: 1) grid level                               200.0
 QS|                           2) grid level                                66.7
 QS|                           3) grid level                                22.2
 QS|                           4) grid level                                 7.4
 QS|                           5) grid level                                 2.5
 QS| Grid level progression factor:                                          3.0
 QS| Relative density cutoff [a.u.]:                                        30.0
 QS| Interaction thresholds: eps_pgf_orb:                                1.0E-06
 QS|                         eps_filter_matrix:                          0.0E+00
 QS|                         eps_core_charge:                            1.0E-14
 QS|                         eps_rho_gspace:                             1.0E-12
 QS|                         eps_rho_rspace:                             1.0E-12
 QS|                         eps_gvg_rspace:                             1.0E-06
 QS|                         eps_ppl:                                    1.0E-02
 QS|                         eps_ppnl:                                   1.0E-08
 QS| GAPW_XC|      One center basis extended with primitives (small:s)
 QS| GAPW_XC|                eps_fit:                                    1.0E-04
 QS| GAPW_XC|                eps_iso:                                    1.0E-12
 QS| GAPW_XC|                eps_svd:                                    1.0E-08
 QS| GAPW_XC|atom-r-grid: quadrature:                 GC_LOG                        
 QS| GAPW_XC|   atom-s-grid:  max l :                                          6


 ATOMIC KIND INFORMATION

  1. Atomic kind: F                                     Number of atoms:       1

     Orbital Basis Set                                   TZV2P-MOLOPT-PBE-GTH-q7

       Number of orbital shell sets:                                           1
       Number of orbital shells:                                               9
       Number of primitive Cartesian functions:                                5
       Number of Cartesian basis functions:                                   34
       Number of spherical basis functions:                                   29
       Norm type:                                                              2

       Normalised Cartesian orbitals:

                        Set   Shell   Orbital            Exponent    Coefficient

                          1       1    2s               13.230128       0.586894
                                                         4.658958       0.272548
                                                         1.661071      -0.478804
                                                         0.582845      -0.325281
                                                         0.184059      -0.003128

                          1       2    3s               13.230128      -0.044044
                                                         4.658958      -0.052062
                                                         1.661071      -0.023315
                                                         0.582845       0.015410
                                                         0.184059      -0.201893

                          1       3    4s               13.230128      -0.685993
                                                         4.658958      -0.857562
                                                         1.661071      -0.924267
                                                         0.582845       0.239042
                                                         0.184059       0.009157

                          1       4    3px              13.230128      -2.287349
                                                         4.658958      -1.957073
                                                         1.661071      -0.989276
                                                         0.582845      -0.301726
                                                         0.184059      -0.038285
                          1       4    3py              13.230128      -2.287349
                                                         4.658958      -1.957073
                                                         1.661071      -0.989276
                                                         0.582845      -0.301726
                                                         0.184059      -0.038285
                          1       4    3pz              13.230128      -2.287349
                                                         4.658958      -1.957073
                                                         1.661071      -0.989276
                                                         0.582845      -0.301726
                                                         0.184059      -0.038285

                          1       5    4px              13.230128       1.796410
                                                         4.658958       1.345222
                                                         1.661071       0.720906
                                                         0.582845       0.207142
                                                         0.184059      -0.191408
                          1       5    4py              13.230128       1.796410
                                                         4.658958       1.345222
                                                         1.661071       0.720906
                                                         0.582845       0.207142
                                                         0.184059      -0.191408
                          1       5    4pz              13.230128       1.796410
                                                         4.658958       1.345222
                                                         1.661071       0.720906
                                                         0.582845       0.207142
                                                         0.184059      -0.191408

                          1       6    5px              13.230128      26.308008
                                                         4.658958       0.669706
                                                         1.661071       1.489430
                                                         0.582845      -0.465500
                                                         0.184059       0.001793
                          1       6    5py              13.230128      26.308008
                                                         4.658958       0.669706
                                                         1.661071       1.489430
                                                         0.582845      -0.465500
                                                         0.184059       0.001793
                          1       6    5pz              13.230128      26.308008
                                                         4.658958       0.669706
                                                         1.661071       1.489430
                                                         0.582845      -0.465500
                                                         0.184059       0.001793

                          1       7    4dx2             13.230128       5.592265
                                                         4.658958       1.202899
                                                         1.661071       1.104191
                                                         0.582845       0.533766
                                                         0.184059      -0.009890
                          1       7    4dxy             13.230128       9.686087
                                                         4.658958       2.083481
                                                         1.661071       1.912514
                                                         0.582845       0.924509
                                                         0.184059      -0.017130
                          1       7    4dxz             13.230128       9.686087
                                                         4.658958       2.083481
                                                         1.661071       1.912514
                                                         0.582845       0.924509
                                                         0.184059      -0.017130
                          1       7    4dy2             13.230128       5.592265
                                                         4.658958       1.202899
                                                         1.661071       1.104191
                                                         0.582845       0.533766
                                                         0.184059      -0.009890
                          1       7    4dyz             13.230128       9.686087
                                                         4.658958       2.083481
                                                         1.661071       1.912514
                                                         0.582845       0.924509
                                                         0.184059      -0.017130
                          1       7    4dz2             13.230128       5.592265
                                                         4.658958       1.202899
                                                         1.661071       1.104191
                                                         0.582845       0.533766
                                                         0.184059      -0.009890

                          1       8    5dx2             13.230128       1.421148
                                                         4.658958       0.049543
                                                         1.661071       0.147053
                                                         0.582845       0.073835
                                                         0.184059       0.078288
                          1       8    5dxy             13.230128       2.461501
                                                         4.658958       0.085812
                                                         1.661071       0.254703
                                                         0.582845       0.127886
                                                         0.184059       0.135599
                          1       8    5dxz             13.230128       2.461501
                                                         4.658958       0.085812
                                                         1.661071       0.254703
                                                         0.582845       0.127886
                                                         0.184059       0.135599
                          1       8    5dy2             13.230128       1.421148
                                                         4.658958       0.049543
                                                         1.661071       0.147053
                                                         0.582845       0.073835
                                                         0.184059       0.078288
                          1       8    5dyz             13.230128       2.461501
                                                         4.658958       0.085812
                                                         1.661071       0.254703
                                                         0.582845       0.127886
                                                         0.184059       0.135599
                          1       8    5dz2             13.230128       1.421148
                                                         4.658958       0.049543
                                                         1.661071       0.147053
                                                         0.582845       0.073835
                                                         0.184059       0.078288

                          1       9    5fx3             13.230128       0.351491
                                                         4.658958      -0.348904
                                                         1.661071       0.009066
                                                         0.582845       0.437175
                                                         0.184059      -0.000045
                          1       9    5fx2y            13.230128       0.785957
                                                         4.658958      -0.780172
                                                         1.661071       0.020273
                                                         0.582845       0.977552
                                                         0.184059      -0.000100
                          1       9    5fx2z            13.230128       0.785957
                                                         4.658958      -0.780172
                                                         1.661071       0.020273
                                                         0.582845       0.977552
                                                         0.184059      -0.000100
                          1       9    5fxy2            13.230128       0.785957
                                                         4.658958      -0.780172
                                                         1.661071       0.020273
                                                         0.582845       0.977552
                                                         0.184059      -0.000100
                          1       9    5fxyz            13.230128       1.361318
                                                         4.658958      -1.351298
                                                         1.661071       0.035114
                                                         0.582845       1.693170
                                                         0.184059      -0.000173
                          1       9    5fxz2            13.230128       0.785957
                                                         4.658958      -0.780172
                                                         1.661071       0.020273
                                                         0.582845       0.977552
                                                         0.184059      -0.000100
                          1       9    5fy3             13.230128       0.351491
                                                         4.658958      -0.348904
                                                         1.661071       0.009066
                                                         0.582845       0.437175
                                                         0.184059      -0.000045
                          1       9    5fy2z            13.230128       0.785957
                                                         4.658958      -0.780172
                                                         1.661071       0.020273
                                                         0.582845       0.977552
                                                         0.184059      -0.000100
                          1       9    5fyz2            13.230128       0.785957
                                                         4.658958      -0.780172
                                                         1.661071       0.020273
                                                         0.582845       0.977552
                                                         0.184059      -0.000100
                          1       9    5fz3             13.230128       0.351491
                                                         4.658958      -0.348904
                                                         1.661071       0.009066
                                                         0.582845       0.437175
                                                         0.184059      -0.000045

       Atomic covalent radius [Angstrom]:                                  0.720

       Atomic van der Waals radius [Angstrom]:                             1.470

     The atoms of this atomic kind are PAW atoms (GAPW):
       Hard Gaussian function radius:                                      1.300
       Rho0 radius:                                                        1.300
       Maximum GTO radius used for PAW projector construction:            24.566

     GAPW Soft Basis Set                            TZV2P-MOLOPT-PBE-GTH-q7_soft

       Number of orbital shell sets:                                           1
       Number of orbital shells:                                               9
       Number of primitive Cartesian functions:                                4
       Number of Cartesian basis functions:                                   34
       Number of spherical basis functions:                                   29
       Norm type:                                                              2

       Normalised Cartesian orbitals:

                        Set   Shell   Orbital            Exponent    Coefficient

                          1       1    2s                4.658958       0.272548
                                                         1.661071      -0.478804
                                                         0.582845      -0.325281
                                                         0.184059      -0.003128

                          1       2    3s                4.658958      -0.052062
                                                         1.661071      -0.023315
                                                         0.582845       0.015410
                                                         0.184059      -0.201893

                          1       3    4s                4.658958      -0.857562
                                                         1.661071      -0.924267
                                                         0.582845       0.239042
                                                         0.184059       0.009157

                          1       4    3px               4.658958      -1.957073
                                                         1.661071      -0.989276
                                                         0.582845      -0.301726
                                                         0.184059      -0.038285
                          1       4    3py               4.658958      -1.957073
                                                         1.661071      -0.989276
                                                         0.582845      -0.301726
                                                         0.184059      -0.038285
                          1       4    3pz               4.658958      -1.957073
                                                         1.661071      -0.989276
                                                         0.582845      -0.301726
                                                         0.184059      -0.038285

                          1       5    4px               4.658958       1.345222
                                                         1.661071       0.720906
                                                         0.582845       0.207142
                                                         0.184059      -0.191408
                          1       5    4py               4.658958       1.345222
                                                         1.661071       0.720906
                                                         0.582845       0.207142
                                                         0.184059      -0.191408
                          1       5    4pz               4.658958       1.345222
                                                         1.661071       0.720906
                                                         0.582845       0.207142
                                                         0.184059      -0.191408

                          1       6    5px               4.658958       0.669706
                                                         1.661071       1.489430
                                                         0.582845      -0.465500
                                                         0.184059       0.001793
                          1       6    5py               4.658958       0.669706
                                                         1.661071       1.489430
                                                         0.582845      -0.465500
                                                         0.184059       0.001793
                          1       6    5pz               4.658958       0.669706
                                                         1.661071       1.489430
                                                         0.582845      -0.465500
                                                         0.184059       0.001793

                          1       7    4dx2              4.658958       1.202899
                                                         1.661071       1.104191
                                                         0.582845       0.533766
                                                         0.184059      -0.009890
                          1       7    4dxy              4.658958       2.083481
                                                         1.661071       1.912514
                                                         0.582845       0.924509
                                                         0.184059      -0.017130
                          1       7    4dxz              4.658958       2.083481
                                                         1.661071       1.912514
                                                         0.582845       0.924509
                                                         0.184059      -0.017130
                          1       7    4dy2              4.658958       1.202899
                                                         1.661071       1.104191
                                                         0.582845       0.533766
                                                         0.184059      -0.009890
                          1       7    4dyz              4.658958       2.083481
                                                         1.661071       1.912514
                                                         0.582845       0.924509
                                                         0.184059      -0.017130
                          1       7    4dz2              4.658958       1.202899
                                                         1.661071       1.104191
                                                         0.582845       0.533766
                                                         0.184059      -0.009890

                          1       8    5dx2              4.658958       0.049543
                                                         1.661071       0.147053
                                                         0.582845       0.073835
                                                         0.184059       0.078288
                          1       8    5dxy              4.658958       0.085812
                                                         1.661071       0.254703
                                                         0.582845       0.127886
                                                         0.184059       0.135599
                          1       8    5dxz              4.658958       0.085812
                                                         1.661071       0.254703
                                                         0.582845       0.127886
                                                         0.184059       0.135599
                          1       8    5dy2              4.658958       0.049543
                                                         1.661071       0.147053
                                                         0.582845       0.073835
                                                         0.184059       0.078288
                          1       8    5dyz              4.658958       0.085812
                                                         1.661071       0.254703
                                                         0.582845       0.127886
                                                         0.184059       0.135599
                          1       8    5dz2              4.658958       0.049543
                                                         1.661071       0.147053
                                                         0.582845       0.073835
                                                         0.184059       0.078288

                          1       9    5fx3              4.658958      -0.348904
                                                         1.661071       0.009066
                                                         0.582845       0.437175
                                                         0.184059      -0.000045
                          1       9    5fx2y             4.658958      -0.780172
                                                         1.661071       0.020273
                                                         0.582845       0.977552
                                                         0.184059      -0.000100
                          1       9    5fx2z             4.658958      -0.780172
                                                         1.661071       0.020273
                                                         0.582845       0.977552
                                                         0.184059      -0.000100
                          1       9    5fxy2             4.658958      -0.780172
                                                         1.661071       0.020273
                                                         0.582845       0.977552
                                                         0.184059      -0.000100
                          1       9    5fxyz             4.658958      -1.351298
                                                         1.661071       0.035114
                                                         0.582845       1.693170
                                                         0.184059      -0.000173
                          1       9    5fxz2             4.658958      -0.780172
                                                         1.661071       0.020273
                                                         0.582845       0.977552
                                                         0.184059      -0.000100
                          1       9    5fy3              4.658958      -0.348904
                                                         1.661071       0.009066
                                                         0.582845       0.437175
                                                         0.184059      -0.000045
                          1       9    5fy2z             4.658958      -0.780172
                                                         1.661071       0.020273
                                                         0.582845       0.977552
                                                         0.184059      -0.000100
                          1       9    5fyz2             4.658958      -0.780172
                                                         1.661071       0.020273
                                                         0.582845       0.977552
                                                         0.184059      -0.000100
                          1       9    5fz3              4.658958      -0.348904
                                                         1.661071       0.009066
                                                         0.582845       0.437175
                                                         0.184059      -0.000045

     GTH Potential information for                                    GTH-PBE-q7

       Description:                       Goedecker-Teter-Hutter pseudopotential
                                           Goedecker et al., PRB 54, 1703 (1996)
                                          Hartwigsen et al., PRB 58, 3641 (1998)
                                                      Krack, TCA 114, 145 (2005)

       Gaussian exponent of the core charge distribution:              10.837499
       Electronic configuration (s p d ...):                       2   5   0   0

       Parameters of the local part of the GTH pseudopotential:

                          rloc        C1          C2          C3          C4
                        0.214793  -21.583009    3.202162

       Parameters of the non-local part of the GTH pseudopotential:

                   l      r(l)      h(i,j,l)

                   0    0.194689   23.745217


 MOLECULE KIND INFORMATION


 All atoms are their own molecule, skipping detailed information


 TOTAL NUMBERS AND MAXIMUM NUMBERS

  Total number of            - Atomic kinds:                                   1
                             - Atoms:                                          1
                             - Shell sets:                                     1
                             - Shells:                                         9
                             - Primitive Cartesian functions:                  5
                             - Cartesian basis functions:                     34
                             - Spherical basis functions:                     29

  Maximum angular momentum of- Orbital basis functions:                        3
                             - Local part of the GTH pseudopotential:          2
                             - Non-local part of the GTH pseudopotential:      0


 MODULE QUICKSTEP: ATOMIC COORDINATES IN ANGSTROM

   Atom Kind Element         X             Y             Z       Z(eff)     Mass
      1    1 F     9     12.500000     12.500000     12.500000   7.0000  18.9984



 SCF PARAMETERS         Density guess:                                    ATOMIC
                        --------------------------------------------------------
                        max_scf:                                             200
                        max_scf_history:                                       0
                        max_diis:                                              4
                        --------------------------------------------------------
                        eps_scf:                                        1.00E-07
                        eps_scf_history:                                0.00E+00
                        eps_diis:                                       0.00E+00
                        eps_eigval:                                     1.00E-05
                        --------------------------------------------------------
                        level_shift [a.u.]:                             0.000000
                        --------------------------------------------------------
                        Outer loop SCF in use 
                        No variables optimised in outer loop
                        eps_scf                                         1.00E-07
                        max_scf                                               20
                        No outer loop optimization
                        step_size                                       5.00E-01

 PW_GRID| Information for grid number                                          1
 PW_GRID| Cutoff [a.u.]                                                    200.0
 PW_GRID| spherical cutoff:                                                   NO
 PW_GRID|   Bounds   1           -160     159                Points:         320
 PW_GRID|   Bounds   2           -160     159                Points:         320
 PW_GRID|   Bounds   3           -160     159                Points:         320
 PW_GRID| Volume element (a.u.^3)  0.3218E-02     Volume (a.u.^3)    105442.7279
 PW_GRID| Grid span                                                    FULLSPACE

 PW_GRID| Information for grid number                                          2
 PW_GRID| Number of the reference grid                                         1
 PW_GRID| Cutoff [a.u.]                                                     66.7
 PW_GRID| spherical cutoff:                                                   NO
 PW_GRID|   Bounds   1            -90      89                Points:         180
 PW_GRID|   Bounds   2            -90      89                Points:         180
 PW_GRID|   Bounds   3            -90      89                Points:         180
 PW_GRID| Volume element (a.u.^3)  0.1808E-01     Volume (a.u.^3)    105442.7279
 PW_GRID| Grid span                                                    FULLSPACE

 PW_GRID| Information for grid number                                          3
 PW_GRID| Number of the reference grid                                         1
 PW_GRID| Cutoff [a.u.]                                                     22.2
 PW_GRID| spherical cutoff:                                                   NO
 PW_GRID|   Bounds   1            -54      53                Points:         108
 PW_GRID|   Bounds   2            -54      53                Points:         108
 PW_GRID|   Bounds   3            -54      53                Points:         108
 PW_GRID| Volume element (a.u.^3)  0.8370E-01     Volume (a.u.^3)    105442.7279
 PW_GRID| Grid span                                                    FULLSPACE

 PW_GRID| Information for grid number                                          4
 PW_GRID| Number of the reference grid                                         1
 PW_GRID| Cutoff [a.u.]                                                      7.4
 PW_GRID| spherical cutoff:                                                   NO
 PW_GRID|   Bounds   1            -30      29                Points:          60
 PW_GRID|   Bounds   2            -30      29                Points:          60
 PW_GRID|   Bounds   3            -30      29                Points:          60
 PW_GRID| Volume element (a.u.^3)  0.4882         Volume (a.u.^3)    105442.7279
 PW_GRID| Grid span                                                    FULLSPACE

 PW_GRID| Information for grid number                                          5
 PW_GRID| Number of the reference grid                                         1
 PW_GRID| Cutoff [a.u.]                                                      2.5
 PW_GRID| spherical cutoff:                                                   NO
 PW_GRID|   Bounds   1            -18      17                Points:          36
 PW_GRID|   Bounds   2            -18      17                Points:          36
 PW_GRID|   Bounds   3            -18      17                Points:          36
 PW_GRID| Volume element (a.u.^3)   2.260         Volume (a.u.^3)    105442.7279
 PW_GRID| Grid span                                                    FULLSPACE

 POISSON| Solver                                                        ANALYTIC
 POISSON| Periodicity                                                       NONE

 RS_GRID| Information for grid number                                          1
 RS_GRID|   Bounds   1           -160     159                Points:         320
 RS_GRID|   Bounds   2           -160     159                Points:         320
 RS_GRID|   Bounds   3           -160     159                Points:         320

 RS_GRID| Information for grid number                                          2
 RS_GRID|   Bounds   1            -90      89                Points:         180
 RS_GRID|   Bounds   2            -90      89                Points:         180
 RS_GRID|   Bounds   3            -90      89                Points:         180

 RS_GRID| Information for grid number                                          3
 RS_GRID|   Bounds   1            -54      53                Points:         108
 RS_GRID|   Bounds   2            -54      53                Points:         108
 RS_GRID|   Bounds   3            -54      53                Points:         108

 RS_GRID| Information for grid number                                          4
 RS_GRID|   Bounds   1            -30      29                Points:          60
 RS_GRID|   Bounds   2            -30      29                Points:          60
 RS_GRID|   Bounds   3            -30      29                Points:          60

 RS_GRID| Information for grid number                                          5
 RS_GRID|   Bounds   1            -18      17                Points:          36
 RS_GRID|   Bounds   2            -18      17                Points:          36
 RS_GRID|   Bounds   3            -18      17                Points:          36

 Extrapolation method: initial_guess

 Atomic guess: The first density matrix is obtained in terms of atomic orbitals
               and electronic configurations assigned to each atomic kind

 Guess for atomic kind: F

 Electronic structure
    Total number of core electrons                                          2.00
    Total number of valence electrons                                       7.00
    Total number of electrons                                               9.00
    Multiplicity                                                   not specified
    S   [  2.00] 2.00
    P      5.00


 *******************************************************************************
                  Iteration          Convergence                     Energy [au]
 *******************************************************************************
                          1         1.47388                     -23.750040510103
                          2         1.46450                     -23.760262540981
                          3        0.134199                     -23.935274951865
                          4        0.603284E-02                 -23.937034274186
                          5        0.256965E-04                 -23.937036768103
                          6        0.506095E-06                 -23.937036768127

 Energy components [Hartree]           Total Energy ::          -23.937036768127
                                        Band Energy ::           -4.156437176315
                                     Kinetic Energy ::           18.798322236864
                                   Potential Energy ::          -42.735359004990
                                      Virial (-V/T) ::            2.273360274737
                                        Core Energy ::          -40.720246002655
                                          XC Energy ::           -4.362239295788
                                     Coulomb Energy ::           21.145448530316
                       Total Pseudopotential Energy ::          -59.552953845001
                       Local Pseudopotential Energy ::          -61.256534641163
                    Nonlocal Pseudopotential Energy ::            1.703580796162
                                        Confinement ::            0.343856054819

 Orbital energies  State     L     Occupation   Energy[a.u.]          Energy[eV]

                       1     0          2.000      -1.085228          -29.530568

                       1     1          5.000      -0.397196          -10.808254


 Total Electron Density at R=0:                                         0.000084
 Re-scaling the density matrix to get the right number of electrons
                  # Electrons              Trace(P)               Scaling factor
                            8                 7.000                        1.143

 Number of electrons:                                                          8
 Number of occupied orbitals:                                                  4
 Number of molecular orbitals:                                                 4

 Number of orbital functions:                                                 29
 Number of independent orbital functions:                                     29


 SCF WAVEFUNCTION OPTIMIZATION

  ----------------------------------- OT ---------------------------------------
  Minimizer      : DIIS                : direct inversion
                                         in the iterative subspace
                                         using   7 DIIS vectors
                                         safer DIIS on
  Preconditioner : FULL_ALL            : diagonalization, state selective
  Precond_solver : DEFAULT
  stepsize       :    0.10000000                  energy_gap     :    0.00100000
  eps_taylor     :   0.10000E-15                  max_taylor     :             4
  ----------------------------------- OT ---------------------------------------

  Step     Update method      Time    Convergence         Total energy    Change
  ------------------------------------------------------------------------------
 SKALA_GPW| Atom-composite cross support/maxima   1.694449146543E+00   0.000000000000E+00   0.000000000000E+00   0.000000000000E+00

 SKALA_GPW| Native grid Torch CUDA device 0 of 1 requested -1
 SKALA_GPW| Native grid Torch CUDA rank devices 0:0
 SKALA_GPW| Active atom-composite XC energy  -5.3365268380778614E+00
 SKALA_GPW| Active atom-composite electrons   7.9999961505612127E+00
 SKALA_GPW| Active atom-composite density range  -5.3720842456228305E-11   1.0503018034350429E+00
 SKALA_GPW| Active atom-composite tau range  -1.6499872317498461E-09   4.6550935035446443E+01
 SKALA_GPW| Active atom-composite tau integral   2.2071261305798068E+01
 SKALA_GPW| Active atom-composite max gradient   5.1593800735258881E+00
     1 OT DIIS     0.10E+00    9.5     0.16855155       -24.1162387820 -2.41E+01
 SKALA_GPW| Atom-composite cross support/maxima   1.694449146543E+00   0.000000000000E+00   0.000000000000E+00   0.000000000000E+00
 SKALA_GPW| Active atom-composite XC energy  -4.7884152173896517E+00
 SKALA_GPW| Active atom-composite electrons   7.9999969510493152E+00
 SKALA_GPW| Active atom-composite density range  -7.8503444181857504E-11   8.6535838041512081E-01
 SKALA_GPW| Active atom-composite tau range  -2.3089147355839698E-09   3.7024645543002002E+01
 SKALA_GPW| Active atom-composite tau integral   1.8433781213768739E+01
 SKALA_GPW| Active atom-composite max gradient   4.1554107692397642E+00
     2 OT DIIS     0.10E+00   10.7     0.05533377       -24.2383424889 -1.22E-01
 SKALA_GPW| Atom-composite cross support/maxima   1.694449146543E+00   0.000000000000E+00   0.000000000000E+00   0.000000000000E+00
 SKALA_GPW| Active atom-composite XC energy  -4.9262024646353613E+00
 SKALA_GPW| Active atom-composite electrons   7.9999967508569947E+00
 SKALA_GPW| Active atom-composite density range  -7.3180410784344461E-11   9.0787040622172932E-01
 SKALA_GPW| Active atom-composite tau range  -2.1778989675319936E-09   3.8775580851349886E+01
 SKALA_GPW| Active atom-composite tau integral   1.9287599978228620E+01
 SKALA_GPW| Active atom-composite max gradient   4.3588894722942726E+00
     3 OT DIIS     0.10E+00   12.6     0.00788695       -24.2502141576 -1.19E-02
 SKALA_GPW| Atom-composite cross support/maxima   1.694449146543E+00   0.000000000000E+00   0.000000000000E+00   0.000000000000E+00
 SKALA_GPW| Active atom-composite XC energy  -4.8921815730097045E+00
 SKALA_GPW| Active atom-composite electrons   7.9999968047342334E+00
 SKALA_GPW| Active atom-composite density range  -7.4338940676653239E-11   8.9060171959644630E-01
 SKALA_GPW| Active atom-composite tau range  -2.2053563268441218E-09   3.7304753135047392E+01
 SKALA_GPW| Active atom-composite tau integral   1.8971167373853621E+01
 SKALA_GPW| Active atom-composite max gradient   4.2297162153733883E+00
     4 OT DIIS     0.10E+00   11.6     0.00982795       -24.2505950800 -3.81E-04
 SKALA_GPW| Atom-composite cross support/maxima   1.694449146543E+00   0.000000000000E+00   0.000000000000E+00   0.000000000000E+00
 SKALA_GPW| Active atom-composite XC energy  -4.9027741076340634E+00
 SKALA_GPW| Active atom-composite electrons   7.9999967899599245E+00
 SKALA_GPW| Active atom-composite density range  -7.3787707396314923E-11   8.9105746900543459E-01
 SKALA_GPW| Active atom-composite tau range  -2.1908219531259287E-09   3.7031279972163532E+01
 SKALA_GPW| Active atom-composite tau integral   1.8997388523996069E+01
 SKALA_GPW| Active atom-composite max gradient   4.2134300201046040E+00
     5 OT DIIS     0.10E+00   11.1     0.00707011       -24.2508341355 -2.39E-04
 SKALA_GPW| Atom-composite cross support/maxima   1.694449146543E+00   0.000000000000E+00   0.000000000000E+00   0.000000000000E+00
 SKALA_GPW| Active atom-composite XC energy  -4.9104095967586474E+00
 SKALA_GPW| Active atom-composite electrons   7.9999967780360617E+00
 SKALA_GPW| Active atom-composite density range  -7.3554987994439554E-11   8.9529478831358522E-01
 SKALA_GPW| Active atom-composite tau range  -2.1854581783534128E-09   3.7407514599139340E+01
 SKALA_GPW| Active atom-composite tau integral   1.9072170420849424E+01
 SKALA_GPW| Active atom-composite max gradient   4.2463558660507257E+00
     6 OT DIIS     0.10E+00   11.6     0.00209833       -24.2509931786 -1.59E-04
 SKALA_GPW| Atom-composite cross support/maxima   1.694449146543E+00   0.000000000000E+00   0.000000000000E+00   0.000000000000E+00
 SKALA_GPW| Active atom-composite XC energy  -4.9176836444530405E+00
 SKALA_GPW| Active atom-composite electrons   7.9999967664412104E+00
 SKALA_GPW| Active atom-composite density range  -7.3226149101586732E-11   8.9754168043923932E-01
 SKALA_GPW| Active atom-composite tau range  -2.1771620114225910E-09   3.7517564098637514E+01
 SKALA_GPW| Active atom-composite tau integral   1.9120478738591977E+01
 SKALA_GPW| Active atom-composite max gradient   4.2578194229867847E+00
     7 OT DIIS     0.10E+00   10.8     0.00177870       -24.2510006407 -7.46E-06
 SKALA_GPW| Atom-composite cross support/maxima   1.694449146543E+00   0.000000000000E+00   0.000000000000E+00   0.000000000000E+00
 SKALA_GPW| Active atom-composite XC energy  -4.9169459242883748E+00
 SKALA_GPW| Active atom-composite electrons   7.9999967675954755E+00
 SKALA_GPW| Active atom-composite density range  -7.3248910446323352E-11   8.9712529903585314E-01
 SKALA_GPW| Active atom-composite tau range  -2.1776906293953933E-09   3.7480686494394320E+01
 SKALA_GPW| Active atom-composite tau integral   1.9113192884293678E+01
 SKALA_GPW| Active atom-composite max gradient   4.2545795720989910E+00
     8 OT DIIS     0.10E+00   11.3     0.00125905       -24.2510074653 -6.82E-06
 SKALA_GPW| Atom-composite cross support/maxima   1.694449146543E+00   0.000000000000E+00   0.000000000000E+00   0.000000000000E+00
 SKALA_GPW| Active atom-composite XC energy  -4.9147331171615836E+00
 SKALA_GPW| Active atom-composite electrons   7.9999967710604407E+00
 SKALA_GPW| Active atom-composite density range  -7.3320893362740403E-11   8.9594536187639295E-01
 SKALA_GPW| Active atom-composite tau range  -2.1793856040044567E-09   3.7379754496400778E+01
 SKALA_GPW| Active atom-composite tau integral   1.9092276156120029E+01
 SKALA_GPW| Active atom-composite max gradient   4.2456240334108468E+00
     9 OT DIIS     0.10E+00   11.2     0.00028528       -24.2510137100 -6.24E-06
 SKALA_GPW| Atom-composite cross support/maxima   1.694449146543E+00   0.000000000000E+00   0.000000000000E+00   0.000000000000E+00
 SKALA_GPW| Active atom-composite XC energy  -4.9150592955930419E+00
 SKALA_GPW| Active atom-composite electrons   7.9999967705739987E+00
 SKALA_GPW| Active atom-composite density range  -7.3317520652025585E-11   8.9623368485470012E-01
 SKALA_GPW| Active atom-composite tau range  -2.1793485382658419E-09   3.7410735670242957E+01
 SKALA_GPW| Active atom-composite tau integral   1.9096860345945018E+01
 SKALA_GPW| Active atom-composite max gradient   4.2482172170944015E+00
    10 OT DIIS     0.10E+00   10.8     0.00018010       -24.2510138673 -1.57E-07
 SKALA_GPW| Atom-composite cross support/maxima   1.694449146543E+00   0.000000000000E+00   0.000000000000E+00   0.000000000000E+00
 SKALA_GPW| Active atom-composite XC energy  -4.9150821201939223E+00
 SKALA_GPW| Active atom-composite electrons   7.9999967705350858E+00
 SKALA_GPW| Active atom-composite density range  -7.3313204491404031E-11   8.9618038155460589E-01
 SKALA_GPW| Active atom-composite tau range  -2.1792246466099972E-09   3.7402737622985711E+01
 SKALA_GPW| Active atom-composite tau integral   1.9096232309765412E+01
 SKALA_GPW| Active atom-composite max gradient   4.2475833560614342E+00
    11 OT DIIS     0.10E+00   11.0     0.00005976       -24.2510140379 -1.71E-07
 SKALA_GPW| Atom-composite cross support/maxima   1.694449146543E+00   0.000000000000E+00   0.000000000000E+00   0.000000000000E+00
 SKALA_GPW| Active atom-composite XC energy  -4.9150822003272934E+00
 SKALA_GPW| Active atom-composite electrons   7.9999967705348123E+00
 SKALA_GPW| Active atom-composite density range  -7.3313069753355180E-11   8.9617766075274796E-01
 SKALA_GPW| Active atom-composite tau range  -2.1792203592425712E-09   3.7402380346035351E+01
 SKALA_GPW| Active atom-composite tau integral   1.9096200550610494E+01
 SKALA_GPW| Active atom-composite max gradient   4.2475535488762759E+00
    12 OT SD       0.10E+00   10.9     0.00005430       -24.2510140171  2.08E-08
 SKALA_GPW| Atom-composite cross support/maxima   1.694449146543E+00   0.000000000000E+00   0.000000000000E+00   0.000000000000E+00
 SKALA_GPW| Active atom-composite XC energy  -4.9150638660498540E+00
 SKALA_GPW| Active atom-composite electrons   7.9999967705594965E+00
 SKALA_GPW| Active atom-composite density range  -7.3312060372560510E-11   8.9613916037552011E-01
 SKALA_GPW| Active atom-composite tau range  -2.1791870190452662E-09   3.7397727337278198E+01
 SKALA_GPW| Active atom-composite tau integral   1.9095680279065306E+01
 SKALA_GPW| Active atom-composite max gradient   4.2471651053541111E+00
    13 OT DIIS     0.10E+00   11.1     0.00001640       -24.2510140288 -1.16E-08
 SKALA_GPW| Atom-composite cross support/maxima   1.694449146543E+00   0.000000000000E+00   0.000000000000E+00   0.000000000000E+00
 SKALA_GPW| Active atom-composite XC energy  -4.9150832178509507E+00
 SKALA_GPW| Active atom-composite electrons   7.9999967705316166E+00
 SKALA_GPW| Active atom-composite density range  -7.3312119802579129E-11   8.9616089711103608E-01
 SKALA_GPW| Active atom-composite tau range  -2.1791924556694518E-09   3.7400144345072150E+01
 SKALA_GPW| Active atom-composite tau integral   1.9096002646184182E+01
 SKALA_GPW| Active atom-composite max gradient   4.2473685641998991E+00
    14 OT DIIS     0.10E+00   11.2     0.00002020       -24.2510140386 -9.79E-09
 SKALA_GPW| Atom-composite cross support/maxima   1.694449146543E+00   0.000000000000E+00   0.000000000000E+00   0.000000000000E+00
 SKALA_GPW| Active atom-composite XC energy  -4.9150845427043270E+00
 SKALA_GPW| Active atom-composite electrons   7.9999967705286883E+00
 SKALA_GPW| Active atom-composite density range  -7.3311518613959016E-11   8.9615132549493814E-01
 SKALA_GPW| Active atom-composite tau range  -2.1791748562530486E-09   3.7398833459084358E+01
 SKALA_GPW| Active atom-composite tau integral   1.9095889911786664E+01
 SKALA_GPW| Active atom-composite max gradient   4.2472611902390467E+00
    15 OT DIIS     0.10E+00   10.8     0.00000017       -24.2510140273  1.13E-08
 SKALA_GPW| Atom-composite cross support/maxima   1.694449146543E+00   0.000000000000E+00   0.000000000000E+00   0.000000000000E+00
 SKALA_GPW| Active atom-composite XC energy  -4.9150845484773837E+00
 SKALA_GPW| Active atom-composite electrons   7.9999967705286936E+00
 SKALA_GPW| Active atom-composite density range  -7.3311520378347787E-11   8.9615121461472524E-01
 SKALA_GPW| Active atom-composite tau range  -2.1791746718446425E-09   3.7398819061071748E+01
 SKALA_GPW| Active atom-composite tau integral   1.9095888637364311E+01
 SKALA_GPW| Active atom-composite max gradient   4.2472599821288552E+00
    16 OT DIIS     0.10E+00   10.8     0.00000005       -24.2510140250  2.25E-09

  *** SCF run converged in    16 steps ***


  Electronic density on regular grids:         -7.9999999623        0.0000000377
  Core density on regular grids:                7.0000000000       -0.0000000000
  Total charge density on r-space grids:       -0.9999999623
  Total charge density g-space grids:          -0.9999999623

  Overlap energy of the core charge distribution:               0.00000000000000
  Self energy of the core charge distribution:                -64.35327919171354
  Core Hamiltonian energy:                                     18.02151837218296
  Hartree energy:                                              26.99583134297107
  Exchange-correlation energy:                                  0.00000000000000

  GAPW_XC| Exc from hard and soft atomic rho1:                 -4.91508454847738

  Total energy:                                               -24.25101402503690

  outer SCF iter =    1 RMS gradient =   0.50E-07 energy =        -24.2510140250
  outer SCF loop converged in   1 iterations or   16 steps


 !-----------------------------------------------------------------------------!
                     Mulliken Population Analysis

 #  Atom  Element  Kind  Atomic population                           Net charge
       1     F        1          8.000000                             -1.000000
 # Total charge                              8.000000                 -1.000000

 !-----------------------------------------------------------------------------!

 !-----------------------------------------------------------------------------!
                           Hirshfeld Charges

  #Atom  Element  Kind  Ref Charge     Population                    Net charge
      1       F      1       7.000          7.999                        -0.999

  Total Charge                                                           -0.999
 !-----------------------------------------------------------------------------!

 ENERGY| Total FORCE_EVAL ( QS ) energy [hartree]            -24.251014025036898

 -------------------------------------------------------------------------------
 -                                                                             -
 -                                DBCSR STATISTICS                             -
 -                                                                             -
 -------------------------------------------------------------------------------
 COUNTER                                    TOTAL       BLAS       SMM       ACC
 flops     4 x     4 x     4                30336       0.0%    100.0%      0.0%     
 flops     4 x     4 x    29                60320       0.0%    100.0%      0.0%     
 flops    29 x     4 x     4                75168       0.0%    100.0%      0.0%     
 flops    29 x    29 x     4               114376       0.0%    100.0%      0.0%     
 flops    29 x     4 x    29               504600       0.0%    100.0%      0.0%     
 flops inhomo. stacks                           0       0.0%      0.0%      0.0%
 flops total                       784.800000E+03       0.0%    100.0%      0.0%
 flops max/rank                    784.800000E+03       0.0%    100.0%      0.0%
 matmuls inhomo. stacks                         0       0.0%      0.0%      0.0%
 matmuls total                                475       0.0%    100.0%      0.0%
 number of processed stacks                   475       0.0%    100.0%      0.0%
 average stack size                                     0.0       1.0       0.0
 marketing flops                   785.728000E+03
 -------------------------------------------------------------------------------
 # multiplications                            476
 max memory usage/rank             360.022573E+09
 # max total images/rank                        1
 # max 3D layers                                1
 # MPI messages exchanged                       0
 -------------------------------------------------------------------------------
 -                                                                             -
 -                      DBCSR MESSAGE PASSING PERFORMANCE                      -
 -                                                                             -
 -------------------------------------------------------------------------------
 ROUTINE             CALLS      AVE VOLUME [Bytes]
 MP_Bcast                6                     12.
 MP_Allreduce         2326                      8.
 MP_Alltoall          1471                    199.
 MP_ISend             1900                     20.
 MP_IRecv             1900                     20.
 -------------------------------------------------------------------------------

 -------------------------------------------------------------------------------
 -                                                                             -
 -                                GRID STATISTICS                              -
 -                                                                             -
 -------------------------------------------------------------------------------
 LP    KERNEL             BACKEND                              COUNT     PERCENT
 6     collocate ortho    CPU                                    697      36.98%
 6     integrate ortho    CPU                                    656      34.80%
 8     collocate ortho    CPU                                    272      14.43%
 8     integrate ortho    CPU                                    256      13.58%
 0     collocate general  CPU                                      3       0.16%
 0     integrate general  CPU                                      1       0.05%
 -------------------------------------------------------------------------------

 -------------------------------------------------------------------------------
 -                                                                             -
 -                          OFFLOAD MEMPOOL STATISTICS                         -
 -                                                                             -
 -------------------------------------------------------------------------------
 Memory consumption                Number of allocations  Used [MiB]  Size [MiB]
 Host                                                  9         306   268435334
 -------------------------------------------------------------------------------

 MEMORY| Estimated peak process memory [MiB]                               23605

 -------------------------------------------------------------------------------
 ----                             MULTIGRID INFO                            ----
 -------------------------------------------------------------------------------
 count for grid        1:           7814          cutoff [a.u.]          200.00
 count for grid        2:           2080          cutoff [a.u.]           66.67
 count for grid        3:            452          cutoff [a.u.]           22.22
 count for grid        4:             45          cutoff [a.u.]            7.41
 count for grid        5:              0          cutoff [a.u.]            2.47
 total gridlevel count  :          10391

 -------------------------------------------------------------------------------
 -                                                                             -
 -                         MESSAGE PASSING PERFORMANCE                         -
 -                                                                             -
 -------------------------------------------------------------------------------

 ROUTINE             CALLS      AVE VOLUME [Bytes]
 MP_Group               21
 MP_Bcast              140                  47366.
 MP_Allreduce         1191               35272318.
 MP_Sync                10
 MP_comm_split           5
 -------------------------------------------------------------------------------


 -------------------------------------------------------------------------------
 -                                                                             -
 -                           R E F E R E N C E S                               -
 -                                                                             -
 -------------------------------------------------------------------------------
 
 CP2K version 2026.2 (Development Version), the CP2K developers group (2026).
 CP2K is freely available from https://www.cp2k.org/ .
 
 M. Iannuzzi, J. Wilhelm, F. Stein, A. Bussy, H. Elgabarty, D. Golze, A. Hehn, 
 M. Graml, S. Marek, B. Sertcan Gökmen, C. Schran, H. Forbert, R. Z. 
 Khaliullin, A. Kozhevnikov, M. Taillefumier, R. Meli, V. V. Rybkin, M. Brehm, 
 R. Schade, O. Schütt, J. V. Pototschnig, H. Mirhosseini, A. Knüpfer, D. Marx, 
 M. Krack, J. Hutter, T. D. Kühne.
 J. Phys. Chem. B 130, 1237-1310 (2026).
 The CP2K Program Package Made Simple.
 https://doi.org/10.1021/acs.jpcb.5c05851

 L. Wittmann, I. Gordiy, M. Friede, B. Helmich-Paris, S. Grimme, A. Hansen, M. 
 Bursch.
 Phys. Chem. Chem. Phys. 26, 21379-21394 (2024).
 Extension of the D3 and D4 London dispersion corrections to the full actinides 
 series.
 https://doi.org/10.1039/d4cp01514b

 T. D. Kühne, M. Iannuzzi, M. Del Ben, V. V. Rybkin, P. Seewald, F. Stein, T. 
 Laino, R. Z. Khaliullin, O. Schütt, F. Schiffmann, D. Golze, J. Wilhelm, S. 
 Chulkov, M. H. Bani-Hashemian, V. Weber, U. Borstnik, M. Taillefumier, A. S. 
 Jakobovits, A. Lazzaro, H. Pabst, T. Müller, R. Schade, M. Guidon, S. 
 Andermatt, N. Holmberg, G. K. Schenter, A. Hehn, A. Bussy, F. Belleflamme, G. 
 Tabacchi, A. Glöß, M. Lass, I. Bethune, C. J. Mundy, C. Plessl, M. Watkins, 
 J. VandeVondele, M. Krack, J. Hutter.
 J. Chem. Phys. 152, 194103 (2020).
 CP2K: An electronic structure and molecular dynamics software package - 
 Quickstep: Efficient and accurate electronic structure calculations.
 https://doi.org/10.1063/5.0007045

 L. Goerigk, A. Hansen, C. Bauer, S. Ehrlich, A. Najibi, S. Grimme.
 Phys. Chem. Chem. Phys. 19, 32184-32215 (2017).
 A look at the density functional theory zoo with the advanced GMTKN55 database 
 for general main group thermochemistry, kinetics and noncovalent interactions.
 https://doi.org/10.1039/C7CP04913G

 O. Schuett, P. Messmer, J. Hutter, J. VandeVondele.
 Electronic Structure Calculations on Graphics Processing Units, 173-190 (2016).
 GPU-Accelerated Sparse Matrix-Matrix Multiplication for Linear Scaling Density 
 Functional Theory.
 https://doi.org/10.1002/9781118670712.ch8

 U. Borstnik, J. VandeVondele, V. Weber, J. Hutter.
 Parallel Comput. 40, 47-58 (2014).
 Sparse matrix multiplication: The distributed block-compressed sparse row 
 library.
 https://doi.org/10.1016/j.parco.2014.03.012

 S. Grimme, S. Ehrlich, L. Goerigk.
 J. Comput. Chem. 32, 1456 (2011).
 Effect of the damping function in dispersion corrected density functional 
 theory.
 https://doi.org/10.1002/jcc.21759

 S. Grimme, J. Antony, S. Ehrlich, H. Krieg.
 J. Chem. Phys. 132, 154104 (2010).
 A consistent and accurate ab initio parametrization of density functional 
 dispersion correction (DFT-D) for the 94 elements H-Pu.
 https://doi.org/10.1063/1.3382344

 J. VandeVondele, J. Hutter.
 J. Chem. Phys. 127, 114105 (2007).
 Gaussian basis sets for accurate calculations on molecular systems in gas and 
 condensed phases.
 https://doi.org/10.1063/1.2770708

 M. Krack.
 Theor. Chem. Acc. 114, 145-152 (2005).
 Pseudopotentials for H to Kr optimized for gradient-corrected 
 exchange-correlation functionals.
 https://doi.org/10.1007/s00214-005-0655-y

 M. Frigo, S. G. Johnson.
 Proc. IEEE 93, 216-231 (2005).
 The design and implementation of FFTW3.
 https://doi.org/10.1109/JPROC.2004.840301

 J. VandeVondele, J. Hutter.
 J. Chem. Phys. 118, 4365-4369 (2003).
 An efficient orbital transformation method for electronic structure 
 calculations.
 https://doi.org/10.1063/1.1543154

 C. Hartwigsen, S. Goedecker, J. Hutter.
 Phys. Rev. B 58, 3641-3662 (1998).
 Relativistic separable dual-space Gaussian pseudopotentials from H to Rn.
 https://doi.org/10.1103/PhysRevB.58.3641

 S. Goedecker, M. Teter, J. Hutter.
 Phys. Rev. B 54, 1703-1710 (1996).
 Separable dual-space Gaussian pseudopotentials.
 https://doi.org/10.1103/PhysRevB.54.1703


 -------------------------------------------------------------------------------
 -                                                                             -
 -                                T I M I N G                                  -
 -                                                                             -
 -------------------------------------------------------------------------------
 SUBROUTINE                       CALLS  ASD         SELF TIME        TOTAL TIME
                                MAXIMUM       AVERAGE  MAXIMUM  AVERAGE  MAXIMUM
 CP2K                                 1  1.0    0.600    0.600  190.843  190.843
 qs_energies                          1  2.0    0.000    0.000  184.031  184.031
 scf_env_do_scf                       1  3.0    0.000    0.000  179.842  179.842
 scf_env_do_scf_inner_loop           16  4.0    0.001    0.001  170.402  170.402
 qs_ks_update_qs_env                 17  5.0    0.000    0.000  130.576  130.576
 rebuild_ks_matrix                   16  6.0    0.000    0.000  130.575  130.575
 qs_ks_build_kohn_sham_matrix        16  7.0    0.003    0.003  130.575  130.575
 fft_wrap_pw1pw2                    675  9.5    0.012    0.012  103.238  103.238
 calculate_vxc_atom                  16  8.0   43.457   43.457   97.135   97.135
 fft_wrap_pw1pw2_200                279 10.5   27.680   27.680   95.823   95.823
 qs_rho_update_rho_low               17  5.0    0.000    0.000   52.280   52.280
 calculate_rho_elec                  51  6.0    2.342    2.342   52.202   52.202
 fft3d_s                            676 11.5   41.589   41.589   41.604   41.604
 density_rs2pw                       51  7.0    0.005    0.005   40.175   40.175
 xc_pw_derive                        96  9.5    0.002    0.002   35.893   35.893
 xc_pw_divergence                    16  9.0    0.001    0.001   24.142   24.142
 pw_scatter_s                       323 12.2   23.230   23.230   23.230   23.230
 sum_up_and_integrate                16  8.0    0.001    0.001   21.709   21.709
 integrate_v_rspace                  48  9.0    0.030    0.030   21.509   21.509
 potential_pw2rs                     48 10.0    0.138    0.138   21.121   21.121
 grid_collocate_task_list            51  7.0    9.684    9.684    9.684    9.684
 init_scf_loop                        1  4.0    0.000    0.000    9.440    9.440
 pw_gather_s                        352 10.8    6.536    6.536    6.536    6.536
 fft_wrap_pw1pw2_70                  99 10.5    1.909    1.909    6.307    6.307
 qs_init_subsys                       1  2.0    0.001    0.001    5.709    5.709
 qs_env_setup                         1  3.0    0.000    0.000    5.657    5.657
 qs_env_rebuild_pw_env                2  3.5    0.000    0.000    5.657    5.657
 pw_env_rebuild                       1  5.0    0.000    0.000    5.657    5.657
 pw_grid_setup                        5  6.0    0.000    0.000    5.656    5.656
 pw_grid_setup_internal               5  7.0    0.061    0.061    5.656    5.656
 pw_poisson_solve                    16  8.0    0.001    0.001    5.303    5.303
 pw_grid_sort                         5  8.0    3.856    3.856    4.917    4.917
 -------------------------------------------------------------------------------

 The number of warnings for this run is : 0
 
 -------------------------------------------------------------------------------
  **** **** ******  **  PROGRAM ENDED AT                 2026-08-25 05:49:45.445
 ***** ** ***  *** **   PROGRAM RAN ON                                spark-c86c
 **    ****   ******    PROGRAM RAN BY                                  kuehne88
 ***** **    ** ** **   PROGRAM PROCESS ID                                627212
  **** **  *******  **  PROGRAM STOPPED IN /home/kuehne88/work/native-skala-spar
                                           k/diet-production-p25/gapwxc-gth-one-
                                           center/a4311fb749e9e7e31b39d12c2a4596
                                           1170a253a1
