 DBCSR| CPU Multiplication driver                                           BLAS (U)
 DBCSR| Multrec recursion limit                                              512 (U)
 DBCSR| Multiplication stack size                                           1000 (D)
 DBCSR| Maximum elements for images                                    UNLIMITED (U)
 DBCSR| Multiplicative factor virtual images                                   1 (U)
 DBCSR| Use multiplication densification                                       T (D)
 DBCSR| Multiplication size stacks                                             3 (U)
 DBCSR| Use memory pool for CPU allocation                                     F (U)
 DBCSR| OMP: Current number of threads                                        16
 DBCSR| OMP: Max number of threads                                            16
 DBCSR| Split modifier for TAS multiplication algorithm                  1.0E+00 (U)


  **** **** ******  **  PROGRAM STARTED AT               2026-09-15 23:55:14.066
 ***** ** ***  *** **   PROGRAM STARTED ON                                cge062
 **    ****   ******    PROGRAM STARTED BY                              kuehne88
 ***** **    ** ** **   PROGRAM PROCESS ID                               1146649
  **** **  *******  **  PROGRAM STARTED IN /bigdata/casus/fwuk/shared/kuehne88-n
                                           ative-skala/common70-ae-qzvpp-2026091
                                           5/runs/cae8d4ef1c25ad4a871ee9af8721d8
                                           55c34731ea/qzvpp

 CP2K| version string:                 CP2K version 2026.2 (Development Version)
 CP2K| source code revision number:                                   37aedacbb3
 CP2K| cp2kflags: omp fftw3 spglib openblas libtorch libtorch_cuda              
 CP2K| is freely available from                            https://www.cp2k.org/
 CP2K| Program compiled at                                   2026-09-08 17:20:25
 CP2K| Program compiled on                                                ctu003
 CP2K| Program compiled for                                               x86_64
 CP2K| Data directory path            /home/kuehne88/cp2k-native-skala/cp2k/data
 CP2K| Input file name                                          actual-input.inp

 GLOBAL| Force Environment number                                              1
 GLOBAL| Basis set file name                             BASIS_MOLOPT_UZH_2026.2
 GLOBAL| Potential file name                                POTENTIAL_UZH_2026.2
 GLOBAL| MM Potential file name                                     MM_POTENTIAL
 GLOBAL| Coordinate file name                                      __STD_INPUT__
 GLOBAL| Method name                                                        CP2K
 GLOBAL| Project name                                       diet_qz_cae8d4ef1c25
 GLOBAL| Run type                                                         ENERGY
 GLOBAL| FFT library                                                       FFTW3
 GLOBAL| Diagonalization library                                       ScaLAPACK
 GLOBAL| Cholesky decomposition library                                ScaLAPACK
 GLOBAL| DGEMM library                                                      BLAS
 GLOBAL| Direct generalized diagonalization requested                          F
 GLOBAL| Orthonormality check for eigenvectors                          DISABLED
 GLOBAL| Matrix multiplication library                                 ScaLAPACK
 GLOBAL| All-to-all communication in single precision                          F
 GLOBAL| Grid backend                                                       AUTO
 GLOBAL| Global print level                                               MEDIUM
 GLOBAL| MPI I/O enabled                                                       T
 GLOBAL| Total number of message passing processes                             1
 GLOBAL| Number of distributed systems (nodes)                                 1
 GLOBAL| Number of threads for this process                                   16
 GLOBAL| This output is from process                                           0
 GLOBAL| OpenMP stack size per thread (OMP_STACKSIZE)                       256M
 GLOBAL| CPU model name                          AMD EPYC 9654 96-Core Processor

 MEMORY| system memory details [Kb]
 MEMORY|                        rank 0           min           max       average
 MEMORY| MemTotal           1584835648    1584835648    1584835648    1584835648
 MEMORY| MemFree            1362650416    1362650416    1362650416    1362650416
 MEMORY| Buffers                     0             0             0             0
 MEMORY| Cached                7944132       7944132       7944132       7944132
 MEMORY| Slab                  1855316       1855316       1855316       1855316
 MEMORY| SReclaimable           455248        455248        455248        455248
 MEMORY| MemLikelyFree      1371049796    1371049796    1371049796    1371049796


 *** Fundamental physical constants (SI units) ***

 *** Literature: B. J. Mohr and B. N. Taylor,
 ***             CODATA recommended values of the fundamental physical
 ***             constants: 2006, Web Version 5.1
 ***             http://physics.nist.gov/constants

 Speed of light in vacuum [m/s]                             2.99792458000000E+08
 Magnetic constant or permeability of vacuum [N/A**2]       1.25663706143592E-06
 Electric constant or permittivity of vacuum [F/m]          8.85418781762039E-12
 Planck constant (h) [J*s]                                  6.62606896000000E-34
 Planck constant (h-bar) [J*s]                              1.05457162825177E-34
 Elementary charge [C]                                      1.60217648700000E-19
 Electron mass [kg]                                         9.10938215000000E-31
 Electron g factor [ ]                                     -2.00231930436220E+00
 Proton mass [kg]                                           1.67262163700000E-27
 Fine-structure constant                                    7.29735253760000E-03
 Rydberg constant [1/m]                                     1.09737315685270E+07
 Avogadro constant [1/mol]                                  6.02214179000000E+23
 Boltzmann constant [J/K]                                   1.38065040000000E-23
 Atomic mass unit [kg]                                      1.66053878200000E-27
 Bohr radius [m]                                            5.29177208590000E-11

 *** Conversion factors ***

 [u] -> [a.u.]                                              1.82288848426455E+03
 [Angstrom] -> [Bohr] = [a.u.]                              1.88972613288564E+00
 [a.u.] = [Bohr] -> [Angstrom]                              5.29177208590000E-01
 [a.u.] -> [s]                                              2.41888432650478E-17
 [a.u.] -> [fs]                                             2.41888432650478E-02
 [a.u.] -> [J]                                              4.35974393937059E-18
 [a.u.] -> [N]                                              8.23872205491840E-08
 [a.u.] -> [K]                                              3.15774647902944E+05
 [a.u.] -> [kJ/mol]                                         2.62549961709828E+03
 [a.u.] -> [kcal/mol]                                       6.27509468713739E+02
 [a.u.] -> [Pa]                                             2.94210107994716E+13
 [a.u.] -> [bar]                                            2.94210107994716E+08
 [a.u.] -> [atm]                                            2.90362800883016E+08
 [a.u.] -> [eV]                                             2.72113838565563E+01
 [a.u.] -> [Hz]                                             6.57968392072181E+15
 [a.u.] -> [1/cm] (wave numbers)                            2.19474631370540E+05
 [a.u./Bohr**2] -> [1/cm]                                   5.14048714338585E+03
 

 CELL| Volume [angstrom^3]:                                         18954.000000
 CELL| Vector a [angstrom]:      27.000     0.000     0.000   |a| =    27.000000
 CELL| Vector b [angstrom]:       0.000    27.000     0.000   |b| =    27.000000
 CELL| Vector c [angstrom]:       0.000     0.000    26.000   |c| =    26.000000
 CELL| Angle (b,c), alpha [degree]:                                    90.000000
 CELL| Angle (a,c), beta  [degree]:                                    90.000000
 CELL| Angle (a,b), gamma [degree]:                                    90.000000
 CELL| Numerically orthorhombic:                                             YES
 CELL| Periodicity                                                          NONE

 CELL_REF| Volume [angstrom^3]:                                     18954.000000
 CELL_REF| Vector a [angstrom    27.000     0.000     0.000   |a| =    27.000000
 CELL_REF| Vector b [angstrom     0.000    27.000     0.000   |b| =    27.000000
 CELL_REF| Vector c [angstrom     0.000     0.000    26.000   |c| =    26.000000
 CELL_REF| Angle (b,c), alpha [degree]:                                90.000000
 CELL_REF| Angle (a,c), beta  [degree]:                                90.000000
 CELL_REF| Angle (a,b), gamma [degree]:                                90.000000
 CELL_REF| Numerically orthorhombic:                                         YES
 CELL_REF| Periodicity                                                      NONE

 GENERATE|  Preliminary Number of Bonds generated:                             0
 GENERATE|  Achieved consistency in connectivity generation.

 *******************************************************************************
 *******************************************************************************
 **                                                                           **
 **     #####                         ##              ##                      **
 **    ##   ##            ##          ##              ##                      **
 **   ##     ##                       ##            ######                    **
 **   ##     ##  ##   ##  ##   #####  ##  ##   ####   ##    #####    #####    **
 **   ##     ##  ##   ##  ##  ##      ## ##   ##      ##   ##   ##  ##   ##   **
 **   ##  ## ##  ##   ##  ##  ##      ####     ###    ##   ######   ######    **
 **    ##  ###   ##   ##  ##  ##      ## ##      ##   ##   ##       ##        **
 **     #######   #####   ##   #####  ##  ##  ####    ##    #####   ##        **
 **           ##                                                    ##        **
 **                                                                           **
 **                                                ... make the atoms dance   **
 **                                                                           **
 **            Copyright (C) by CP2K developers group (2000-2026)             **
 **                      J. Chem. Phys. 152, 194103 (2020)                    **
 **                                                                           **
 *******************************************************************************

 DFT| Spin restricted Kohn-Sham (RKS) calculation                            RKS
 DFT| Multiplicity                                                             1
 DFT| Number of spin states                                                    1
 DFT| Charge                                                                   1
 DFT| Self-interaction correction (SIC)                                       NO
 DFT| Cutoffs: density                                              1.000000E-10
 DFT|          gradient                                             1.000000E-10
 DFT|          tau                                                  1.000000E-10
 DFT|          cutoff_smoothing_range                               0.000000E+00
 DFT| XC density smoothing                                                  NONE
 DFT| XC derivatives                                                          PW

 FUNCTIONAL| GAUXC:
 FUNCTIONAL| Functional computed by GauXC Skala model SKALA                     

 vdW POTENTIAL|                                                   Pair Potential
 vdW POTENTIAL|          DFT-D3 (Version 3.1)
 vdW POTENTIAL|          Potential Form: S. Grimme et al, JCP 132: 154104 (2010)
 vdW POTENTIAL|          BJ Damping: S. Grimme et al, JCC 32: 1456 (2011)
 vdW POTENTIAL|          Cutoff Radius [Bohr]:                             37.79
 vdW POTENTIAL|          s6 Scaling Factor:                               1.0000
 vdW POTENTIAL|          a1 Damping Factor:                               0.3981
 vdW POTENTIAL|          s8 Scaling Factor:                               1.9889
 vdW POTENTIAL|          a2 Damping Factor:                               4.4211
 vdW POTENTIAL|          Cutoff for CN calculation:                   0.1000E-05

 QS| Method:                                                                GAPW
 QS| Density plane wave grid type                        NON-SPHERICAL FULLSPACE
 QS| Number of grid levels:                                                    5
 QS| Density cutoff [a.u.]:                                                320.0
 QS| Multi grid cutoff [a.u.]: 1) grid level                               320.0
 QS|                           2) grid level                               106.7
 QS|                           3) grid level                                35.6
 QS|                           4) grid level                                11.9
 QS|                           5) grid level                                 4.0
 QS| Grid level progression factor:                                          3.0
 QS| Relative density cutoff [a.u.]:                                        30.0
 QS| Interaction thresholds: eps_pgf_orb:                                1.0E-07
 QS|                         eps_filter_matrix:                          0.0E+00
 QS|                         eps_core_charge:                            1.0E-16
 QS|                         eps_rho_gspace:                             1.0E-14
 QS|                         eps_rho_rspace:                             1.0E-14
 QS|                         eps_gvg_rspace:                             1.0E-07
 QS|                         eps_ppl:                                    1.0E-02
 QS|                         eps_ppnl:                                   1.0E-09
 QS| GAPW|      XC integration using accurate scheme: Ref. exponent     6.000000
 QS| GAPW|      One center basis extended with primitives (small:s)
 QS| GAPW|                   eps_fit:                                    1.0E-04
 QS| GAPW|                   eps_iso:                                    1.0E-12
 QS| GAPW|                   eps_svd:                                    1.0E-08
 QS| GAPW|                   eps_cpc:                                    1.0E-14
 QS| GAPW|   atom-r-grid: quadrature:                                     GC_LOG
 QS| GAPW|      atom-s-grid:  max l :                                          8
 QS| GAPW|      max_l_rho0 :                                                   4


 ATOMIC KIND INFORMATION

  1. Atomic kind: O                                     Number of atoms:       1

     Orbital Basis Set                                       QZVPP-MOLOPT-PBE-ae

       Number of orbital shell sets:                                           3
       Number of orbital shells:                                              17
       Number of primitive Cartesian functions:                               17
       Number of Cartesian basis functions:                                   72
       Number of spherical basis functions:                                   57
       Norm type:                                                              2

       Normalised Cartesian orbitals:

                        Set   Shell   Orbital            Exponent    Coefficient

                          1       1    1s           116506.386044      -0.286938
                                                     17504.609714       1.622871
                                                      3993.523990       1.575695
                                                      1133.094789       3.678868
                                                       369.825392       4.454222
                                                       133.788949       6.877941
                                                        52.214629       3.645626
                                                        21.672936       3.743321

                          2       1    1s              191.041926      -0.117293
                                                        45.062318       5.522345
                                                        14.052350       1.820486
                                                         5.519198       0.634009
                                                         2.223183       0.129216

                          2       2    2s              191.041926       1.184921
                                                        45.062318      -9.527257
                                                        14.052350       1.679716
                                                         5.519198       2.320043
                                                         2.223183       0.063844

                          2       3    2px             191.041926       8.538363
                                                        45.062318      12.479925
                                                        14.052350      15.623104
                                                         5.519198       3.090432
                                                         2.223183       1.791493
                          2       3    2py             191.041926       8.538363
                                                        45.062318      12.479925
                                                        14.052350      15.623104
                                                         5.519198       3.090432
                                                         2.223183       1.791493
                          2       3    2pz             191.041926       8.538363
                                                        45.062318      12.479925
                                                        14.052350      15.623104
                                                         5.519198       3.090432
                                                         2.223183       1.791493

                          3       1    1s                4.071110       1.957625
                                                         1.296605      -0.318849
                                                         0.454428       0.078114
                                                         0.148707       0.080322

                          3       2    2s                4.071110       0.198568
                                                         1.296605       0.510122
                                                         0.454428       0.111966
                                                         0.148707       0.024483

                          3       3    3s                4.071110      -1.108891
                                                         1.296605      -0.312023
                                                         0.454428       0.259230
                                                         0.148707       0.093373

                          3       4    4s                4.071110      -0.754467
                                                         1.296605       0.322994
                                                         0.454428      -0.588749
                                                         0.148707       0.285353

                          3       5    2px               4.071110       1.030337
                                                         1.296605       1.056792
                                                         0.454428       0.252010
                                                         0.148707      -0.002293
                          3       5    2py               4.071110       1.030337
                                                         1.296605       1.056792
                                                         0.454428       0.252010
                                                         0.148707      -0.002293
                          3       5    2pz               4.071110       1.030337
                                                         1.296605       1.056792
                                                         0.454428       0.252010
                                                         0.148707      -0.002293

                          3       6    3px               4.071110       1.449608
                                                         1.296605      -0.234103
                                                         0.454428       0.064821
                                                         0.148707       0.121917
                          3       6    3py               4.071110       1.449608
                                                         1.296605      -0.234103
                                                         0.454428       0.064821
                                                         0.148707       0.121917
                          3       6    3pz               4.071110       1.449608
                                                         1.296605      -0.234103
                                                         0.454428       0.064821
                                                         0.148707       0.121917

                          3       7    4px               4.071110     -11.959058
                                                         1.296605       3.010200
                                                         0.454428      -0.701793
                                                         0.148707       0.084866
                          3       7    4py               4.071110     -11.959058
                                                         1.296605       3.010200
                                                         0.454428      -0.701793
                                                         0.148707       0.084866
                          3       7    4pz               4.071110     -11.959058
                                                         1.296605       3.010200
                                                         0.454428      -0.701793
                                                         0.148707       0.084866

                          3       8    3dx2              4.071110       9.096646
                                                         1.296605       1.511538
                                                         0.454428      -0.013162
                                                         0.148707       0.017161
                          3       8    3dxy              4.071110      15.755854
                                                         1.296605       2.618060
                                                         0.454428      -0.022798
                                                         0.148707       0.029724
                          3       8    3dxz              4.071110      15.755854
                                                         1.296605       2.618060
                                                         0.454428      -0.022798
                                                         0.148707       0.029724
                          3       8    3dy2              4.071110       9.096646
                                                         1.296605       1.511538
                                                         0.454428      -0.013162
                                                         0.148707       0.017161
                          3       8    3dyz              4.071110      15.755854
                                                         1.296605       2.618060
                                                         0.454428      -0.022798
                                                         0.148707       0.029724
                          3       8    3dz2              4.071110       9.096646
                                                         1.296605       1.511538
                                                         0.454428      -0.013162
                                                         0.148707       0.017161

                          3       9    4dx2              4.071110     -16.741506
                                                         1.296605       2.089138
                                                         0.454428       0.177323
                                                         0.148707      -0.008623
                          3       9    4dxy              4.071110     -28.997140
                                                         1.296605       3.618493
                                                         0.454428       0.307132
                                                         0.148707      -0.014936
                          3       9    4dxz              4.071110     -28.997140
                                                         1.296605       3.618493
                                                         0.454428       0.307132
                                                         0.148707      -0.014936
                          3       9    4dy2              4.071110     -16.741506
                                                         1.296605       2.089138
                                                         0.454428       0.177323
                                                         0.148707      -0.008623
                          3       9    4dyz              4.071110     -28.997140
                                                         1.296605       3.618493
                                                         0.454428       0.307132
                                                         0.148707      -0.014936
                          3       9    4dz2              4.071110     -16.741506
                                                         1.296605       2.089138
                                                         0.454428       0.177323
                                                         0.148707      -0.008623

                          3      10    5dx2              4.071110       7.696354
                                                         1.296605      -0.457056
                                                         0.454428       0.449341
                                                         0.148707      -0.010524
                          3      10    5dxy              4.071110      13.330477
                                                         1.296605      -0.791644
                                                         0.454428       0.778281
                                                         0.148707      -0.018228
                          3      10    5dxz              4.071110      13.330477
                                                         1.296605      -0.791644
                                                         0.454428       0.778281
                                                         0.148707      -0.018228
                          3      10    5dy2              4.071110       7.696354
                                                         1.296605      -0.457056
                                                         0.454428       0.449341
                                                         0.148707      -0.010524
                          3      10    5dyz              4.071110      13.330477
                                                         1.296605      -0.791644
                                                         0.454428       0.778281
                                                         0.148707      -0.018228
                          3      10    5dz2              4.071110       7.696354
                                                         1.296605      -0.457056
                                                         0.454428       0.449341
                                                         0.148707      -0.010524

                          3      11    4fx3              4.071110      23.389933
                                                         1.296605       1.335349
                                                         0.454428      -0.020744
                                                         0.148707       0.000290
                          3      11    4fx2y             4.071110      52.301481
                                                         1.296605       2.985932
                                                         0.454428      -0.046385
                                                         0.148707       0.000649
                          3      11    4fx2z             4.071110      52.301481
                                                         1.296605       2.985932
                                                         0.454428      -0.046385
                                                         0.148707       0.000649
                          3      11    4fxy2             4.071110      52.301481
                                                         1.296605       2.985932
                                                         0.454428      -0.046385
                                                         0.148707       0.000649
                          3      11    4fxyz             4.071110      90.588822
                                                         1.296605       5.171786
                                                         0.454428      -0.080341
                                                         0.148707       0.001124
                          3      11    4fxz2             4.071110      52.301481
                                                         1.296605       2.985932
                                                         0.454428      -0.046385
                                                         0.148707       0.000649
                          3      11    4fy3              4.071110      23.389933
                                                         1.296605       1.335349
                                                         0.454428      -0.020744
                                                         0.148707       0.000290
                          3      11    4fy2z             4.071110      52.301481
                                                         1.296605       2.985932
                                                         0.454428      -0.046385
                                                         0.148707       0.000649
                          3      11    4fyz2             4.071110      52.301481
                                                         1.296605       2.985932
                                                         0.454428      -0.046385
                                                         0.148707       0.000649
                          3      11    4fz3              4.071110      23.389933
                                                         1.296605       1.335349
                                                         0.454428      -0.020744
                                                         0.148707       0.000290

                          3      12    5fx3              4.071110     -14.425932
                                                         1.296605       1.753249
                                                         0.454428       0.154392
                                                         0.148707      -0.004712
                          3      12    5fx2y             4.071110     -32.257365
                                                         1.296605       3.920383
                                                         0.454428       0.345230
                                                         0.148707      -0.010536
                          3      12    5fx2z             4.071110     -32.257365
                                                         1.296605       3.920383
                                                         0.454428       0.345230
                                                         0.148707      -0.010536
                          3      12    5fxy2             4.071110     -32.257365
                                                         1.296605       3.920383
                                                         0.454428       0.345230
                                                         0.148707      -0.010536
                          3      12    5fxyz             4.071110     -55.871396
                                                         1.296605       6.790303
                                                         0.454428       0.597956
                                                         0.148707      -0.018250
                          3      12    5fxz2             4.071110     -32.257365
                                                         1.296605       3.920383
                                                         0.454428       0.345230
                                                         0.148707      -0.010536
                          3      12    5fy3              4.071110     -14.425932
                                                         1.296605       1.753249
                                                         0.454428       0.154392
                                                         0.148707      -0.004712
                          3      12    5fy2z             4.071110     -32.257365
                                                         1.296605       3.920383
                                                         0.454428       0.345230
                                                         0.148707      -0.010536
                          3      12    5fyz2             4.071110     -32.257365
                                                         1.296605       3.920383
                                                         0.454428       0.345230
                                                         0.148707      -0.010536
                          3      12    5fz3              4.071110     -14.425932
                                                         1.296605       1.753249
                                                         0.454428       0.154392
                                                         0.148707      -0.004712

                          3      13    5gx4              4.071110      31.844004
                                                         1.296605       1.290457
                                                         0.454428       0.004255
                                                         0.148707      -0.000730
                          3      13    5gx3y             4.071110      84.251315
                                                         1.296605       3.414227
                                                         0.454428       0.011258
                                                         0.148707      -0.001931
                          3      13    5gx3z             4.071110      84.251315
                                                         1.296605       3.414227
                                                         0.454428       0.011258
                                                         0.148707      -0.001931
                          3      13    5gx2y2            4.071110     108.767980
                                                         1.296605       4.407748
                                                         0.454428       0.014535
                                                         0.148707      -0.002493
                          3      13    5gx2yz            4.071110     188.391668
                                                         1.296605       7.634444
                                                         0.454428       0.025175
                                                         0.148707      -0.004318
                          3      13    5gx2z2            4.071110     108.767980
                                                         1.296605       4.407748
                                                         0.454428       0.014535
                                                         0.148707      -0.002493
                          3      13    5gxy3             4.071110      84.251315
                                                         1.296605       3.414227
                                                         0.454428       0.011258
                                                         0.148707      -0.001931
                          3      13    5gxy2z            4.071110     188.391668
                                                         1.296605       7.634444
                                                         0.454428       0.025175
                                                         0.148707      -0.004318
                          3      13    5gxyz2            4.071110     188.391668
                                                         1.296605       7.634444
                                                         0.454428       0.025175
                                                         0.148707      -0.004318
                          3      13    5gxz3             4.071110      84.251315
                                                         1.296605       3.414227
                                                         0.454428       0.011258
                                                         0.148707      -0.001931
                          3      13    5gy4              4.071110      31.844004
                                                         1.296605       1.290457
                                                         0.454428       0.004255
                                                         0.148707      -0.000730
                          3      13    5gy3z             4.071110      84.251315
                                                         1.296605       3.414227
                                                         0.454428       0.011258
                                                         0.148707      -0.001931
                          3      13    5gy2z2            4.071110     108.767980
                                                         1.296605       4.407748
                                                         0.454428       0.014535
                                                         0.148707      -0.002493
                          3      13    5gyz3             4.071110      84.251315
                                                         1.296605       3.414227
                                                         0.454428       0.011258
                                                         0.148707      -0.001931
                          3      13    5gz4              4.071110      31.844004
                                                         1.296605       1.290457
                                                         0.454428       0.004255
                                                         0.148707      -0.000730

       Atomic covalent radius [Angstrom]:                                  0.730

       Atomic van der Waals radius [Angstrom]:                             1.520

     The atoms of this atomic kind are PAW atoms (GAPW):
       Hard Gaussian function radius:                                      1.400
       Rho0 radius:                                                        1.400
       Maximum GTO radius used for PAW projector construction:            24.566

     GAPW Soft Basis Set                                QZVPP-MOLOPT-PBE-ae_soft

       Number of orbital shell sets:                                           3
       Number of orbital shells:                                              17
       Number of primitive Cartesian functions:                                5
       Number of Cartesian basis functions:                                   72
       Number of spherical basis functions:                                   57
       Norm type:                                                              2

       Normalised Cartesian orbitals:

                        Set   Shell   Orbital            Exponent    Coefficient

                          1       1    1s         

                          2       1    1s                2.223183       0.129216

                          2       2    2s                2.223183       0.063844

                          2       3    2px               2.223183       1.791493
                          2       3    2py               2.223183       1.791493
                          2       3    2pz               2.223183       1.791493

                          3       1    1s                4.071110       1.957625
                                                         1.296605      -0.318849
                                                         0.454428       0.078114
                                                         0.148707       0.080322

                          3       2    2s                4.071110       0.198568
                                                         1.296605       0.510122
                                                         0.454428       0.111966
                                                         0.148707       0.024483

                          3       3    3s                4.071110      -1.108891
                                                         1.296605      -0.312023
                                                         0.454428       0.259230
                                                         0.148707       0.093373

                          3       4    4s                4.071110      -0.754467
                                                         1.296605       0.322994
                                                         0.454428      -0.588749
                                                         0.148707       0.285353

                          3       5    2px               4.071110       1.030337
                                                         1.296605       1.056792
                                                         0.454428       0.252010
                                                         0.148707      -0.002293
                          3       5    2py               4.071110       1.030337
                                                         1.296605       1.056792
                                                         0.454428       0.252010
                                                         0.148707      -0.002293
                          3       5    2pz               4.071110       1.030337
                                                         1.296605       1.056792
                                                         0.454428       0.252010
                                                         0.148707      -0.002293

                          3       6    3px               4.071110       1.449608
                                                         1.296605      -0.234103
                                                         0.454428       0.064821
                                                         0.148707       0.121917
                          3       6    3py               4.071110       1.449608
                                                         1.296605      -0.234103
                                                         0.454428       0.064821
                                                         0.148707       0.121917
                          3       6    3pz               4.071110       1.449608
                                                         1.296605      -0.234103
                                                         0.454428       0.064821
                                                         0.148707       0.121917

                          3       7    4px               4.071110     -11.959058
                                                         1.296605       3.010200
                                                         0.454428      -0.701793
                                                         0.148707       0.084866
                          3       7    4py               4.071110     -11.959058
                                                         1.296605       3.010200
                                                         0.454428      -0.701793
                                                         0.148707       0.084866
                          3       7    4pz               4.071110     -11.959058
                                                         1.296605       3.010200
                                                         0.454428      -0.701793
                                                         0.148707       0.084866

                          3       8    3dx2              4.071110       9.096646
                                                         1.296605       1.511538
                                                         0.454428      -0.013162
                                                         0.148707       0.017161
                          3       8    3dxy              4.071110      15.755854
                                                         1.296605       2.618060
                                                         0.454428      -0.022798
                                                         0.148707       0.029724
                          3       8    3dxz              4.071110      15.755854
                                                         1.296605       2.618060
                                                         0.454428      -0.022798
                                                         0.148707       0.029724
                          3       8    3dy2              4.071110       9.096646
                                                         1.296605       1.511538
                                                         0.454428      -0.013162
                                                         0.148707       0.017161
                          3       8    3dyz              4.071110      15.755854
                                                         1.296605       2.618060
                                                         0.454428      -0.022798
                                                         0.148707       0.029724
                          3       8    3dz2              4.071110       9.096646
                                                         1.296605       1.511538
                                                         0.454428      -0.013162
                                                         0.148707       0.017161

                          3       9    4dx2              4.071110     -16.741506
                                                         1.296605       2.089138
                                                         0.454428       0.177323
                                                         0.148707      -0.008623
                          3       9    4dxy              4.071110     -28.997140
                                                         1.296605       3.618493
                                                         0.454428       0.307132
                                                         0.148707      -0.014936
                          3       9    4dxz              4.071110     -28.997140
                                                         1.296605       3.618493
                                                         0.454428       0.307132
                                                         0.148707      -0.014936
                          3       9    4dy2              4.071110     -16.741506
                                                         1.296605       2.089138
                                                         0.454428       0.177323
                                                         0.148707      -0.008623
                          3       9    4dyz              4.071110     -28.997140
                                                         1.296605       3.618493
                                                         0.454428       0.307132
                                                         0.148707      -0.014936
                          3       9    4dz2              4.071110     -16.741506
                                                         1.296605       2.089138
                                                         0.454428       0.177323
                                                         0.148707      -0.008623

                          3      10    5dx2              4.071110       7.696354
                                                         1.296605      -0.457056
                                                         0.454428       0.449341
                                                         0.148707      -0.010524
                          3      10    5dxy              4.071110      13.330477
                                                         1.296605      -0.791644
                                                         0.454428       0.778281
                                                         0.148707      -0.018228
                          3      10    5dxz              4.071110      13.330477
                                                         1.296605      -0.791644
                                                         0.454428       0.778281
                                                         0.148707      -0.018228
                          3      10    5dy2              4.071110       7.696354
                                                         1.296605      -0.457056
                                                         0.454428       0.449341
                                                         0.148707      -0.010524
                          3      10    5dyz              4.071110      13.330477
                                                         1.296605      -0.791644
                                                         0.454428       0.778281
                                                         0.148707      -0.018228
                          3      10    5dz2              4.071110       7.696354
                                                         1.296605      -0.457056
                                                         0.454428       0.449341
                                                         0.148707      -0.010524

                          3      11    4fx3              4.071110      23.389933
                                                         1.296605       1.335349
                                                         0.454428      -0.020744
                                                         0.148707       0.000290
                          3      11    4fx2y             4.071110      52.301481
                                                         1.296605       2.985932
                                                         0.454428      -0.046385
                                                         0.148707       0.000649
                          3      11    4fx2z             4.071110      52.301481
                                                         1.296605       2.985932
                                                         0.454428      -0.046385
                                                         0.148707       0.000649
                          3      11    4fxy2             4.071110      52.301481
                                                         1.296605       2.985932
                                                         0.454428      -0.046385
                                                         0.148707       0.000649
                          3      11    4fxyz             4.071110      90.588822
                                                         1.296605       5.171786
                                                         0.454428      -0.080341
                                                         0.148707       0.001124
                          3      11    4fxz2             4.071110      52.301481
                                                         1.296605       2.985932
                                                         0.454428      -0.046385
                                                         0.148707       0.000649
                          3      11    4fy3              4.071110      23.389933
                                                         1.296605       1.335349
                                                         0.454428      -0.020744
                                                         0.148707       0.000290
                          3      11    4fy2z             4.071110      52.301481
                                                         1.296605       2.985932
                                                         0.454428      -0.046385
                                                         0.148707       0.000649
                          3      11    4fyz2             4.071110      52.301481
                                                         1.296605       2.985932
                                                         0.454428      -0.046385
                                                         0.148707       0.000649
                          3      11    4fz3              4.071110      23.389933
                                                         1.296605       1.335349
                                                         0.454428      -0.020744
                                                         0.148707       0.000290

                          3      12    5fx3              4.071110     -14.425932
                                                         1.296605       1.753249
                                                         0.454428       0.154392
                                                         0.148707      -0.004712
                          3      12    5fx2y             4.071110     -32.257365
                                                         1.296605       3.920383
                                                         0.454428       0.345230
                                                         0.148707      -0.010536
                          3      12    5fx2z             4.071110     -32.257365
                                                         1.296605       3.920383
                                                         0.454428       0.345230
                                                         0.148707      -0.010536
                          3      12    5fxy2             4.071110     -32.257365
                                                         1.296605       3.920383
                                                         0.454428       0.345230
                                                         0.148707      -0.010536
                          3      12    5fxyz             4.071110     -55.871396
                                                         1.296605       6.790303
                                                         0.454428       0.597956
                                                         0.148707      -0.018250
                          3      12    5fxz2             4.071110     -32.257365
                                                         1.296605       3.920383
                                                         0.454428       0.345230
                                                         0.148707      -0.010536
                          3      12    5fy3              4.071110     -14.425932
                                                         1.296605       1.753249
                                                         0.454428       0.154392
                                                         0.148707      -0.004712
                          3      12    5fy2z             4.071110     -32.257365
                                                         1.296605       3.920383
                                                         0.454428       0.345230
                                                         0.148707      -0.010536
                          3      12    5fyz2             4.071110     -32.257365
                                                         1.296605       3.920383
                                                         0.454428       0.345230
                                                         0.148707      -0.010536
                          3      12    5fz3              4.071110     -14.425932
                                                         1.296605       1.753249
                                                         0.454428       0.154392
                                                         0.148707      -0.004712

                          3      13    5gx4              4.071110      31.844004
                                                         1.296605       1.290457
                                                         0.454428       0.004255
                                                         0.148707      -0.000730
                          3      13    5gx3y             4.071110      84.251315
                                                         1.296605       3.414227
                                                         0.454428       0.011258
                                                         0.148707      -0.001931
                          3      13    5gx3z             4.071110      84.251315
                                                         1.296605       3.414227
                                                         0.454428       0.011258
                                                         0.148707      -0.001931
                          3      13    5gx2y2            4.071110     108.767980
                                                         1.296605       4.407748
                                                         0.454428       0.014535
                                                         0.148707      -0.002493
                          3      13    5gx2yz            4.071110     188.391668
                                                         1.296605       7.634444
                                                         0.454428       0.025175
                                                         0.148707      -0.004318
                          3      13    5gx2z2            4.071110     108.767980
                                                         1.296605       4.407748
                                                         0.454428       0.014535
                                                         0.148707      -0.002493
                          3      13    5gxy3             4.071110      84.251315
                                                         1.296605       3.414227
                                                         0.454428       0.011258
                                                         0.148707      -0.001931
                          3      13    5gxy2z            4.071110     188.391668
                                                         1.296605       7.634444
                                                         0.454428       0.025175
                                                         0.148707      -0.004318
                          3      13    5gxyz2            4.071110     188.391668
                                                         1.296605       7.634444
                                                         0.454428       0.025175
                                                         0.148707      -0.004318
                          3      13    5gxz3             4.071110      84.251315
                                                         1.296605       3.414227
                                                         0.454428       0.011258
                                                         0.148707      -0.001931
                          3      13    5gy4              4.071110      31.844004
                                                         1.296605       1.290457
                                                         0.454428       0.004255
                                                         0.148707      -0.000730
                          3      13    5gy3z             4.071110      84.251315
                                                         1.296605       3.414227
                                                         0.454428       0.011258
                                                         0.148707      -0.001931
                          3      13    5gy2z2            4.071110     108.767980
                                                         1.296605       4.407748
                                                         0.454428       0.014535
                                                         0.148707      -0.002493
                          3      13    5gyz3             4.071110      84.251315
                                                         1.296605       3.414227
                                                         0.454428       0.011258
                                                         0.148707      -0.001931
                          3      13    5gz4              4.071110      31.844004
                                                         1.296605       1.290457
                                                         0.454428       0.004255
                                                         0.148707      -0.000730

     AE Potential information for                                            ALL

       Description:                                       All-electron potential
                                          Krack, Parrinello, PCCP 2, 2105 (2000)

       Gaussian exponent of the core charge distribution:               8.154466
       Electronic configuration (s p d ...):                           4   4   0

  2. Atomic kind: H                                     Number of atoms:       3

     Orbital Basis Set                                       QZVPP-MOLOPT-PBE-ae

       Number of orbital shell sets:                                           2
       Number of orbital shells:                                              10
       Number of primitive Cartesian functions:                                8
       Number of Cartesian basis functions:                                   35
       Number of spherical basis functions:                                   30
       Norm type:                                                              2

       Normalised Cartesian orbitals:

                        Set   Shell   Orbital            Exponent    Coefficient

                          1       1    1s              190.541174       0.567744
                                                        28.485896       3.739611
                                                         6.826831       2.001669
                                                         1.919769      -0.029959

                          2       1    1s                3.130447      -1.377299
                                                         0.966277       1.394773
                                                         0.319288      -0.156078
                                                         0.106668      -0.030399

                          2       2    2s                3.130447       0.627930
                                                         0.966277       0.181305
                                                         0.319288       0.270118
                                                         0.106668      -0.141637

                          2       3    3s                3.130447       0.192674
                                                         0.966277       0.139459
                                                         0.319288       0.123455
                                                         0.106668       0.057384

                          2       4    2px               3.130447       5.209863
                                                         0.966277       0.306652
                                                         0.319288      -0.046374
                                                         0.106668       0.001892
                          2       4    2py               3.130447       5.209863
                                                         0.966277       0.306652
                                                         0.319288      -0.046374
                                                         0.106668       0.001892
                          2       4    2pz               3.130447       5.209863
                                                         0.966277       0.306652
                                                         0.319288      -0.046374
                                                         0.106668       0.001892

                          2       5    3px               3.130447      -3.914345
                                                         0.966277       2.603852
                                                         0.319288      -0.366926
                                                         0.106668       0.021211
                          2       5    3py               3.130447      -3.914345
                                                         0.966277       2.603852
                                                         0.319288      -0.366926
                                                         0.106668       0.021211
                          2       5    3pz               3.130447      -3.914345
                                                         0.966277       2.603852
                                                         0.319288      -0.366926
                                                         0.106668       0.021211

                          2       6    4px               3.130447       0.035970
                                                         0.966277       0.584401
                                                         0.319288       0.248663
                                                         0.106668      -0.011549
                          2       6    4py               3.130447       0.035970
                                                         0.966277       0.584401
                                                         0.319288       0.248663
                                                         0.106668      -0.011549
                          2       6    4pz               3.130447       0.035970
                                                         0.966277       0.584401
                                                         0.319288       0.248663
                                                         0.106668      -0.011549

                          2       7    3dx2              3.130447      12.003734
                                                         0.966277       0.024974
                                                         0.319288      -0.000993
                                                         0.106668       0.001171
                          2       7    3dxy              3.130447      20.791077
                                                         0.966277       0.043257
                                                         0.319288      -0.001719
                                                         0.106668       0.002027
                          2       7    3dxz              3.130447      20.791077
                                                         0.966277       0.043257
                                                         0.319288      -0.001719
                                                         0.106668       0.002027
                          2       7    3dy2              3.130447      12.003734
                                                         0.966277       0.024974
                                                         0.319288      -0.000993
                                                         0.106668       0.001171
                          2       7    3dyz              3.130447      20.791077
                                                         0.966277       0.043257
                                                         0.319288      -0.001719
                                                         0.106668       0.002027
                          2       7    3dz2              3.130447      12.003734
                                                         0.966277       0.024974
                                                         0.319288      -0.000993
                                                         0.106668       0.001171

                          2       8    4dx2              3.130447      -0.131032
                                                         0.966277       1.436860
                                                         0.319288       0.033800
                                                         0.106668      -0.003271
                          2       8    4dxy              3.130447      -0.226954
                                                         0.966277       2.488715
                                                         0.319288       0.058543
                                                         0.106668      -0.005666
                          2       8    4dxz              3.130447      -0.226954
                                                         0.966277       2.488715
                                                         0.319288       0.058543
                                                         0.106668      -0.005666
                          2       8    4dy2              3.130447      -0.131032
                                                         0.966277       1.436860
                                                         0.319288       0.033800
                                                         0.106668      -0.003271
                          2       8    4dyz              3.130447      -0.226954
                                                         0.966277       2.488715
                                                         0.319288       0.058543
                                                         0.106668      -0.005666
                          2       8    4dz2              3.130447      -0.131032
                                                         0.966277       1.436860
                                                         0.319288       0.033800
                                                         0.106668      -0.003271

                          2       9    4fx3              3.130447      10.892546
                                                         0.966277       0.904365
                                                         0.319288      -0.046765
                                                         0.106668      -0.000779
                          2       9    4fx2y             3.130447      24.356473
                                                         0.966277       2.022223
                                                         0.319288      -0.104570
                                                         0.106668      -0.001741
                          2       9    4fx2z             3.130447      24.356473
                                                         0.966277       2.022223
                                                         0.319288      -0.104570
                                                         0.106668      -0.001741
                          2       9    4fxy2             3.130447      24.356473
                                                         0.966277       2.022223
                                                         0.319288      -0.104570
                                                         0.106668      -0.001741
                          2       9    4fxyz             3.130447      42.186648
                                                         0.966277       3.502592
                                                         0.319288      -0.181121
                                                         0.106668      -0.003016
                          2       9    4fxz2             3.130447      24.356473
                                                         0.966277       2.022223
                                                         0.319288      -0.104570
                                                         0.106668      -0.001741
                          2       9    4fy3              3.130447      10.892546
                                                         0.966277       0.904365
                                                         0.319288      -0.046765
                                                         0.106668      -0.000779
                          2       9    4fy2z             3.130447      24.356473
                                                         0.966277       2.022223
                                                         0.319288      -0.104570
                                                         0.106668      -0.001741
                          2       9    4fyz2             3.130447      24.356473
                                                         0.966277       2.022223
                                                         0.319288      -0.104570
                                                         0.106668      -0.001741
                          2       9    4fz3              3.130447      10.892546
                                                         0.966277       0.904365
                                                         0.319288      -0.046765
                                                         0.106668      -0.000779

       Atomic covalent radius [Angstrom]:                                  0.320

       Atomic van der Waals radius [Angstrom]:                             1.090

     The atoms of this atomic kind are PAW atoms (GAPW):
       Hard Gaussian function radius:                                      1.000
       Rho0 radius:                                                        1.000
       Maximum GTO radius used for PAW projector construction:            24.566

     GAPW Soft Basis Set                                QZVPP-MOLOPT-PBE-ae_soft

       Number of orbital shell sets:                                           2
       Number of orbital shells:                                              10
       Number of primitive Cartesian functions:                                6
       Number of Cartesian basis functions:                                   35
       Number of spherical basis functions:                                   30
       Norm type:                                                              2

       Normalised Cartesian orbitals:

                        Set   Shell   Orbital            Exponent    Coefficient

                          1       1    1s                6.826831       2.001669
                                                         1.919769      -0.029959

                          2       1    1s                3.130447      -1.377299
                                                         0.966277       1.394773
                                                         0.319288      -0.156078
                                                         0.106668      -0.030399

                          2       2    2s                3.130447       0.627930
                                                         0.966277       0.181305
                                                         0.319288       0.270118
                                                         0.106668      -0.141637

                          2       3    3s                3.130447       0.192674
                                                         0.966277       0.139459
                                                         0.319288       0.123455
                                                         0.106668       0.057384

                          2       4    2px               3.130447       5.209863
                                                         0.966277       0.306652
                                                         0.319288      -0.046374
                                                         0.106668       0.001892
                          2       4    2py               3.130447       5.209863
                                                         0.966277       0.306652
                                                         0.319288      -0.046374
                                                         0.106668       0.001892
                          2       4    2pz               3.130447       5.209863
                                                         0.966277       0.306652
                                                         0.319288      -0.046374
                                                         0.106668       0.001892

                          2       5    3px               3.130447      -3.914345
                                                         0.966277       2.603852
                                                         0.319288      -0.366926
                                                         0.106668       0.021211
                          2       5    3py               3.130447      -3.914345
                                                         0.966277       2.603852
                                                         0.319288      -0.366926
                                                         0.106668       0.021211
                          2       5    3pz               3.130447      -3.914345
                                                         0.966277       2.603852
                                                         0.319288      -0.366926
                                                         0.106668       0.021211

                          2       6    4px               3.130447       0.035970
                                                         0.966277       0.584401
                                                         0.319288       0.248663
                                                         0.106668      -0.011549
                          2       6    4py               3.130447       0.035970
                                                         0.966277       0.584401
                                                         0.319288       0.248663
                                                         0.106668      -0.011549
                          2       6    4pz               3.130447       0.035970
                                                         0.966277       0.584401
                                                         0.319288       0.248663
                                                         0.106668      -0.011549

                          2       7    3dx2              3.130447      12.003734
                                                         0.966277       0.024974
                                                         0.319288      -0.000993
                                                         0.106668       0.001171
                          2       7    3dxy              3.130447      20.791077
                                                         0.966277       0.043257
                                                         0.319288      -0.001719
                                                         0.106668       0.002027
                          2       7    3dxz              3.130447      20.791077
                                                         0.966277       0.043257
                                                         0.319288      -0.001719
                                                         0.106668       0.002027
                          2       7    3dy2              3.130447      12.003734
                                                         0.966277       0.024974
                                                         0.319288      -0.000993
                                                         0.106668       0.001171
                          2       7    3dyz              3.130447      20.791077
                                                         0.966277       0.043257
                                                         0.319288      -0.001719
                                                         0.106668       0.002027
                          2       7    3dz2              3.130447      12.003734
                                                         0.966277       0.024974
                                                         0.319288      -0.000993
                                                         0.106668       0.001171

                          2       8    4dx2              3.130447      -0.131032
                                                         0.966277       1.436860
                                                         0.319288       0.033800
                                                         0.106668      -0.003271
                          2       8    4dxy              3.130447      -0.226954
                                                         0.966277       2.488715
                                                         0.319288       0.058543
                                                         0.106668      -0.005666
                          2       8    4dxz              3.130447      -0.226954
                                                         0.966277       2.488715
                                                         0.319288       0.058543
                                                         0.106668      -0.005666
                          2       8    4dy2              3.130447      -0.131032
                                                         0.966277       1.436860
                                                         0.319288       0.033800
                                                         0.106668      -0.003271
                          2       8    4dyz              3.130447      -0.226954
                                                         0.966277       2.488715
                                                         0.319288       0.058543
                                                         0.106668      -0.005666
                          2       8    4dz2              3.130447      -0.131032
                                                         0.966277       1.436860
                                                         0.319288       0.033800
                                                         0.106668      -0.003271

                          2       9    4fx3              3.130447      10.892546
                                                         0.966277       0.904365
                                                         0.319288      -0.046765
                                                         0.106668      -0.000779
                          2       9    4fx2y             3.130447      24.356473
                                                         0.966277       2.022223
                                                         0.319288      -0.104570
                                                         0.106668      -0.001741
                          2       9    4fx2z             3.130447      24.356473
                                                         0.966277       2.022223
                                                         0.319288      -0.104570
                                                         0.106668      -0.001741
                          2       9    4fxy2             3.130447      24.356473
                                                         0.966277       2.022223
                                                         0.319288      -0.104570
                                                         0.106668      -0.001741
                          2       9    4fxyz             3.130447      42.186648
                                                         0.966277       3.502592
                                                         0.319288      -0.181121
                                                         0.106668      -0.003016
                          2       9    4fxz2             3.130447      24.356473
                                                         0.966277       2.022223
                                                         0.319288      -0.104570
                                                         0.106668      -0.001741
                          2       9    4fy3              3.130447      10.892546
                                                         0.966277       0.904365
                                                         0.319288      -0.046765
                                                         0.106668      -0.000779
                          2       9    4fy2z             3.130447      24.356473
                                                         0.966277       2.022223
                                                         0.319288      -0.104570
                                                         0.106668      -0.001741
                          2       9    4fyz2             3.130447      24.356473
                                                         0.966277       2.022223
                                                         0.319288      -0.104570
                                                         0.106668      -0.001741
                          2       9    4fz3              3.130447      10.892546
                                                         0.966277       0.904365
                                                         0.319288      -0.046765
                                                         0.106668      -0.000779

     AE Potential information for                                            ALL

       Description:                                       All-electron potential
                                          Krack, Parrinello, PCCP 2, 2105 (2000)

       Gaussian exponent of the core charge distribution:              12.500000
       Electronic configuration (s p d ...):                           1   0   0


 MOLECULE KIND INFORMATION


 All atoms are their own molecule, skipping detailed information


 TOTAL NUMBERS AND MAXIMUM NUMBERS

  Total number of            - Atomic kinds:                                   2
                             - Atoms:                                          4
                             - Shell sets:                                     9
                             - Shells:                                        47
                             - Primitive Cartesian functions:                 41
                             - Cartesian basis functions:                    177
                             - Spherical basis functions:                    147

  Maximum angular momentum of the orbital basis functions:                     4


 MODULE QUICKSTEP: ATOMIC COORDINATES IN ANGSTROM

   Atom Kind Element         X             Y             Z       Z(eff)     Mass
      1    1 O     8     13.734875     13.500000     12.861325   8.0000  15.9994
      2    2 H     1     14.204635     14.313640     13.138675   1.0000   1.0079
      3    2 H     1     14.204635     12.686360     13.138675   1.0000   1.0079
      4    2 H     1     12.795365     13.500000     13.138675   1.0000   1.0079



 SCF PARAMETERS         Density guess:                                    ATOMIC
                        --------------------------------------------------------
                        max_scf:                                             200
                        max_scf_history:                                       0
                        max_diis:                                              4
                        --------------------------------------------------------
                        eps_scf:                                        5.00E-07
                        eps_scf_history:                                0.00E+00
                        eps_diis:                                       0.00E+00
                        eps_eigval:                                     1.00E-05
                        --------------------------------------------------------
                        level_shift [a.u.]:                             0.000000
                        --------------------------------------------------------
                        Outer loop SCF in use 
                        No variables optimised in outer loop
                        eps_scf                                         5.00E-07
                        max_scf                                               20
                        No outer loop optimization
                        step_size                                       5.00E-01

 PW_GRID| Information for grid number                                          1
 PW_GRID| Cutoff [a.u.]                                                    320.0
 PW_GRID| spherical cutoff:                                                   NO
 PW_GRID|   Bounds   1           -216     215                Points:         432
 PW_GRID|   Bounds   2           -216     215                Points:         432
 PW_GRID|   Bounds   3           -200     199                Points:         400
 PW_GRID| Volume element (a.u.^3)  0.1713E-02     Volume (a.u.^3)    127907.9337
 PW_GRID| Grid span                                                    FULLSPACE

 PW_GRID| Information for grid number                                          2
 PW_GRID| Number of the reference grid                                         1
 PW_GRID| Cutoff [a.u.]                                                    106.7
 PW_GRID| spherical cutoff:                                                   NO
 PW_GRID|   Bounds   1           -120     119                Points:         240
 PW_GRID|   Bounds   2           -120     119                Points:         240
 PW_GRID|   Bounds   3           -120     119                Points:         240
 PW_GRID| Volume element (a.u.^3)  0.9253E-02     Volume (a.u.^3)    127907.9337
 PW_GRID| Grid span                                                    FULLSPACE

 PW_GRID| Information for grid number                                          3
 PW_GRID| Number of the reference grid                                         1
 PW_GRID| Cutoff [a.u.]                                                     35.6
 PW_GRID| spherical cutoff:                                                   NO
 PW_GRID|   Bounds   1            -72      71                Points:         144
 PW_GRID|   Bounds   2            -72      71                Points:         144
 PW_GRID|   Bounds   3            -67      67                Points:         135
 PW_GRID| Volume element (a.u.^3)  0.4569E-01     Volume (a.u.^3)    127907.9337
 PW_GRID| Grid span                                                    FULLSPACE

 PW_GRID| Information for grid number                                          4
 PW_GRID| Number of the reference grid                                         1
 PW_GRID| Cutoff [a.u.]                                                     11.9
 PW_GRID| spherical cutoff:                                                   NO
 PW_GRID|   Bounds   1            -40      39                Points:          80
 PW_GRID|   Bounds   2            -40      39                Points:          80
 PW_GRID|   Bounds   3            -40      39                Points:          80
 PW_GRID| Volume element (a.u.^3)  0.2498         Volume (a.u.^3)    127907.9337
 PW_GRID| Grid span                                                    FULLSPACE

 PW_GRID| Information for grid number                                          5
 PW_GRID| Number of the reference grid                                         1
 PW_GRID| Cutoff [a.u.]                                                      4.0
 PW_GRID| spherical cutoff:                                                   NO
 PW_GRID|   Bounds   1            -22      22                Points:          45
 PW_GRID|   Bounds   2            -22      22                Points:          45
 PW_GRID|   Bounds   3            -22      22                Points:          45
 PW_GRID| Volume element (a.u.^3)   1.404         Volume (a.u.^3)    127907.9337
 PW_GRID| Grid span                                                    FULLSPACE

 POISSON| Solver                                                        ANALYTIC
 POISSON| Periodicity                                                       NONE

 RS_GRID| Information for grid number                                          1
 RS_GRID|   Bounds   1           -216     215                Points:         432
 RS_GRID|   Bounds   2           -216     215                Points:         432
 RS_GRID|   Bounds   3           -200     199                Points:         400

 RS_GRID| Information for grid number                                          2
 RS_GRID|   Bounds   1           -120     119                Points:         240
 RS_GRID|   Bounds   2           -120     119                Points:         240
 RS_GRID|   Bounds   3           -120     119                Points:         240

 RS_GRID| Information for grid number                                          3
 RS_GRID|   Bounds   1            -72      71                Points:         144
 RS_GRID|   Bounds   2            -72      71                Points:         144
 RS_GRID|   Bounds   3            -67      67                Points:         135

 RS_GRID| Information for grid number                                          4
 RS_GRID|   Bounds   1            -40      39                Points:          80
 RS_GRID|   Bounds   2            -40      39                Points:          80
 RS_GRID|   Bounds   3            -40      39                Points:          80

 RS_GRID| Information for grid number                                          5
 RS_GRID|   Bounds   1            -22      22                Points:          45
 RS_GRID|   Bounds   2            -22      22                Points:          45
 RS_GRID|   Bounds   3            -22      22                Points:          45

 Extrapolation method: initial_guess

 Atomic guess: The first density matrix is obtained in terms of atomic orbitals
               and electronic configurations assigned to each atomic kind

 Guess for atomic kind: O

 Electronic structure
    Total number of core electrons                                          0.00
    Total number of valence electrons                                       8.00
    Total number of electrons                                               8.00
    Multiplicity                                                   not specified
    S      2.00  2.00
    P      4.00


 *******************************************************************************
                  Iteration          Convergence                     Energy [au]
 *******************************************************************************
                          1        0.757065                     -74.379458118224
                          2        0.820661                     -74.383027896009
                          3        0.711934E-01                 -74.466741170435
                          4        0.212676E-02                 -74.467608947934
                          5        0.158609E-03                 -74.467609428053
                          6        0.291509E-06                 -74.467609431272

 Energy components [Hartree]           Total Energy ::          -74.467609431272
                                        Band Energy ::          -40.588816934757
                                     Kinetic Energy ::           74.139818043392
                                   Potential Energy ::         -148.607427474664
                                      Virial (-V/T) ::            2.004421259676
                                        Core Energy ::         -103.049038484116
                                          XC Energy ::           -7.768969498399
                                     Coulomb Energy ::           36.350398551243

 Orbital energies  State     L     Occupation   Energy[a.u.]          Energy[eV]

                       1     0          2.000     -18.751766         -510.261508
                       2     0          2.000      -0.869622          -23.663605

                       1     1          4.000      -0.336510           -9.156913


 Total Electron Density at R=0:                                       294.440698

 Guess for atomic kind: H

 Electronic structure
    Total number of core electrons                                          0.00
    Total number of valence electrons                                       1.00
    Total number of electrons                                               1.00
    Multiplicity                                                   not specified
    S      1.00


 *******************************************************************************
                  Iteration          Convergence                     Energy [au]
 *******************************************************************************
                          1        0.789755E-02                  -0.444208304322
                          2        0.114953E-02                  -0.444307779626
                          3        0.297298E-04                  -0.444310667039
                          4        0.544408E-08                  -0.444310669181

 Energy components [Hartree]           Total Energy ::           -0.444310669181
                                        Band Energy ::           -0.232721097962
                                     Kinetic Energy ::            0.428135755362
                                   Potential Energy ::           -0.872446424543
                                      Virial (-V/T) ::            2.037779871493
                                        Core Energy ::           -0.494332080896
                                          XC Energy ::           -0.231885855504
                                     Coulomb Energy ::            0.281907267219

 Orbital energies  State     L     Occupation   Energy[a.u.]          Energy[eV]

                       1     0          1.000      -0.232721           -6.332663


 Total Electron Density at R=0:                                         0.256258
 Re-scaling the density matrix to get the right number of electrons
                  # Electrons              Trace(P)               Scaling factor
                           10                11.000                        0.909

 Number of electrons:                                                         10
 Number of occupied orbitals:                                                  5
 Number of molecular orbitals:                                                 5

 Number of orbital functions:                                                147
 Number of independent orbital functions:                                    147


 SCF WAVEFUNCTION OPTIMIZATION

  ----------------------------------- OT ---------------------------------------
  Minimizer      : DIIS                : direct inversion
                                         in the iterative subspace
                                         using   7 DIIS vectors
                                         safer DIIS on
  Preconditioner : FULL_ALL            : diagonalization, state selective
  Precond_solver : DEFAULT
  stepsize       :    0.10000000                  energy_gap     :    0.00100000
  eps_taylor     :   0.10000E-15                  max_taylor     :             4
  ----------------------------------- OT ---------------------------------------

  Step     Update method      Time    Convergence         Total energy    Change
  ------------------------------------------------------------------------------
 SKALA_GPW| Atom-composite cross support/maxima   2.607069088142E+00   1.416213897846E+01   2.143266212072E+02   4.222288301793E+02
 SKALA_GPW| Active atom-composite XC energy  -8.2622352590986097E+00
 SKALA_GPW| Active atom-composite electrons   9.9999949884983614E+00
 SKALA_GPW| Active atom-composite density range  -5.0520206652842400E-09   1.2985644622910769E+02
 SKALA_GPW| Active atom-composite tau range  -1.5105166117470948E-07   4.6045762903274945E+03
 SKALA_GPW| Active atom-composite tau integral   6.6008839768418028E+01
 SKALA_GPW| Active atom-composite max gradient   2.1137363168451334E+03
     1 OT DIIS     0.10E+00   52.1     0.18497388       -73.8340973229 -7.38E+01
 SKALA_GPW| Atom-composite cross support/maxima   2.607069088142E+00   1.519861126183E+01   2.332937250068E+02   4.690567881688E+02
 SKALA_GPW| Active atom-composite XC energy  -9.1056779082291648E+00
 SKALA_GPW| Active atom-composite electrons   9.9999962969528973E+00
 SKALA_GPW| Active atom-composite density range  -6.4313744935564194E-09   1.4168467791280861E+02
 SKALA_GPW| Active atom-composite tau range  -1.8729444699869461E-07   4.9932807914604591E+03
 SKALA_GPW| Active atom-composite tau integral   7.3978954172697968E+01
 SKALA_GPW| Active atom-composite max gradient   2.2970614104307119E+03
     2 OT DIIS     0.10E+00   51.8     0.10084177       -75.7203942651 -1.89E+00
 SKALA_GPW| Atom-composite cross support/maxima   2.607069088142E+00   1.572295958263E+01   2.431697819134E+02   4.898623497150E+02
 SKALA_GPW| Active atom-composite XC energy  -9.4137450762312014E+00
 SKALA_GPW| Active atom-composite electrons   9.9999973827509816E+00
 SKALA_GPW| Active atom-composite density range  -5.9888473850315448E-09   1.4745062632513353E+02
 SKALA_GPW| Active atom-composite tau range  -1.7712537058134601E-07   5.1406161003594816E+03
 SKALA_GPW| Active atom-composite tau integral   7.6827472590463515E+01
 SKALA_GPW| Active atom-composite max gradient   2.3785809486388634E+03
     3 OT DIIS     0.10E+00   51.0     0.04134777       -76.5137242948 -7.93E-01
 SKALA_GPW| Atom-composite cross support/maxima   2.607069088142E+00   1.579936221640E+01   2.442012435139E+02   4.892047500155E+02
 SKALA_GPW| Active atom-composite XC energy  -9.3681952722935833E+00
 SKALA_GPW| Active atom-composite electrons   9.9999975805618906E+00
 SKALA_GPW| Active atom-composite density range  -5.2724583804713218E-09   1.4783848052567916E+02
 SKALA_GPW| Active atom-composite tau range  -1.5993813918494169E-07   5.1335102071961519E+03
 SKALA_GPW| Active atom-composite tau integral   7.6301794967994979E+01
 SKALA_GPW| Active atom-composite max gradient   2.3810191165349734E+03
     4 OT DIIS     0.10E+00   50.7     0.01620053       -76.6631001986 -1.49E-01
 SKALA_GPW| Atom-composite cross support/maxima   2.607069088142E+00   1.581882299724E+01   2.442193254014E+02   4.889309498563E+02
 SKALA_GPW| Active atom-composite XC energy  -9.3962429978102087E+00
 SKALA_GPW| Active atom-composite electrons   9.9999974986310800E+00
 SKALA_GPW| Active atom-composite density range  -6.2476581644896394E-09   1.4782165961334854E+02
 SKALA_GPW| Active atom-composite tau range  -1.6165328142269680E-07   5.1343086349476871E+03
 SKALA_GPW| Active atom-composite tau integral   7.6445639838798400E+01
 SKALA_GPW| Active atom-composite max gradient   2.3812439876563208E+03
     5 OT DIIS     0.10E+00   51.1     0.01097011       -76.6856926032 -2.26E-02
 SKALA_GPW| Atom-composite cross support/maxima   2.607069088142E+00   1.582389795405E+01   2.435206474024E+02   4.863410063610E+02
 SKALA_GPW| Active atom-composite XC energy  -9.3924347783194779E+00
 SKALA_GPW| Active atom-composite electrons   9.9999972259330754E+00
 SKALA_GPW| Active atom-composite density range  -7.3702823745013344E-09   1.4732888017892367E+02
 SKALA_GPW| Active atom-composite tau range  -1.7146441598810568E-07   5.1238926656218055E+03
 SKALA_GPW| Active atom-composite tau integral   7.6260470745428492E+01
 SKALA_GPW| Active atom-composite max gradient   2.3747206758929110E+03
     6 OT DIIS     0.10E+00   51.7     0.00458486       -76.7050133113 -1.93E-02
 SKALA_GPW| Atom-composite cross support/maxima   2.607069088142E+00   1.583038588090E+01   2.436286045739E+02   4.863818578146E+02
 SKALA_GPW| Active atom-composite XC energy  -9.3908853690080232E+00
 SKALA_GPW| Active atom-composite electrons   9.9999972641633832E+00
 SKALA_GPW| Active atom-composite density range  -8.3876693372414769E-09   1.4736896178514991E+02
 SKALA_GPW| Active atom-composite tau range  -1.7600285889030482E-07   5.1258868727497147E+03
 SKALA_GPW| Active atom-composite tau integral   7.6249143871210222E+01
 SKALA_GPW| Active atom-composite max gradient   2.3756317016076277E+03
     7 OT DIIS     0.10E+00   50.8     0.00289670       -76.7074539556 -2.44E-03
 SKALA_GPW| Atom-composite cross support/maxima   2.607069088142E+00   1.583935726735E+01   2.439417121197E+02   4.871438924735E+02
 SKALA_GPW| Active atom-composite XC energy  -9.3966594599216080E+00
 SKALA_GPW| Active atom-composite electrons   9.9999973685769135E+00
 SKALA_GPW| Active atom-composite density range  -7.7748539444301718E-09   1.4754110778905942E+02
 SKALA_GPW| Active atom-composite tau range  -1.7938115630680337E-07   5.1323414633793927E+03
 SKALA_GPW| Active atom-composite tau integral   7.6323033681042176E+01
 SKALA_GPW| Active atom-composite max gradient   2.3785885802025259E+03
     8 OT DIIS     0.10E+00   52.3     0.00107847       -76.7086786386 -1.22E-03
 SKALA_GPW| Atom-composite cross support/maxima   2.607069088142E+00   1.584194138378E+01   2.439601405617E+02   4.870803996957E+02
 SKALA_GPW| Active atom-composite XC energy  -9.3945583547247136E+00
 SKALA_GPW| Active atom-composite electrons   9.9999973736312846E+00
 SKALA_GPW| Active atom-composite density range  -7.7350684306320993E-09   1.4753965081910562E+02
 SKALA_GPW| Active atom-composite tau range  -1.8246480181929093E-07   5.1324109417254986E+03
 SKALA_GPW| Active atom-composite tau integral   7.6305818715387758E+01
 SKALA_GPW| Active atom-composite max gradient   2.3786218860768431E+03
     9 OT DIIS     0.10E+00   50.9     0.00062697       -76.7088193635 -1.41E-04
 SKALA_GPW| Atom-composite cross support/maxima   2.607069088142E+00   1.584437183144E+01   2.439745921272E+02   4.870792515179E+02
 SKALA_GPW| Active atom-composite XC energy  -9.3949072966461245E+00
 SKALA_GPW| Active atom-composite electrons   9.9999973722839659E+00
 SKALA_GPW| Active atom-composite density range  -7.6423762144103224E-09   1.4754059006908324E+02
 SKALA_GPW| Active atom-composite tau range  -1.7723882551218644E-07   5.1326030348276554E+03
 SKALA_GPW| Active atom-composite tau integral   7.6308186869516021E+01
 SKALA_GPW| Active atom-composite max gradient   2.3786671128405887E+03
    10 OT DIIS     0.10E+00   50.0     0.00030524       -76.7088845936 -6.52E-05
 SKALA_GPW| Atom-composite cross support/maxima   2.607069088142E+00   1.584606875263E+01   2.439833324336E+02   4.870497926695E+02
 SKALA_GPW| Active atom-composite XC energy  -9.3943831316496631E+00
 SKALA_GPW| Active atom-composite electrons   9.9999973749561217E+00
 SKALA_GPW| Active atom-composite density range  -7.6005254562472930E-09   1.4754085311330735E+02
 SKALA_GPW| Active atom-composite tau range  -1.7697086295441836E-07   5.1328746535128321E+03
 SKALA_GPW| Active atom-composite tau integral   7.6305616532007008E+01
 SKALA_GPW| Active atom-composite max gradient   2.3787345560045223E+03
    11 OT DIIS     0.10E+00   51.5     0.00010667       -76.7089004316 -1.58E-05
 SKALA_GPW| Atom-composite cross support/maxima   2.607069088142E+00   1.584640668666E+01   2.439870255736E+02   4.870527821147E+02
 SKALA_GPW| Active atom-composite XC energy  -9.3944734139455193E+00
 SKALA_GPW| Active atom-composite electrons   9.9999973760570935E+00
 SKALA_GPW| Active atom-composite density range  -7.5904801775128797E-09   1.4754236308383807E+02
 SKALA_GPW| Active atom-composite tau range  -1.7659900754594006E-07   5.1330072567721263E+03
 SKALA_GPW| Active atom-composite tau integral   7.6306906502104610E+01
 SKALA_GPW| Active atom-composite max gradient   2.3787763969027128E+03
    12 OT DIIS     0.10E+00   52.2     0.00005493       -76.7089019202 -1.49E-06
 SKALA_GPW| Atom-composite cross support/maxima   2.607069088142E+00   1.584657497722E+01   2.439902963626E+02   4.870566980737E+02
 SKALA_GPW| Active atom-composite XC energy  -9.3944767351532530E+00
 SKALA_GPW| Active atom-composite electrons   9.9999973770893114E+00
 SKALA_GPW| Active atom-composite density range  -7.5888013878507092E-09   1.4754389559040163E+02
 SKALA_GPW| Active atom-composite tau range  -1.7663850211209861E-07   5.1330792124252412E+03
 SKALA_GPW| Active atom-composite tau integral   7.6307329705094233E+01
 SKALA_GPW| Active atom-composite max gradient   2.3788067969884910E+03
    13 OT DIIS     0.10E+00   50.9     0.00002295       -76.7089023379 -4.18E-07
 SKALA_GPW| Atom-composite cross support/maxima   2.607069088142E+00   1.584661463237E+01   2.439913995751E+02   4.870587930890E+02
 SKALA_GPW| Active atom-composite XC energy  -9.3944855557273979E+00
 SKALA_GPW| Active atom-composite electrons   9.9999973772262756E+00
 SKALA_GPW| Active atom-composite density range  -7.5904511616643529E-09   1.4754439235847369E+02
 SKALA_GPW| Active atom-composite tau range  -1.7670622934775309E-07   5.1330850081438293E+03
 SKALA_GPW| Active atom-composite tau integral   7.6307427793753504E+01
 SKALA_GPW| Active atom-composite max gradient   2.3788128972472136E+03
    14 OT DIIS     0.10E+00   51.4     0.00001006       -76.7089023990 -6.11E-08
 SKALA_GPW| Atom-composite cross support/maxima   2.607069088142E+00   1.584664960461E+01   2.439916764393E+02   4.870588273608E+02
 SKALA_GPW| Active atom-composite XC energy  -9.3944954356772676E+00
 SKALA_GPW| Active atom-composite electrons   9.9999973770743882E+00
 SKALA_GPW| Active atom-composite density range  -7.5910312963186740E-09   1.4754436611887405E+02
 SKALA_GPW| Active atom-composite tau range  -1.7675451811284665E-07   5.1330843566818348E+03
 SKALA_GPW| Active atom-composite tau integral   7.6307431454148940E+01
 SKALA_GPW| Active atom-composite max gradient   2.3788125697009887E+03
    15 OT DIIS     0.10E+00   52.2     0.00000331       -76.7089024091 -1.01E-08
 SKALA_GPW| Atom-composite cross support/maxima   2.607069088142E+00   1.584665205213E+01   2.439915797597E+02   4.870584814284E+02
 SKALA_GPW| Active atom-composite XC energy  -9.3944948451027273E+00
 SKALA_GPW| Active atom-composite electrons   9.9999973770116579E+00
 SKALA_GPW| Active atom-composite density range  -7.5911008356496537E-09   1.4754429061707924E+02
 SKALA_GPW| Active atom-composite tau range  -1.7676048358378266E-07   5.1330828184661386E+03
 SKALA_GPW| Active atom-composite tau integral   7.6307408342701251E+01
 SKALA_GPW| Active atom-composite max gradient   2.3788115324928999E+03
    16 OT DIIS     0.10E+00   49.6     0.00000207       -76.7089024148 -5.61E-09
 SKALA_GPW| Atom-composite cross support/maxima   2.607069088142E+00   1.584665077077E+01   2.439914377314E+02   4.870580985426E+02
 SKALA_GPW| Active atom-composite XC energy  -9.3944936109073893E+00
 SKALA_GPW| Active atom-composite electrons   9.9999973769572019E+00
 SKALA_GPW| Active atom-composite density range  -7.5911603163421489E-09   1.4754421309307455E+02
 SKALA_GPW| Active atom-composite tau range  -1.7676130554718855E-07   5.1330812717482249E+03
 SKALA_GPW| Active atom-composite tau integral   7.6307389735745048E+01
 SKALA_GPW| Active atom-composite max gradient   2.3788104486953921E+03
    17 OT DIIS     0.10E+00   50.3     0.00000061       -76.7089024064  8.36E-09
 SKALA_GPW| Atom-composite cross support/maxima   2.607069088142E+00   1.584665027318E+01   2.439914530420E+02   4.870581394087E+02
 SKALA_GPW| Active atom-composite XC energy  -9.3944935328651642E+00
 SKALA_GPW| Active atom-composite electrons   9.9999973769726065E+00
 SKALA_GPW| Active atom-composite density range  -7.5911349499959641E-09   1.4754422684331914E+02
 SKALA_GPW| Active atom-composite tau range  -1.7676160868346637E-07   5.1330820382958645E+03
 SKALA_GPW| Active atom-composite tau integral   7.6307394954225217E+01
 SKALA_GPW| Active atom-composite max gradient   2.3788107373285561E+03
    18 OT DIIS     0.10E+00   52.3     0.00000029       -76.7089024070 -5.69E-10

  *** SCF run converged in    18 steps ***


  Electronic density on regular grids:         -8.0433784145        1.9566215855
  Core density on regular grids:               11.0000000000        0.0000000000
  Hard and soft densities (Lebedev):         -279.5848703831     -277.6282487905
  Total Rho_soft + Rho1_hard - Rho1_soft      -10.0000000071
  Total charge density (r-space):               0.9999999929
  Total Rho_soft + Rho0_soft (g-space):         0.9999999926

  Overlap energy of the core charge distribution:               0.00000007825684
  Self energy of the core charge distribution:                -77.14154210447671
  Core Hamiltonian energy:                                     -4.98071261502738
  Hartree energy:                                              30.81004392035044
  Exchange-correlation energy:                                  0.00000000000000
  Dispersion energy:                                           -0.00106333136795

  GAPW| Exc from hard and soft atomic rho1:                    -9.39449353286516
  GAPW| local Eh = 1 center integrals:                        -16.00113482183565

  Total energy:                                               -76.70890240696558

  outer SCF iter =    1 RMS gradient =   0.29E-06 energy =        -76.7089024070
  outer SCF loop converged in   1 iterations or   18 steps


 !-----------------------------------------------------------------------------!
                     Mulliken Population Analysis

 #  Atom  Element  Kind  Atomic population                           Net charge
       1     O        1          8.139901                             -0.139901
       2     H        2          0.620081                              0.379919
       3     H        2          0.620076                              0.379924
       4     H        2          0.619941                              0.380059
 # Total charge                             10.000000                  1.000000

 !-----------------------------------------------------------------------------!

 !-----------------------------------------------------------------------------!
                           Hirshfeld Charges

  #Atom  Element  Kind  Ref Charge     Population                    Net charge
      1       O      1       8.000          8.941                        -0.941
      2       H      2       1.000          0.353                         0.647
      3       H      2       1.000          0.353                         0.647
      4       H      2       1.000          0.353                         0.647

  Total Charge                                                            1.000
 !-----------------------------------------------------------------------------!

 ENERGY| Total FORCE_EVAL ( QS ) energy [hartree]            -76.708902406965578

 -------------------------------------------------------------------------------
 -                                                                             -
 -                                DBCSR STATISTICS                             -
 -                                                                             -
 -------------------------------------------------------------------------------
 COUNTER                                    TOTAL       BLAS       SMM       ACC
 flops     5 x     5 x     5                39000     100.0%      0.0%      0.0%     
 flops    57 x     5 x     5               259350     100.0%      0.0%      0.0%     
 flops    57 x    30 x     5               324900     100.0%      0.0%      0.0%     
 flops    30 x     5 x     5               409500     100.0%      0.0%      0.0%     
 flops     5 x     5 x   147               536550     100.0%      0.0%      0.0%     
 flops    57 x    57 x     5               617310     100.0%      0.0%      0.0%     
 flops    30 x    57 x     5               649800     100.0%      0.0%      0.0%     
 flops    30 x    30 x     5              1026000     100.0%      0.0%      0.0%     
 flops    57 x     5 x    57              1462050     100.0%      0.0%      0.0%     
 flops    57 x     5 x    30              2308500     100.0%      0.0%      0.0%     
 flops    30 x     5 x    57              2308500     100.0%      0.0%      0.0%     
 flops    57 x     5 x   147              3184020     100.0%      0.0%      0.0%     
 flops    30 x     5 x    30              3645000     100.0%      0.0%      0.0%     
 flops    30 x     5 x   147              5027400     100.0%      0.0%      0.0%     
 flops inhomo. stacks                           0       0.0%      0.0%      0.0%
 flops total                        21.797880E+06     100.0%      0.0%      0.0%
 flops max/rank                     21.797880E+06     100.0%      0.0%      0.0%
 matmuls inhomo. stacks                         0       0.0%      0.0%      0.0%
 matmuls total                               1655     100.0%      0.0%      0.0%
 number of processed stacks                  1238     100.0%      0.0%      0.0%
 average stack size                                     1.3       0.0       0.0
 marketing flops                    23.292930E+06
 -------------------------------------------------------------------------------
 # multiplications                            423
 max memory usage/rank              54.568309E+09
 # max total images/rank                        1
 # max 3D layers                                1
 # MPI messages exchanged                       0
 -------------------------------------------------------------------------------

 -------------------------------------------------------------------------------
 -                                                                             -
 -                                GRID STATISTICS                              -
 -                                                                             -
 -------------------------------------------------------------------------------
 LP    KERNEL             BACKEND                              COUNT     PERCENT
 6     collocate ortho    CPU                                   2508      10.27%
 6     integrate ortho    CPU                                   2376       9.73%
 8     collocate ortho    CPU                                   2128       8.71%
 8     integrate ortho    CPU                                   2016       8.25%
 5     collocate ortho    CPU                                   1976       8.09%
 3     collocate ortho    CPU                                   1938       7.93%
 5     integrate ortho    CPU                                   1872       7.66%
 3     integrate ortho    CPU                                   1836       7.52%
 7     collocate ortho    CPU                                   1064       4.36%
 7     integrate ortho    CPU                                   1008       4.13%
 9     collocate ortho    CPU                                    912       3.73%
 9     integrate ortho    CPU                                    864       3.54%
 4     collocate ortho    CPU                                    703       2.88%
 4     integrate ortho    CPU                                    666       2.73%
 2     collocate ortho    CPU                                    418       1.71%
 0     collocate ortho    CPU                                    399       1.63%
 2     integrate ortho    CPU                                    396       1.62%
 0     integrate ortho    CPU                                    378       1.55%
 10    collocate ortho    CPU                                    304       1.24%
 10    integrate ortho    CPU                                    288       1.18%
 1     collocate ortho    CPU                                    114       0.47%
 1     integrate ortho    CPU                                    108       0.44%
 4     collocate general  CPU                                     72       0.29%
 4     integrate general  CPU                                     72       0.29%
 0     collocate general  CPU                                      8       0.03%
 0     integrate general  CPU                                      4       0.02%
 -------------------------------------------------------------------------------

 -------------------------------------------------------------------------------
 -                                                                             -
 -                          OFFLOAD MEMPOOL STATISTICS                         -
 -                                                                             -
 -------------------------------------------------------------------------------
 Memory consumption                Number of allocations  Used [MiB]  Size [MiB]
 Host                                                  8        1271           0
 -------------------------------------------------------------------------------

 MEMORY| Estimated peak process memory [MiB]                               37753

 -------------------------------------------------------------------------------
 ----                             MULTIGRID INFO                            ----
 -------------------------------------------------------------------------------
 count for grid        1:          39252          cutoff [a.u.]          320.00
 count for grid        2:          15802          cutoff [a.u.]          106.67
 count for grid        3:           9395          cutoff [a.u.]           35.56
 count for grid        4:           2540          cutoff [a.u.]           11.85
 count for grid        5:             45          cutoff [a.u.]            3.95
 total gridlevel count  :          67034

 -------------------------------------------------------------------------------
 -                                                                             -
 -                           R E F E R E N C E S                               -
 -                                                                             -
 -------------------------------------------------------------------------------
 
 CP2K version 2026.2 (Development Version), the CP2K developers group (2026).
 CP2K is freely available from https://www.cp2k.org/ .
 
 M. Iannuzzi, J. Wilhelm, F. Stein, A. Bussy, H. Elgabarty, D. Golze, A. Hehn, 
 M. Graml, S. Marek, B. Sertcan Gökmen, C. Schran, H. Forbert, R. Z. 
 Khaliullin, A. Kozhevnikov, M. Taillefumier, R. Meli, V. V. Rybkin, M. Brehm, 
 R. Schade, O. Schütt, J. V. Pototschnig, H. Mirhosseini, A. Knüpfer, D. Marx, 
 M. Krack, J. Hutter, T. D. Kühne.
 J. Phys. Chem. B 130, 1237-1310 (2026).
 The CP2K Program Package Made Simple.
 https://doi.org/10.1021/acs.jpcb.5c05851

 L. Wittmann, I. Gordiy, M. Friede, B. Helmich-Paris, S. Grimme, A. Hansen, M. 
 Bursch.
 Phys. Chem. Chem. Phys. 26, 21379-21394 (2024).
 Extension of the D3 and D4 London dispersion corrections to the full actinides 
 series.
 https://doi.org/10.1039/d4cp01514b

 T. D. Kühne, M. Iannuzzi, M. Del Ben, V. V. Rybkin, P. Seewald, F. Stein, T. 
 Laino, R. Z. Khaliullin, O. Schütt, F. Schiffmann, D. Golze, J. Wilhelm, S. 
 Chulkov, M. H. Bani-Hashemian, V. Weber, U. Borstnik, M. Taillefumier, A. S. 
 Jakobovits, A. Lazzaro, H. Pabst, T. Müller, R. Schade, M. Guidon, S. 
 Andermatt, N. Holmberg, G. K. Schenter, A. Hehn, A. Bussy, F. Belleflamme, G. 
 Tabacchi, A. Glöß, M. Lass, I. Bethune, C. J. Mundy, C. Plessl, M. Watkins, 
 J. VandeVondele, M. Krack, J. Hutter.
 J. Chem. Phys. 152, 194103 (2020).
 CP2K: An electronic structure and molecular dynamics software package - 
 Quickstep: Efficient and accurate electronic structure calculations.
 https://doi.org/10.1063/5.0007045

 L. Goerigk, A. Hansen, C. Bauer, S. Ehrlich, A. Najibi, S. Grimme.
 Phys. Chem. Chem. Phys. 19, 32184-32215 (2017).
 A look at the density functional theory zoo with the advanced GMTKN55 database 
 for general main group thermochemistry, kinetics and noncovalent interactions.
 https://doi.org/10.1039/C7CP04913G

 O. Schuett, P. Messmer, J. Hutter, J. VandeVondele.
 Electronic Structure Calculations on Graphics Processing Units, 173-190 (2016).
 GPU-Accelerated Sparse Matrix-Matrix Multiplication for Linear Scaling Density 
 Functional Theory.
 https://doi.org/10.1002/9781118670712.ch8

 U. Borstnik, J. VandeVondele, V. Weber, J. Hutter.
 Parallel Comput. 40, 47-58 (2014).
 Sparse matrix multiplication: The distributed block-compressed sparse row 
 library.
 https://doi.org/10.1016/j.parco.2014.03.012

 S. Grimme, S. Ehrlich, L. Goerigk.
 J. Comput. Chem. 32, 1456 (2011).
 Effect of the damping function in dispersion corrected density functional 
 theory.
 https://doi.org/10.1002/jcc.21759

 S. Grimme, J. Antony, S. Ehrlich, H. Krieg.
 J. Chem. Phys. 132, 154104 (2010).
 A consistent and accurate ab initio parametrization of density functional 
 dispersion correction (DFT-D) for the 94 elements H-Pu.
 https://doi.org/10.1063/1.3382344

 J. VandeVondele, J. Hutter.
 J. Chem. Phys. 127, 114105 (2007).
 Gaussian basis sets for accurate calculations on molecular systems in gas and 
 condensed phases.
 https://doi.org/10.1063/1.2770708

 M. Frigo, S. G. Johnson.
 Proc. IEEE 93, 216-231 (2005).
 The design and implementation of FFTW3.
 https://doi.org/10.1109/JPROC.2004.840301

 J. VandeVondele, J. Hutter.
 J. Chem. Phys. 118, 4365-4369 (2003).
 An efficient orbital transformation method for electronic structure 
 calculations.
 https://doi.org/10.1063/1.1543154

 M. Krack, M. Parrinello.
 Phys. Chem. Chem. Phys. 2, 2105-2112 (2000).
 All-electron ab-initio molecular dynamics.
 https://doi.org/10.1039/b001167n

 G. Lippert, J. Hutter, M. Parrinello.
 Theor. Chem. Acc. 103, 124-140 (1999).
 The Gaussian and augmented-plane-wave density functional method for ab initio 
 molecular dynamics simulations.
 https://doi.org/10.1007/s002140050523


 -------------------------------------------------------------------------------
 -                                                                             -
 -                                T I M I N G                                  -
 -                                                                             -
 -------------------------------------------------------------------------------
 SUBROUTINE                       CALLS  ASD         SELF TIME        TOTAL TIME
                                MAXIMUM       AVERAGE  MAXIMUM  AVERAGE  MAXIMUM
 CP2K                                 1  1.0    1.698    1.698  951.665  951.665
 qs_energies                          1  2.0    0.000    0.000  936.066  936.066
 scf_env_do_scf                       1  3.0    0.000    0.000  928.838  928.838
 scf_env_do_scf_inner_loop           18  4.0    0.006    0.006  876.759  876.759
 qs_ks_update_qs_env                 19  5.0    0.000    0.000  821.951  821.951
 rebuild_ks_matrix                   18  6.0    0.000    0.000  821.949  821.949
 qs_ks_build_kohn_sham_matrix        18  7.0    0.005    0.005  821.949  821.949
 calculate_vxc_atom                  18  8.0  246.925  246.925  704.485  704.485
 fft_wrap_pw1pw2                    570  9.5    0.010    0.010  275.663  275.663
 fft_wrap_pw1pw2_320                274 10.6   81.719   81.719  261.038  261.038
 qs_rho_update_rho_low               19  5.0    0.000    0.000  112.733  112.733
 calculate_rho_elec                  38  6.0    9.296    9.296  112.643  112.643
 xc_pw_derive                       108  9.5    0.001    0.001  108.985  108.985
 fft3d_s                            571 11.5   94.902   94.902   94.908   94.908
 skala_atom_torch_backward           18  9.0   86.447   86.447   86.447   86.447
 density_rs2pw                       38  7.0    0.002    0.002   85.312   85.312
 calc_tau_atom                      216  9.0   74.831   74.831   74.831   74.831
 xc_pw_divergence                    18  9.0    0.001    0.001   72.553   72.553
 pw_scatter_s                       272 12.1   66.798   66.798   66.798   66.798
 skala_atom_torch_forward            18  9.0    0.003    0.003   62.546   62.546
 torch_model_forward_mol_tensor      18 10.0   62.543   62.543   62.543   62.543
 gaVxcgb_GC                         144  9.0   53.911   53.911   53.911   53.911
 init_scf_loop                        1  4.0    0.000    0.000   52.079   52.079
 sum_up_and_integrate                18  8.0    0.001    0.001   49.015   49.015
 integrate_v_rspace                  36  9.0    0.003    0.003   48.375   48.375
 potential_pw2rs                     36 10.0    0.309    0.309   48.012   48.012
 dgaVtaudgb                         144  9.0   44.842   44.842   44.842   44.842
 prepare_gapw_den                    18  8.0    0.001    0.001   29.055   29.055
 put_rho0_on_grid                    18  9.0    4.408    4.408   24.259   24.259
 pw_gather_s                        298 11.0   21.103   21.103   21.103   21.103
 pw_poisson_solve                    18  8.0    0.000    0.000   19.170   19.170
 -------------------------------------------------------------------------------

 The number of warnings for this run is : 0
 
 -------------------------------------------------------------------------------
  **** **** ******  **  PROGRAM ENDED AT                 2026-09-16 00:11:05.798
 ***** ** ***  *** **   PROGRAM RAN ON                                    cge062
 **    ****   ******    PROGRAM RAN BY                                  kuehne88
 ***** **    ** ** **   PROGRAM PROCESS ID                               1146649
  **** **  *******  **  PROGRAM STOPPED IN /bigdata/casus/fwuk/shared/kuehne88-n
                                           ative-skala/common70-ae-qzvpp-2026091
                                           5/runs/cae8d4ef1c25ad4a871ee9af8721d8
                                           55c34731ea/qzvpp
