 DBCSR| CPU Multiplication driver                                           BLAS (U)
 DBCSR| Multrec recursion limit                                              512 (U)
 DBCSR| Multiplication stack size                                          30000 (D)
 DBCSR| Maximum elements for images                                    UNLIMITED (U)
 DBCSR| Multiplicative factor virtual images                                   1 (U)
 DBCSR| Use multiplication densification                                       F (D)
 DBCSR| Multiplication size stacks                                             3 (U)
 DBCSR| Use memory pool for CPU allocation                                     F (U)
 DBCSR| Number of 3D layers                                               SINGLE (U)
 DBCSR| Use MPI memory allocation                                              F (U)
 DBCSR| Use RMA algorithm                                                      F (U)
 DBCSR| Use Communication thread                                               T (U)
 DBCSR| Communication thread load                                              0 (D)
 DBCSR| MPI: My process id                                                     0
 DBCSR| MPI: Number of processes                                               1
 DBCSR| OMP: Current number of threads                                        32
 DBCSR| OMP: Max number of threads                                            32
 DBCSR| ACC: Number of devices/node                                            1
 DBCSR| ACC: Number of stack-buffers per thread                                8 (U)
 DBCSR| ACC: Avoid driver after busy                                           F (U)
 DBCSR| ACC: Process inhomogeneous stacks                                      T (U)
 DBCSR| ACC: Min. flop for processing                                          0 (U)
 DBCSR| ACC: Use G2G algorithm                                                 F (D)
 DBCSR| ACC: Min. flop for sorting                                          4000 (U)
 DBCSR| ACC: Number of binning bins                                         4096 (U)
 DBCSR| ACC: Size of binning bins                                             16 (U)
 DBCSR| ACC: GPU backend is enabled                                            T (D)
 DBCSR| Split modifier for TAS multiplication algorithm                  1.0E+00 (U)


  **** **** ******  **  PROGRAM STARTED AT               2026-08-20 13:51:59.492
 ***** ** ***  *** **   PROGRAM STARTED ON                                 gb008
 **    ****   ******    PROGRAM STARTED BY                              kuehne88
 ***** **    ** ** **   PROGRAM PROCESS ID                               3251663
  **** **  *******  **  PROGRAM STARTED IN /data/home2/kuehne88/cp2k-native-skal
                                           a/validation-uzh/cutoff-pilot-b200/ac
                                           onf-8-gpw-720-b200-ttt

 CP2K| version string:                 CP2K version 2026.2 (Development Version)
 CP2K| source code revision number:                                   2f672e6c06
 CP2K| cp2kflags: omp fftw3 parallel scalapack mpi_f08 dbcsr_acc spglib openblas
 CP2K|             libtorch libtorch_cuda offload_cuda
 CP2K| is freely available from                            https://www.cp2k.org/
 CP2K| Program compiled at                                   2026-08-20 01:20:11
 CP2K| Program compiled on                                                 gb008
 CP2K| Program compiled for                                               x86_64
 CP2K| Data directory path    /home/kuehne88/cp2k-native-skala/install/cp2k-b200
 CP2K| Input file name                                                 input.inp

 GLOBAL| Force Environment number                                              1
 GLOBAL| Basis set file name                             BASIS_MOLOPT_UZH_2026.2
 GLOBAL| Potential file name                                POTENTIAL_UZH_2026.2
 GLOBAL| MM Potential file name                                     MM_POTENTIAL
 GLOBAL| Coordinate file name                                      __STD_INPUT__
 GLOBAL| Method name                                                        CP2K
 GLOBAL| Project name                                       053d252e4457_gpw_gth
 GLOBAL| Run type                                                         ENERGY
 GLOBAL| FFT library                                                       FFTW3
 GLOBAL| Diagonalization library                                       ScaLAPACK
 GLOBAL| Cholesky decomposition library                                ScaLAPACK
 GLOBAL| DGEMM library                                                      BLAS
 GLOBAL| Direct generalized diagonalization requested                          F
 GLOBAL| Orthonormality check for eigenvectors                          DISABLED
 GLOBAL| Matrix multiplication library                                 ScaLAPACK
 GLOBAL| All-to-all communication in single precision                          F
 GLOBAL| FFTs using library dependent lengths                                  F
 GLOBAL| Grid backend                                                       AUTO
 GLOBAL| Global print level                                               MEDIUM
 GLOBAL| MPI I/O enabled                                                       T
 GLOBAL| Total number of message passing processes                             1
 GLOBAL| Number of distributed systems (nodes)                                 1
 GLOBAL| Number of threads for this process                                   32
 GLOBAL| This output is from process                                           0
 GLOBAL| OpenMP stack size per thread (OMP_STACKSIZE)                       256M
 GLOBAL| CPU model name                         AMD EPYC 9755 128-Core Processor

 MEMORY| system memory details [Kb]
 MEMORY|                        rank 0           min           max       average
 MEMORY| MemTotal           2377441624    2377441624    2377441624    2377441624
 MEMORY| MemFree            2251498272    2251498272    2251498272    2251498272
 MEMORY| Buffers                  7448          7448          7448          7448
 MEMORY| Cached                8503208       8503208       8503208       8503208
 MEMORY| Slab                  3442760       3442760       3442760       3442760
 MEMORY| SReclaimable           649820        649820        649820        649820
 MEMORY| MemLikelyFree      2260658748    2260658748    2260658748    2260658748


 *** Fundamental physical constants (SI units) ***

 *** Literature: B. J. Mohr and B. N. Taylor,
 ***             CODATA recommended values of the fundamental physical
 ***             constants: 2006, Web Version 5.1
 ***             http://physics.nist.gov/constants

 Speed of light in vacuum [m/s]                             2.99792458000000E+08
 Magnetic constant or permeability of vacuum [N/A**2]       1.25663706143592E-06
 Electric constant or permittivity of vacuum [F/m]          8.85418781762039E-12
 Planck constant (h) [J*s]                                  6.62606896000000E-34
 Planck constant (h-bar) [J*s]                              1.05457162825177E-34
 Elementary charge [C]                                      1.60217648700000E-19
 Electron mass [kg]                                         9.10938215000000E-31
 Electron g factor [ ]                                     -2.00231930436220E+00
 Proton mass [kg]                                           1.67262163700000E-27
 Fine-structure constant                                    7.29735253760000E-03
 Rydberg constant [1/m]                                     1.09737315685270E+07
 Avogadro constant [1/mol]                                  6.02214179000000E+23
 Boltzmann constant [J/K]                                   1.38065040000000E-23
 Atomic mass unit [kg]                                      1.66053878200000E-27
 Bohr radius [m]                                            5.29177208590000E-11

 *** Conversion factors ***

 [u] -> [a.u.]                                              1.82288848426455E+03
 [Angstrom] -> [Bohr] = [a.u.]                              1.88972613288564E+00
 [a.u.] = [Bohr] -> [Angstrom]                              5.29177208590000E-01
 [a.u.] -> [s]                                              2.41888432650478E-17
 [a.u.] -> [fs]                                             2.41888432650478E-02
 [a.u.] -> [J]                                              4.35974393937059E-18
 [a.u.] -> [N]                                              8.23872205491840E-08
 [a.u.] -> [K]                                              3.15774647902944E+05
 [a.u.] -> [kJ/mol]                                         2.62549961709828E+03
 [a.u.] -> [kcal/mol]                                       6.27509468713739E+02
 [a.u.] -> [Pa]                                             2.94210107994716E+13
 [a.u.] -> [bar]                                            2.94210107994716E+08
 [a.u.] -> [atm]                                            2.90362800883016E+08
 [a.u.] -> [eV]                                             2.72113838565563E+01
 [a.u.] -> [Hz]                                             6.57968392072181E+15
 [a.u.] -> [1/cm] (wave numbers)                            2.19474631370540E+05
 [a.u./Bohr**2] -> [1/cm]                                   5.14048714338585E+03
 

 CELL| Volume [angstrom^3]:                                         41440.000000
 CELL| Vector a [angstrom]:      35.000     0.000     0.000   |a| =    35.000000
 CELL| Vector b [angstrom]:       0.000    37.000     0.000   |b| =    37.000000
 CELL| Vector c [angstrom]:       0.000     0.000    32.000   |c| =    32.000000
 CELL| Angle (b,c), alpha [degree]:                                    90.000000
 CELL| Angle (a,c), beta  [degree]:                                    90.000000
 CELL| Angle (a,b), gamma [degree]:                                    90.000000
 CELL| Numerically orthorhombic:                                             YES
 CELL| Periodicity                                                          NONE

 CELL_REF| Volume [angstrom^3]:                                     41440.000000
 CELL_REF| Vector a [angstrom    35.000     0.000     0.000   |a| =    35.000000
 CELL_REF| Vector b [angstrom     0.000    37.000     0.000   |b| =    37.000000
 CELL_REF| Vector c [angstrom     0.000     0.000    32.000   |c| =    32.000000
 CELL_REF| Angle (b,c), alpha [degree]:                                90.000000
 CELL_REF| Angle (a,c), beta  [degree]:                                90.000000
 CELL_REF| Angle (a,b), gamma [degree]:                                90.000000
 CELL_REF| Numerically orthorhombic:                                         YES
 CELL_REF| Periodicity                                                      NONE

 GENERATE|  Preliminary Number of Bonds generated:                             0
 GENERATE|  Achieved consistency in connectivity generation.

 *******************************************************************************
 *******************************************************************************
 **                                                                           **
 **     #####                         ##              ##                      **
 **    ##   ##            ##          ##              ##                      **
 **   ##     ##                       ##            ######                    **
 **   ##     ##  ##   ##  ##   #####  ##  ##   ####   ##    #####    #####    **
 **   ##     ##  ##   ##  ##  ##      ## ##   ##      ##   ##   ##  ##   ##   **
 **   ##  ## ##  ##   ##  ##  ##      ####     ###    ##   ######   ######    **
 **    ##  ###   ##   ##  ##  ##      ## ##      ##   ##   ##       ##        **
 **     #######   #####   ##   #####  ##  ##  ####    ##    #####   ##        **
 **           ##                                                    ##        **
 **                                                                           **
 **                                                ... make the atoms dance   **
 **                                                                           **
 **            Copyright (C) by CP2K developers group (2000-2026)             **
 **                      J. Chem. Phys. 152, 194103 (2020)                    **
 **                                                                           **
 *******************************************************************************

 DFT| Spin restricted Kohn-Sham (RKS) calculation                            RKS
 DFT| Multiplicity                                                             1
 DFT| Number of spin states                                                    1
 DFT| Charge                                                                   0
 DFT| Self-interaction correction (SIC)                                       NO
 DFT| Cutoffs: density                                              1.000000E-10
 DFT|          gradient                                             1.000000E-10
 DFT|          tau                                                  1.000000E-10
 DFT|          cutoff_smoothing_range                               0.000000E+00
 DFT| XC density smoothing                                                  NONE
 DFT| XC derivatives                                                          PW

 FUNCTIONAL| GAUXC:
 FUNCTIONAL| Functional computed by GauXC Skala model SKALA                     

 vdW POTENTIAL|                                                   Pair Potential
 vdW POTENTIAL|          DFT-D3 (Version 3.1)
 vdW POTENTIAL|          Potential Form: S. Grimme et al, JCP 132: 154104 (2010)
 vdW POTENTIAL|          BJ Damping: S. Grimme et al, JCC 32: 1456 (2011)
 vdW POTENTIAL|          Cutoff Radius [Bohr]:                             37.79
 vdW POTENTIAL|          s6 Scaling Factor:                               1.0000
 vdW POTENTIAL|          a1 Damping Factor:                               0.3981
 vdW POTENTIAL|          s8 Scaling Factor:                               1.9889
 vdW POTENTIAL|          a2 Damping Factor:                               4.4211
 vdW POTENTIAL|          Cutoff for CN calculation:                   0.1000E-05

 QS| Method:                                                                 GPW
 QS| Density plane wave grid type                        NON-SPHERICAL FULLSPACE
 QS| Number of grid levels:                                                    5
 QS| Density cutoff [a.u.]:                                                360.0
 QS| Multi grid cutoff [a.u.]: 1) grid level                               360.0
 QS|                           2) grid level                               120.0
 QS|                           3) grid level                                40.0
 QS|                           4) grid level                                13.3
 QS|                           5) grid level                                 4.4
 QS| Grid level progression factor:                                          3.0
 QS| Relative density cutoff [a.u.]:                                        30.0
 QS| Interaction thresholds: eps_pgf_orb:                                1.0E-06
 QS|                         eps_filter_matrix:                          0.0E+00
 QS|                         eps_core_charge:                            1.0E-14
 QS|                         eps_rho_gspace:                             1.0E-12
 QS|                         eps_rho_rspace:                             1.0E-12
 QS|                         eps_gvg_rspace:                             1.0E-06
 QS|                         eps_ppl:                                    1.0E-02
 QS|                         eps_ppnl:                                   1.0E-08


 ATOMIC KIND INFORMATION

  1. Atomic kind: C                                     Number of atoms:       6

     Orbital Basis Set                                   TZV2P-MOLOPT-PBE-GTH-q4

       Number of orbital shell sets:                                           1
       Number of orbital shells:                                               9
       Number of primitive Cartesian functions:                                5
       Number of Cartesian basis functions:                                   34
       Number of spherical basis functions:                                   29
       Norm type:                                                              2

       Normalised Cartesian orbitals:

                        Set   Shell   Orbital            Exponent    Coefficient

                          1       1    2s                5.599010      -0.388516
                                                         2.008517      -0.222960
                                                         0.755557       0.256069
                                                         0.292158       0.177682
                                                         0.105328       0.019401

                          1       2    3s                5.599010       0.700337
                                                         2.008517       0.202467
                                                         0.755557      -0.073086
                                                         0.292158      -0.004274
                                                         0.105328       0.122810

                          1       3    4s                5.599010      -2.176345
                                                         2.008517      -0.220775
                                                         0.755557       0.109238
                                                         0.292158      -0.129517
                                                         0.105328       0.038801

                          1       4    3px               5.599010      -0.769001
                                                         2.008517      -0.634471
                                                         0.755557      -0.400220
                                                         0.292158      -0.124705
                                                         0.105328      -0.014325
                          1       4    3py               5.599010      -0.769001
                                                         2.008517      -0.634471
                                                         0.755557      -0.400220
                                                         0.292158      -0.124705
                                                         0.105328      -0.014325
                          1       4    3pz               5.599010      -0.769001
                                                         2.008517      -0.634471
                                                         0.755557      -0.400220
                                                         0.292158      -0.124705
                                                         0.105328      -0.014325

                          1       5    4px               5.599010       0.895802
                                                         2.008517       0.817480
                                                         0.755557       0.269326
                                                         0.292158       0.009009
                                                         0.105328      -0.085852
                          1       5    4py               5.599010       0.895802
                                                         2.008517       0.817480
                                                         0.755557       0.269326
                                                         0.292158       0.009009
                                                         0.105328      -0.085852
                          1       5    4pz               5.599010       0.895802
                                                         2.008517       0.817480
                                                         0.755557       0.269326
                                                         0.292158       0.009009
                                                         0.105328      -0.085852

                          1       6    5px               5.599010       1.029767
                                                         2.008517       2.903527
                                                         0.755557       0.336187
                                                         0.292158      -0.258025
                                                         0.105328       0.023472
                          1       6    5py               5.599010       1.029767
                                                         2.008517       2.903527
                                                         0.755557       0.336187
                                                         0.292158      -0.258025
                                                         0.105328       0.023472
                          1       6    5pz               5.599010       1.029767
                                                         2.008517       2.903527
                                                         0.755557       0.336187
                                                         0.292158      -0.258025
                                                         0.105328       0.023472

                          1       7    4dx2              5.599010      -4.629244
                                                         2.008517       1.670071
                                                         0.755557       0.309368
                                                         0.292158       0.124707
                                                         0.105328      -0.001260
                          1       7    4dxy              5.599010      -8.018085
                                                         2.008517       2.892648
                                                         0.755557       0.535841
                                                         0.292158       0.215998
                                                         0.105328      -0.002182
                          1       7    4dxz              5.599010      -8.018085
                                                         2.008517       2.892648
                                                         0.755557       0.535841
                                                         0.292158       0.215998
                                                         0.105328      -0.002182
                          1       7    4dy2              5.599010      -4.629244
                                                         2.008517       1.670071
                                                         0.755557       0.309368
                                                         0.292158       0.124707
                                                         0.105328      -0.001260
                          1       7    4dyz              5.599010      -8.018085
                                                         2.008517       2.892648
                                                         0.755557       0.535841
                                                         0.292158       0.215998
                                                         0.105328      -0.002182
                          1       7    4dz2              5.599010      -4.629244
                                                         2.008517       1.670071
                                                         0.755557       0.309368
                                                         0.292158       0.124707
                                                         0.105328      -0.001260

                          1       8    5dx2              5.599010      -0.765539
                                                         2.008517       0.044731
                                                         0.755557       0.033894
                                                         0.292158       0.006499
                                                         0.105328       0.031042
                          1       8    5dxy              5.599010      -1.325952
                                                         2.008517       0.077477
                                                         0.755557       0.058707
                                                         0.292158       0.011257
                                                         0.105328       0.053766
                          1       8    5dxz              5.599010      -1.325952
                                                         2.008517       0.077477
                                                         0.755557       0.058707
                                                         0.292158       0.011257
                                                         0.105328       0.053766
                          1       8    5dy2              5.599010      -0.765539
                                                         2.008517       0.044731
                                                         0.755557       0.033894
                                                         0.292158       0.006499
                                                         0.105328       0.031042
                          1       8    5dyz              5.599010      -1.325952
                                                         2.008517       0.077477
                                                         0.755557       0.058707
                                                         0.292158       0.011257
                                                         0.105328       0.053766
                          1       8    5dz2              5.599010      -0.765539
                                                         2.008517       0.044731
                                                         0.755557       0.033894
                                                         0.292158       0.006499
                                                         0.105328       0.031042

                          1       9    5fx3              5.599010      -0.150044
                                                         2.008517      -0.042629
                                                         0.755557       0.009866
                                                         0.292158       0.091648
                                                         0.105328       0.000020
                          1       9    5fx2y             5.599010      -0.335509
                                                         2.008517      -0.095321
                                                         0.755557       0.022061
                                                         0.292158       0.204931
                                                         0.105328       0.000045
                          1       9    5fx2z             5.599010      -0.335509
                                                         2.008517      -0.095321
                                                         0.755557       0.022061
                                                         0.292158       0.204931
                                                         0.105328       0.000045
                          1       9    5fxy2             5.599010      -0.335509
                                                         2.008517      -0.095321
                                                         0.755557       0.022061
                                                         0.292158       0.204931
                                                         0.105328       0.000045
                          1       9    5fxyz             5.599010      -0.581119
                                                         2.008517      -0.165100
                                                         0.755557       0.038210
                                                         0.292158       0.354951
                                                         0.105328       0.000078
                          1       9    5fxz2             5.599010      -0.335509
                                                         2.008517      -0.095321
                                                         0.755557       0.022061
                                                         0.292158       0.204931
                                                         0.105328       0.000045
                          1       9    5fy3              5.599010      -0.150044
                                                         2.008517      -0.042629
                                                         0.755557       0.009866
                                                         0.292158       0.091648
                                                         0.105328       0.000020
                          1       9    5fy2z             5.599010      -0.335509
                                                         2.008517      -0.095321
                                                         0.755557       0.022061
                                                         0.292158       0.204931
                                                         0.105328       0.000045
                          1       9    5fyz2             5.599010      -0.335509
                                                         2.008517      -0.095321
                                                         0.755557       0.022061
                                                         0.292158       0.204931
                                                         0.105328       0.000045
                          1       9    5fz3              5.599010      -0.150044
                                                         2.008517      -0.042629
                                                         0.755557       0.009866
                                                         0.292158       0.091648
                                                         0.105328       0.000020

       Atomic covalent radius [Angstrom]:                                  0.770

       Atomic van der Waals radius [Angstrom]:                             1.700

     GTH Potential information for                                    GTH-PBE-q4

       Description:                       Goedecker-Teter-Hutter pseudopotential
                                           Goedecker et al., PRB 54, 1703 (1996)
                                          Hartwigsen et al., PRB 58, 3641 (1998)
                                                      Krack, TCA 114, 145 (2005)

       Gaussian exponent of the core charge distribution:               4.362265
       Electronic configuration (s p d ...):                       2   2   0   0

       Parameters of the local part of the GTH pseudopotential:

                          rloc        C1          C2          C3          C4
                        0.338555   -8.804552    1.338377

       Parameters of the non-local part of the GTH pseudopotential:

                   l      r(l)      h(i,j,l)

                   0    0.302610    9.622862

  2. Atomic kind: H                                     Number of atoms:      14

     Orbital Basis Set                                   TZV2P-MOLOPT-PBE-GTH-q1

       Number of orbital shell sets:                                           1
       Number of orbital shells:                                               6
       Number of primitive Cartesian functions:                                5
       Number of Cartesian basis functions:                                   15
       Number of spherical basis functions:                                   14
       Norm type:                                                              2

       Normalised Cartesian orbitals:

                        Set   Shell   Orbital            Exponent    Coefficient

                          1       1    2s                9.586642       0.069481
                                                         2.202360       0.112147
                                                         0.604094       0.130550
                                                         0.146498       0.088477
                                                         0.139526       0.035929

                          1       2    3s                9.586642      -0.087313
                                                         2.202360      -0.117928
                                                         0.604094      -0.099372
                                                         0.146498      -0.105375
                                                         0.139526       0.287433

                          1       3    4s                9.586642       0.882480
                                                         2.202360       0.096105
                                                         0.604094      -0.739894
                                                         0.146498       0.120904
                                                         0.139526       0.013904

                          1       4    3px               9.586642      -2.186125
                                                         2.202360       1.112625
                                                         0.604094       0.330981
                                                         0.146498       0.087385
                                                         0.139526      -0.016905
                          1       4    3py               9.586642      -2.186125
                                                         2.202360       1.112625
                                                         0.604094       0.330981
                                                         0.146498       0.087385
                                                         0.139526      -0.016905
                          1       4    3pz               9.586642      -2.186125
                                                         2.202360       1.112625
                                                         0.604094       0.330981
                                                         0.146498       0.087385
                                                         0.139526      -0.016905

                          1       5    4px               9.586642       1.866908
                                                         2.202360       0.174551
                                                         0.604094       0.060190
                                                         0.146498       0.014182
                                                         0.139526       0.100545
                          1       5    4py               9.586642       1.866908
                                                         2.202360       0.174551
                                                         0.604094       0.060190
                                                         0.146498       0.014182
                                                         0.139526       0.100545
                          1       5    4pz               9.586642       1.866908
                                                         2.202360       0.174551
                                                         0.604094       0.060190
                                                         0.146498       0.014182
                                                         0.139526       0.100545

                          1       6    4dx2              9.586642       0.111501
                                                         2.202360      -0.020603
                                                         0.604094      -0.012612
                                                         0.146498      -0.000171
                                                         0.139526       0.052995
                          1       6    4dxy              9.586642       0.193125
                                                         2.202360      -0.035686
                                                         0.604094      -0.021844
                                                         0.146498      -0.000296
                                                         0.139526       0.091790
                          1       6    4dxz              9.586642       0.193125
                                                         2.202360      -0.035686
                                                         0.604094      -0.021844
                                                         0.146498      -0.000296
                                                         0.139526       0.091790
                          1       6    4dy2              9.586642       0.111501
                                                         2.202360      -0.020603
                                                         0.604094      -0.012612
                                                         0.146498      -0.000171
                                                         0.139526       0.052995
                          1       6    4dyz              9.586642       0.193125
                                                         2.202360      -0.035686
                                                         0.604094      -0.021844
                                                         0.146498      -0.000296
                                                         0.139526       0.091790
                          1       6    4dz2              9.586642       0.111501
                                                         2.202360      -0.020603
                                                         0.604094      -0.012612
                                                         0.146498      -0.000171
                                                         0.139526       0.052995

       Atomic covalent radius [Angstrom]:                                  0.320

       Atomic van der Waals radius [Angstrom]:                             1.090

     GTH Potential information for                                    GTH-PBE-q1

       Description:                       Goedecker-Teter-Hutter pseudopotential
                                           Goedecker et al., PRB 54, 1703 (1996)
                                          Hartwigsen et al., PRB 58, 3641 (1998)
                                                      Krack, TCA 114, 145 (2005)

       Gaussian exponent of the core charge distribution:              12.426182
       Electronic configuration (s p d ...):                       1   0   0   0

       Parameters of the local part of the GTH pseudopotential:

                          rloc        C1          C2          C3          C4
                        0.200593   -4.178068    0.724409


 MOLECULE KIND INFORMATION


 All atoms are their own molecule, skipping detailed information


 TOTAL NUMBERS AND MAXIMUM NUMBERS

  Total number of            - Atomic kinds:                                   2
                             - Atoms:                                         20
                             - Shell sets:                                    20
                             - Shells:                                       138
                             - Primitive Cartesian functions:                100
                             - Cartesian basis functions:                    414
                             - Spherical basis functions:                    370

  Maximum angular momentum of- Orbital basis functions:                        3
                             - Local part of the GTH pseudopotential:          2
                             - Non-local part of the GTH pseudopotential:      0


 MODULE QUICKSTEP: ATOMIC COORDINATES IN ANGSTROM

   Atom Kind Element         X             Y             Z       Z(eff)     Mass
      1    1 C     6     18.915180     21.369290     16.000000   4.0000  12.0107
      2    1 C     6     18.915180     19.846170     16.000000   4.0000  12.0107
      3    1 C     6     17.508930     19.261260     16.000000   4.0000  12.0107
      4    1 C     6     17.491070     17.738740     16.000000   4.0000  12.0107
      5    1 C     6     16.084820     17.153830     16.000000   4.0000  12.0107
      6    1 C     6     16.084820     15.630710     16.000000   4.0000  12.0107
      7    2 H     1     18.400920     21.755870     16.879660   1.0000   1.0079
      8    2 H     1     18.400920     21.755870     15.120340   1.0000   1.0079
      9    2 H     1     19.926620     21.772490     16.000000   1.0000   1.0079
     10    2 H     1     19.455910     19.477320     16.874470   1.0000   1.0079
     11    2 H     1     19.455910     19.477320     15.125530   1.0000   1.0079
     12    2 H     1     16.965800     19.629240     15.124730   1.0000   1.0079
     13    2 H     1     16.965800     19.629240     16.875270   1.0000   1.0079
     14    2 H     1     18.034200     17.370760     16.875270   1.0000   1.0079
     15    2 H     1     18.034200     17.370760     15.124730   1.0000   1.0079
     16    2 H     1     15.544090     17.522680     15.125530   1.0000   1.0079
     17    2 H     1     15.544090     17.522680     16.874470   1.0000   1.0079
     18    2 H     1     15.073380     15.227510     16.000000   1.0000   1.0079
     19    2 H     1     16.599080     15.244130     16.879660   1.0000   1.0079
     20    2 H     1     16.599080     15.244130     15.120340   1.0000   1.0079



 SCF PARAMETERS         Density guess:                                   RESTART
                        --------------------------------------------------------
                        max_scf:                                             200
                        max_scf_history:                                       0
                        max_diis:                                              4
                        --------------------------------------------------------
                        eps_scf:                                        1.00E-07
                        eps_scf_history:                                0.00E+00
                        eps_diis:                                       0.00E+00
                        eps_eigval:                                     1.00E-05
                        --------------------------------------------------------
                        level_shift [a.u.]:                             0.000000
                        --------------------------------------------------------
                        Outer loop SCF in use 
                        No variables optimised in outer loop
                        eps_scf                                         1.00E-07
                        max_scf                                               20
                        No outer loop optimization
                        step_size                                       5.00E-01

 PW_GRID| Information for grid number                                          1
 PW_GRID| Cutoff [a.u.]                                                    360.0
 PW_GRID| spherical cutoff:                                                   NO
 PW_GRID|   Bounds   1           -288     287                Points:         576
 PW_GRID|   Bounds   2           -300     299                Points:         600
 PW_GRID|   Bounds   3           -270     269                Points:         540
 PW_GRID| Volume element (a.u.^3)  0.1498E-02     Volume (a.u.^3)    279650.9851
 PW_GRID| Grid span                                                    FULLSPACE

 PW_GRID| Information for grid number                                          2
 PW_GRID| Number of the reference grid                                         1
 PW_GRID| Cutoff [a.u.]                                                    120.0
 PW_GRID| spherical cutoff:                                                   NO
 PW_GRID|   Bounds   1           -180     179                Points:         360
 PW_GRID|   Bounds   2           -180     179                Points:         360
 PW_GRID|   Bounds   3           -150     149                Points:         300
 PW_GRID| Volume element (a.u.^3)  0.7193E-02     Volume (a.u.^3)    279650.9851
 PW_GRID| Grid span                                                    FULLSPACE

 PW_GRID| Information for grid number                                          3
 PW_GRID| Number of the reference grid                                         1
 PW_GRID| Cutoff [a.u.]                                                     40.0
 PW_GRID| spherical cutoff:                                                   NO
 PW_GRID|   Bounds   1            -96      95                Points:         192
 PW_GRID|   Bounds   2           -100      99                Points:         200
 PW_GRID|   Bounds   3            -90      89                Points:         180
 PW_GRID| Volume element (a.u.^3)  0.4046E-01     Volume (a.u.^3)    279650.9851
 PW_GRID| Grid span                                                    FULLSPACE

 PW_GRID| Information for grid number                                          4
 PW_GRID| Number of the reference grid                                         1
 PW_GRID| Cutoff [a.u.]                                                     13.3
 PW_GRID| spherical cutoff:                                                   NO
 PW_GRID|   Bounds   1            -60      59                Points:         120
 PW_GRID|   Bounds   2            -60      59                Points:         120
 PW_GRID|   Bounds   3            -50      49                Points:         100
 PW_GRID| Volume element (a.u.^3)  0.1942         Volume (a.u.^3)    279650.9851
 PW_GRID| Grid span                                                    FULLSPACE

 PW_GRID| Information for grid number                                          5
 PW_GRID| Number of the reference grid                                         1
 PW_GRID| Cutoff [a.u.]                                                      4.4
 PW_GRID| spherical cutoff:                                                   NO
 PW_GRID|   Bounds   1            -32      31                Points:          64
 PW_GRID|   Bounds   2            -36      35                Points:          72
 PW_GRID|   Bounds   3            -30      29                Points:          60
 PW_GRID| Volume element (a.u.^3)   1.011         Volume (a.u.^3)    279650.9851
 PW_GRID| Grid span                                                    FULLSPACE

 POISSON| Solver                                                        ANALYTIC
 POISSON| Periodicity                                                       NONE

 RS_GRID| Information for grid number                                          1
 RS_GRID|   Bounds   1           -288     287                Points:         576
 RS_GRID|   Bounds   2           -300     299                Points:         600
 RS_GRID|   Bounds   3           -270     269                Points:         540

 RS_GRID| Information for grid number                                          2
 RS_GRID|   Bounds   1           -180     179                Points:         360
 RS_GRID|   Bounds   2           -180     179                Points:         360
 RS_GRID|   Bounds   3           -150     149                Points:         300

 RS_GRID| Information for grid number                                          3
 RS_GRID|   Bounds   1            -96      95                Points:         192
 RS_GRID|   Bounds   2           -100      99                Points:         200
 RS_GRID|   Bounds   3            -90      89                Points:         180

 RS_GRID| Information for grid number                                          4
 RS_GRID|   Bounds   1            -60      59                Points:         120
 RS_GRID|   Bounds   2            -60      59                Points:         120
 RS_GRID|   Bounds   3            -50      49                Points:         100

 RS_GRID| Information for grid number                                          5
 RS_GRID|   Bounds   1            -32      31                Points:          64
 RS_GRID|   Bounds   2            -36      35                Points:          72
 RS_GRID|   Bounds   3            -30      29                Points:          60

 Extrapolation method: initial_guess

 Number of electrons:                                                         38
 Number of occupied orbitals:                                                 19
 Number of molecular orbitals:                                                19

 Number of orbital functions:                                                370
 Number of independent orbital functions:                                    370


 SCF WAVEFUNCTION OPTIMIZATION

  ----------------------------------- OT ---------------------------------------
  Minimizer      : DIIS                : direct inversion
                                         in the iterative subspace
                                         using   7 DIIS vectors
                                         safer DIIS on
  Preconditioner : FULL_ALL            : diagonalization, state selective
  Precond_solver : DEFAULT
  stepsize       :    0.10000000                  energy_gap     :    0.00100000
  eps_taylor     :   0.10000E-15                  max_taylor     :             4
  ----------------------------------- OT ---------------------------------------

  Step     Update method      Time    Convergence         Total energy    Change
  ------------------------------------------------------------------------------
 SKALA_GPW| Atom-composite cross support/maxima   0.000000000000E+00   0.000000000000E+00   0.000000000000E+00   0.000000000000E+00

 SKALA_GPW| Native grid Torch CUDA device 0 of 1 requested -1
 SKALA_GPW| Native grid Torch CUDA rank devices 0:0
 SKALA_GPW| Active atom-composite XC energy  -1.5580107029492412E+01
 SKALA_GPW| Active atom-composite electrons   3.7992793712922733E+01
 SKALA_GPW| Active atom-composite density range  -7.2941474484239718E-10   2.0025872984273121E-01
 SKALA_GPW| Active atom-composite tau range  -2.0873611078098771E-09   2.0079946179265438E+00
 SKALA_GPW| Active atom-composite tau integral   3.4373854140470492E+01
 SKALA_GPW| Active atom-composite max gradient   3.7910696112921805E-01
     1 OT DIIS     0.10E+00   18.9     0.00000044       -42.4593777799 -4.25E+01
 SKALA_GPW| Atom-composite cross support/maxima   0.000000000000E+00   0.000000000000E+00   0.000000000000E+00   0.000000000000E+00
 SKALA_GPW| Active atom-composite XC energy  -1.5580108377277275E+01
 SKALA_GPW| Active atom-composite electrons   3.7992793722717764E+01
 SKALA_GPW| Active atom-composite density range  -7.2939568319190694E-10   2.0025903697538486E-01
 SKALA_GPW| Active atom-composite tau range  -2.0873174631512980E-09   2.0079964170016549E+00
 SKALA_GPW| Active atom-composite tau integral   3.4373861890930208E+01
 SKALA_GPW| Active atom-composite max gradient   3.7910804080072397E-01
     2 OT DIIS     0.10E+00   17.8     0.00000026       -42.4593777923 -1.24E-08
 SKALA_GPW| Atom-composite cross support/maxima   0.000000000000E+00   0.000000000000E+00   0.000000000000E+00   0.000000000000E+00
 SKALA_GPW| Active atom-composite XC energy  -1.5580109314958927E+01
 SKALA_GPW| Active atom-composite electrons   3.7992793734770892E+01
 SKALA_GPW| Active atom-composite density range  -7.2936948685189528E-10   2.0025948428168378E-01
 SKALA_GPW| Active atom-composite tau range  -2.0872712021841476E-09   2.0079981416249115E+00
 SKALA_GPW| Active atom-composite tau integral   3.4373868472478598E+01
 SKALA_GPW| Active atom-composite max gradient   3.7910941702097495E-01
     3 OT DIIS     0.10E+00   19.8     0.00000003       -42.4593777846  7.70E-09

  *** SCF run converged in     3 steps ***


  Electronic density on regular grids:        -38.0000000000       -0.0000000000
  Core density on regular grids:               38.0000000000       -0.0000000000
  Total charge density on r-space grids:       -0.0000000000
  Total charge density g-space grids:          -0.0000000000

  Overlap energy of the core charge distribution:               0.00000437566701
  Self energy of the core charge distribution:                -99.67854360234446
  Core Hamiltonian energy:                                     32.27837555479061
  Hartree energy:                                              40.54509862261970
  Exchange-correlation energy:                                  0.00000000000000
  Dispersion energy:                                           -0.02420342037504

  Total energy:                                               -42.45937778460111

  outer SCF iter =    1 RMS gradient =   0.33E-07 energy =        -42.4593777846
  outer SCF loop converged in   1 iterations or    3 steps


 !-----------------------------------------------------------------------------!
                     Mulliken Population Analysis

 #  Atom  Element  Kind  Atomic population                           Net charge
       1     C        1          3.718310                              0.281690
       2     C        1          3.480567                              0.519433
       3     C        1          3.524722                              0.475278
       4     C        1          3.524722                              0.475278
       5     C        1          3.480567                              0.519433
       6     C        1          3.718310                              0.281690
       7     H        2          1.135493                             -0.135493
       8     H        2          1.135051                             -0.135051
       9     H        2          1.112484                             -0.112484
      10     H        2          1.213955                             -0.213955
      11     H        2          1.214291                             -0.214291
      12     H        2          1.232606                             -0.232606
      13     H        2          1.232521                             -0.232521
      14     H        2          1.232521                             -0.232521
      15     H        2          1.232606                             -0.232606
      16     H        2          1.214291                             -0.214291
      17     H        2          1.213955                             -0.213955
      18     H        2          1.112484                             -0.112484
      19     H        2          1.135493                             -0.135493
      20     H        2          1.135051                             -0.135051
 # Total charge                             38.000000                 -0.000000

 !-----------------------------------------------------------------------------!

 !-----------------------------------------------------------------------------!
                           Hirshfeld Charges

  #Atom  Element  Kind  Ref Charge     Population                    Net charge
      1       C      1       4.000          5.322                        -1.322
      2       C      1       4.000          4.855                        -0.855
      3       C      1       4.000          4.860                        -0.860
      4       C      1       4.000          4.860                        -0.860
      5       C      1       4.000          4.855                        -0.855
      6       C      1       4.000          5.322                        -1.322
      7       H      2       1.000          0.561                         0.439
      8       H      2       1.000          0.561                         0.439
      9       H      2       1.000          0.561                         0.439
     10       H      2       1.000          0.567                         0.433
     11       H      2       1.000          0.567                         0.433
     12       H      2       1.000          0.568                         0.432
     13       H      2       1.000          0.568                         0.432
     14       H      2       1.000          0.568                         0.432
     15       H      2       1.000          0.568                         0.432
     16       H      2       1.000          0.567                         0.433
     17       H      2       1.000          0.567                         0.433
     18       H      2       1.000          0.561                         0.439
     19       H      2       1.000          0.561                         0.439
     20       H      2       1.000          0.561                         0.439

  Total Charge                                                            0.021
 !-----------------------------------------------------------------------------!

 ENERGY| Total FORCE_EVAL ( QS ) energy [hartree]            -42.459377784601109

 -------------------------------------------------------------------------------
 -                                                                             -
 -                                DBCSR STATISTICS                             -
 -                                                                             -
 -------------------------------------------------------------------------------
 COUNTER                                    TOTAL       BLAS       SMM       ACC
 flops    19 x    19 x    19                41154       0.0%      0.0%    100.0%     
 flops    19 x    19 x    29              1633164       0.0%      0.0%    100.0% (*) 
 flops    19 x    19 x    14              1839656       0.0%      0.0%    100.0% (*) 
 flops    29 x    19 x    19              2010048       0.0%      0.0%    100.0% (*) 
 flops    14 x    19 x    19              2264192       0.0%      0.0%    100.0% (*) 
 flops    29 x    14 x    19              2591904       0.0%      0.0%    100.0% (*) 
 flops    14 x    29 x    19              2591904       0.0%      0.0%    100.0% (*) 
 flops    29 x    29 x    19              2684472       0.0%      0.0%    100.0% (*) 
 flops    14 x    14 x    19              3128160       0.0%      0.0%    100.0% (*) 
 flops    29 x    19 x    29             24160248       0.0%      0.0%    100.0% (*) 
 flops    29 x    19 x    14             27214992       0.0%      0.0%    100.0% (*) 
 flops    14 x    19 x    29             27214992       0.0%      0.0%    100.0% (*) 
 flops    14 x    19 x    14             30655968       0.0%      0.0%    100.0% (*) 

 *** WARNING in dbcsr_mm_sched.F:613 :: (*) ACC Untuned kernels, consider ***
 *** to run the ACC tuning procedure for them                             ***

 flops inhomo. stacks                           0       0.0%      0.0%      0.0%
 flops total                       128.030854E+06       0.0%      0.0%    100.0%
 flops max/rank                    128.030854E+06       0.0%      0.0%    100.0%
 matmuls inhomo. stacks                         0       0.0%      0.0%      0.0%
 matmuls total                               9823       0.0%      0.0%    100.0%
 number of processed stacks                  1349       0.0%      0.0%    100.0%
 average stack size                                     0.0       0.0       7.3
 marketing flops                   138.110304E+06
 -------------------------------------------------------------------------------
 # multiplications                             58
 max memory usage/rank             549.521818E+09
 # max total images/rank                        1
 # max 3D layers                                1
 # MPI messages exchanged                       0
 -------------------------------------------------------------------------------
 -                                                                             -
 -                      DBCSR MESSAGE PASSING PERFORMANCE                      -
 -                                                                             -
 -------------------------------------------------------------------------------
 ROUTINE             CALLS      AVE VOLUME [Bytes]
 MP_Bcast               14                     12.
 MP_Allreduce          219                     12.
 MP_Alltoall           403                  68907.
 MP_ISend              228                   1727.
 MP_IRecv              228                   1727.
 -------------------------------------------------------------------------------

 -------------------------------------------------------------------------------
 -                                                                             -
 -                                GRID STATISTICS                              -
 -                                                                             -
 -------------------------------------------------------------------------------
 LP    KERNEL             BACKEND                              COUNT     PERCENT
 6     collocate ortho    GPU                                  10120      16.97%
 4     collocate ortho    GPU                                   8264      13.86%
 6     integrate ortho    GPU                                   7590      12.73%
 5     collocate ortho    GPU                                   6904      11.58%
 7     collocate ortho    GPU                                   6904      11.58%
 4     integrate ortho    GPU                                   6198      10.39%
 5     integrate ortho    GPU                                   5178       8.68%
 7     integrate ortho    GPU                                   5178       8.68%
 8     collocate ortho    GPU                                   1856       3.11%
 8     integrate ortho    GPU                                   1392       2.33%
 0     collocate general  CPU                                     40       0.07%
 0     integrate general  CPU                                     20       0.03%
 -------------------------------------------------------------------------------

 -------------------------------------------------------------------------------
 -                                                                             -
 -                          OFFLOAD MEMPOOL STATISTICS                         -
 -                                                                             -
 -------------------------------------------------------------------------------
 Memory consumption                Number of allocations  Used [MiB]  Size [MiB]
 Device                                                7        1787        1787
 Host                                                  7        1787          58
 -------------------------------------------------------------------------------

 MEMORY| Estimated peak process memory [MiB]                               66355

 -------------------------------------------------------------------------------
 ----                             MULTIGRID INFO                            ----
 -------------------------------------------------------------------------------
 count for grid        1:          12651          cutoff [a.u.]          360.00
 count for grid        2:           8936          cutoff [a.u.]          120.00
 count for grid        3:           6105          cutoff [a.u.]           40.00
 count for grid        4:           4959          cutoff [a.u.]           13.33
 count for grid        5:            105          cutoff [a.u.]            4.44
 total gridlevel count  :          32756

 -------------------------------------------------------------------------------
 -                                                                             -
 -                         MESSAGE PASSING PERFORMANCE                         -
 -                                                                             -
 -------------------------------------------------------------------------------

 ROUTINE             CALLS      AVE VOLUME [Bytes]
 MP_Group                5
 MP_Bcast               52                  45906.
 MP_Allreduce          219              145684312.
 MP_Sync                 9
 MP_comm_split           4
 -------------------------------------------------------------------------------


 -------------------------------------------------------------------------------
 -                                                                             -
 -                           R E F E R E N C E S                               -
 -                                                                             -
 -------------------------------------------------------------------------------
 
 CP2K version 2026.2 (Development Version), the CP2K developers group (2026).
 CP2K is freely available from https://www.cp2k.org/ .
 
 M. Iannuzzi, J. Wilhelm, F. Stein, A. Bussy, H. Elgabarty, D. Golze, A. Hehn, 
 M. Graml, S. Marek, B. Sertcan Gökmen, C. Schran, H. Forbert, R. Z. 
 Khaliullin, A. Kozhevnikov, M. Taillefumier, R. Meli, V. V. Rybkin, M. Brehm, 
 R. Schade, O. Schütt, J. V. Pototschnig, H. Mirhosseini, A. Knüpfer, D. Marx, 
 M. Krack, J. Hutter, T. D. Kühne.
 J. Phys. Chem. B 130, 1237-1310 (2026).
 The CP2K Program Package Made Simple.
 https://doi.org/10.1021/acs.jpcb.5c05851

 L. Wittmann, I. Gordiy, M. Friede, B. Helmich-Paris, S. Grimme, A. Hansen, M. 
 Bursch.
 Phys. Chem. Chem. Phys. 26, 21379-21394 (2024).
 Extension of the D3 and D4 London dispersion corrections to the full actinides 
 series.
 https://doi.org/10.1039/d4cp01514b

 T. D. Kühne, M. Iannuzzi, M. Del Ben, V. V. Rybkin, P. Seewald, F. Stein, T. 
 Laino, R. Z. Khaliullin, O. Schütt, F. Schiffmann, D. Golze, J. Wilhelm, S. 
 Chulkov, M. H. Bani-Hashemian, V. Weber, U. Borstnik, M. Taillefumier, A. S. 
 Jakobovits, A. Lazzaro, H. Pabst, T. Müller, R. Schade, M. Guidon, S. 
 Andermatt, N. Holmberg, G. K. Schenter, A. Hehn, A. Bussy, F. Belleflamme, G. 
 Tabacchi, A. Glöß, M. Lass, I. Bethune, C. J. Mundy, C. Plessl, M. Watkins, 
 J. VandeVondele, M. Krack, J. Hutter.
 J. Chem. Phys. 152, 194103 (2020).
 CP2K: An electronic structure and molecular dynamics software package - 
 Quickstep: Efficient and accurate electronic structure calculations.
 https://doi.org/10.1063/5.0007045

 L. Goerigk, A. Hansen, C. Bauer, S. Ehrlich, A. Najibi, S. Grimme.
 Phys. Chem. Chem. Phys. 19, 32184-32215 (2017).
 A look at the density functional theory zoo with the advanced GMTKN55 database 
 for general main group thermochemistry, kinetics and noncovalent interactions.
 https://doi.org/10.1039/C7CP04913G

 O. Schuett, P. Messmer, J. Hutter, J. VandeVondele.
 Electronic Structure Calculations on Graphics Processing Units, 173-190 (2016).
 GPU-Accelerated Sparse Matrix-Matrix Multiplication for Linear Scaling Density 
 Functional Theory.
 https://doi.org/10.1002/9781118670712.ch8

 U. Borstnik, J. VandeVondele, V. Weber, J. Hutter.
 Parallel Comput. 40, 47-58 (2014).
 Sparse matrix multiplication: The distributed block-compressed sparse row 
 library.
 https://doi.org/10.1016/j.parco.2014.03.012

 S. Grimme, S. Ehrlich, L. Goerigk.
 J. Comput. Chem. 32, 1456 (2011).
 Effect of the damping function in dispersion corrected density functional 
 theory.
 https://doi.org/10.1002/jcc.21759

 S. Grimme, J. Antony, S. Ehrlich, H. Krieg.
 J. Chem. Phys. 132, 154104 (2010).
 A consistent and accurate ab initio parametrization of density functional 
 dispersion correction (DFT-D) for the 94 elements H-Pu.
 https://doi.org/10.1063/1.3382344

 J. VandeVondele, J. Hutter.
 J. Chem. Phys. 127, 114105 (2007).
 Gaussian basis sets for accurate calculations on molecular systems in gas and 
 condensed phases.
 https://doi.org/10.1063/1.2770708

 J. VandeVondele, M. Krack, F. Mohamed, M. Parrinello, T. Chassaing, J. Hutter.
 Comput. Phys. Commun. 167, 103-128 (2005).
 QUICKSTEP: Fast and accurate density functional calculations using a mixed 
 Gaussian and plane waves approach.
 https://doi.org/10.1016/j.cpc.2004.12.014

 M. Krack.
 Theor. Chem. Acc. 114, 145-152 (2005).
 Pseudopotentials for H to Kr optimized for gradient-corrected 
 exchange-correlation functionals.
 https://doi.org/10.1007/s00214-005-0655-y

 M. Frigo, S. G. Johnson.
 Proc. IEEE 93, 216-231 (2005).
 The design and implementation of FFTW3.
 https://doi.org/10.1109/JPROC.2004.840301

 J. VandeVondele, J. Hutter.
 J. Chem. Phys. 118, 4365-4369 (2003).
 An efficient orbital transformation method for electronic structure 
 calculations.
 https://doi.org/10.1063/1.1543154

 C. Hartwigsen, S. Goedecker, J. Hutter.
 Phys. Rev. B 58, 3641-3662 (1998).
 Relativistic separable dual-space Gaussian pseudopotentials from H to Rn.
 https://doi.org/10.1103/PhysRevB.58.3641

 G. Lippert, J. Hutter, M. Parrinello.
 Mol. Phys. 92, 477-487 (1997).
 A hybrid Gaussian and plane wave density functional scheme.
 https://doi.org/10.1080/002689797170220

 S. Goedecker, M. Teter, J. Hutter.
 Phys. Rev. B 54, 1703-1710 (1996).
 Separable dual-space Gaussian pseudopotentials.
 https://doi.org/10.1103/PhysRevB.54.1703


 -------------------------------------------------------------------------------
 -                                                                             -
 -                                T I M I N G                                  -
 -                                                                             -
 -------------------------------------------------------------------------------
 SUBROUTINE                       CALLS  ASD         SELF TIME        TOTAL TIME
                                MAXIMUM       AVERAGE  MAXIMUM  AVERAGE  MAXIMUM
 CP2K                                 1  1.0    1.519    1.519   93.252   93.252
 qs_energies                          1  2.0    0.000    0.000   64.706   64.706
 scf_env_do_scf                       1  3.0    0.000    0.000   58.694   58.694
 qs_ks_update_qs_env                  4  5.0    0.000    0.000   51.220   51.220
 rebuild_ks_matrix                    3  6.0    0.000    0.000   51.220   51.220
 qs_ks_build_kohn_sham_matrix         3  7.0    0.001    0.001   51.220   51.220
 calculate_vxc_atom                   3  8.0   31.828   31.828   41.462   41.462
 scf_env_do_scf_inner_loop            3  4.0    0.033    0.033   40.131   40.131
 qs_init_subsys                       1  2.0    0.001    0.001   27.020   27.020
 qs_env_setup                         1  3.0    0.000    0.000   26.961   26.961
 qs_env_rebuild_pw_env                2  3.5    0.000    0.000   26.961   26.961
 pw_env_rebuild                       1  5.0    0.000    0.000   26.961   26.961
 pw_grid_setup                        5  6.0    0.000    0.000   26.646   26.646
 pw_grid_setup_internal               5  7.0    0.382    0.382   26.357   26.357
 pw_grid_sort                         5  8.0   17.043   17.043   23.428   23.428
 init_scf_loop                        1  4.0    0.000    0.000   18.562   18.562
 fft_wrap_pw1pw2                    103  9.3    0.002    0.002   11.931   11.931
 fft_wrap_pw1pw2_360                 47 10.4    0.000    0.000   11.089   11.089
 qs_rho_update_rho_low                4  5.0    0.000    0.000    9.878    9.878
 calculate_rho_elec                   8  6.0    2.916    2.916    9.878    9.878
 density_rs2pw                        8  7.0    0.000    0.000    6.503    6.503
 sort_shells                          5  9.0    6.385    6.385    6.385    6.385
 pw_gpu_r3dc1d_3d                    56 10.8    6.123    6.123    6.123    6.123
 pw_gpu_c1dr3d_3d                    47 12.0    5.805    5.805    5.805    5.805
 pw_poisson_solve                     3  8.0    0.000    0.000    5.381    5.381
 xc_pw_derive                        18  9.5    0.000    0.000    5.129    5.129
 init_scf_run                         1  3.0    0.000    0.000    3.931    3.931
 scf_env_initial_rho_setup            1  4.0    0.000    0.000    3.931    3.931
 xc_pw_divergence                     3  9.0    0.000    0.000    3.367    3.367
 sum_up_and_integrate                 3  8.0    0.000    0.000    2.881    2.881
 integrate_v_rspace                   6  9.0    0.001    0.001    2.755    2.755
 pw_integral_ab_c1d_c1d_gs            3  9.0    2.671    2.671    2.671    2.671
 pw_grid_assign                       5  8.0    2.375    2.375    2.375    2.375
 potential_pw2rs                      6 10.0    0.075    0.075    2.172    2.172
 pw_derive                           27 10.3    2.037    2.037    2.037    2.037
 -------------------------------------------------------------------------------

 The number of warnings for this run is : 1
 
 -------------------------------------------------------------------------------
  **** **** ******  **  PROGRAM ENDED AT                 2026-08-20 13:53:36.046
 ***** ** ***  *** **   PROGRAM RAN ON                                     gb008
 **    ****   ******    PROGRAM RAN BY                                  kuehne88
 ***** **    ** ** **   PROGRAM PROCESS ID                               3251663
  **** **  *******  **  PROGRAM STOPPED IN /data/home2/kuehne88/cp2k-native-skal
                                           a/validation-uzh/cutoff-pilot-b200/ac
                                           onf-8-gpw-720-b200-ttt
