 DBCSR| CPU Multiplication driver                                           BLAS (U)
 DBCSR| Multrec recursion limit                                              512 (U)
 DBCSR| Multiplication stack size                                           1000 (D)
 DBCSR| Maximum elements for images                                    UNLIMITED (U)
 DBCSR| Multiplicative factor virtual images                                   1 (U)
 DBCSR| Use multiplication densification                                       T (D)
 DBCSR| Multiplication size stacks                                             3 (U)
 DBCSR| Use memory pool for CPU allocation                                     F (U)
 DBCSR| Number of 3D layers                                               SINGLE (U)
 DBCSR| Use MPI memory allocation                                              F (U)
 DBCSR| Use RMA algorithm                                                      F (U)
 DBCSR| Use Communication thread                                               T (U)
 DBCSR| Communication thread load                                             60 (D)
 DBCSR| MPI: My process id                                                     0
 DBCSR| MPI: Number of processes                                               1
 DBCSR| OMP: Current number of threads                                         8
 DBCSR| OMP: Max number of threads                                             8
 DBCSR| Split modifier for TAS multiplication algorithm                  1.0E+00 (U)


  **** **** ******  **  PROGRAM STARTED AT               2026-08-26 14:55:36.257
 ***** ** ***  *** **   PROGRAM STARTED ON                                 terok
 **    ****   ******    PROGRAM STARTED BY                              kuehne88
 ***** **    ** ** **   PROGRAM PROCESS ID                                592149
  **** **  *******  **  PROGRAM STARTED IN /home/kuehne88/work/native-skala-tero
                                           k/diet-production-p25/gapwxc-gth-one-
                                           center/853d65c3d0bfdcf390e2024faaba15
                                           8f079e3eec

 CP2K| version string:                 CP2K version 2026.2 (Development Version)
 CP2K| source code revision number:                                   c1bff3eeb8
 CP2K| cp2kflags: omp fftw3 gauxc gauxc_mpi gauxc_onedft gauxc_host parallel sca
 CP2K|            lapack mpi_f08 openblas libtorch libtorch_cuda
 CP2K| is freely available from                            https://www.cp2k.org/
 CP2K| Program compiled at                                   2026-08-24 23:53:18
 CP2K| Program compiled on                                                 terok
 CP2K| Program compiled for                                               x86_64
 CP2K| Data directory path      /home/kuehne88/work/native-skala-terok/cp2k/data
 CP2K| Input file name                                          input.verify.inp

 GLOBAL| Force Environment number                                              1
 GLOBAL| Basis set file name                             BASIS_MOLOPT_UZH_2026.2
 GLOBAL| Potential file name                                POTENTIAL_UZH_2026.2
 GLOBAL| MM Potential file name                                     MM_POTENTIAL
 GLOBAL| Coordinate file name                                      __STD_INPUT__
 GLOBAL| Method name                                                        CP2K
 GLOBAL| Project name                                853d65c3d0bf_gapwxc_gth_paw
 GLOBAL| Run type                                                         ENERGY
 GLOBAL| FFT library                                                       FFTW3
 GLOBAL| Diagonalization library                                       ScaLAPACK
 GLOBAL| Cholesky decomposition library                                ScaLAPACK
 GLOBAL| DGEMM library                                                      BLAS
 GLOBAL| Direct generalized diagonalization requested                          F
 GLOBAL| Orthonormality check for eigenvectors                          DISABLED
 GLOBAL| Matrix multiplication library                                 ScaLAPACK
 GLOBAL| All-to-all communication in single precision                          F
 GLOBAL| FFTs using library dependent lengths                                  F
 GLOBAL| Grid backend                                                       AUTO
 GLOBAL| Global print level                                               MEDIUM
 GLOBAL| MPI I/O enabled                                                       T
 GLOBAL| Total number of message passing processes                             1
 GLOBAL| Number of distributed systems (nodes)                                 1
 GLOBAL| Number of threads for this process                                    8
 GLOBAL| This output is from process                                           0
 GLOBAL| OpenMP stack size per thread (OMP_STACKSIZE)                       512M
 GLOBAL| CPU model name                                       AMD EPYC Processor

 MEMORY| system memory details [Kb]
 MEMORY|                        rank 0           min           max       average
 MEMORY| MemTotal            528104844     528104844     528104844     528104844
 MEMORY| MemFree             209732068     209732068     209732068     209732068
 MEMORY| Buffers                   668           668           668           668
 MEMORY| Cached               36089472      36089472      36089472      36089472
 MEMORY| Slab                 23405556      23405556      23405556      23405556
 MEMORY| SReclaimable         19590852      19590852      19590852      19590852
 MEMORY| MemLikelyFree       265413060     265413060     265413060     265413060


 *** Fundamental physical constants (SI units) ***

 *** Literature: B. J. Mohr and B. N. Taylor,
 ***             CODATA recommended values of the fundamental physical
 ***             constants: 2006, Web Version 5.1
 ***             http://physics.nist.gov/constants

 Speed of light in vacuum [m/s]                             2.99792458000000E+08
 Magnetic constant or permeability of vacuum [N/A**2]       1.25663706143592E-06
 Electric constant or permittivity of vacuum [F/m]          8.85418781762039E-12
 Planck constant (h) [J*s]                                  6.62606896000000E-34
 Planck constant (h-bar) [J*s]                              1.05457162825177E-34
 Elementary charge [C]                                      1.60217648700000E-19
 Electron mass [kg]                                         9.10938215000000E-31
 Electron g factor [ ]                                     -2.00231930436220E+00
 Proton mass [kg]                                           1.67262163700000E-27
 Fine-structure constant                                    7.29735253760000E-03
 Rydberg constant [1/m]                                     1.09737315685270E+07
 Avogadro constant [1/mol]                                  6.02214179000000E+23
 Boltzmann constant [J/K]                                   1.38065040000000E-23
 Atomic mass unit [kg]                                      1.66053878200000E-27
 Bohr radius [m]                                            5.29177208590000E-11

 *** Conversion factors ***

 [u] -> [a.u.]                                              1.82288848426455E+03
 [Angstrom] -> [Bohr] = [a.u.]                              1.88972613288564E+00
 [a.u.] = [Bohr] -> [Angstrom]                              5.29177208590000E-01
 [a.u.] -> [s]                                              2.41888432650478E-17
 [a.u.] -> [fs]                                             2.41888432650478E-02
 [a.u.] -> [J]                                              4.35974393937059E-18
 [a.u.] -> [N]                                              8.23872205491840E-08
 [a.u.] -> [K]                                              3.15774647902944E+05
 [a.u.] -> [kJ/mol]                                         2.62549961709828E+03
 [a.u.] -> [kcal/mol]                                       6.27509468713739E+02
 [a.u.] -> [Pa]                                             2.94210107994716E+13
 [a.u.] -> [bar]                                            2.94210107994716E+08
 [a.u.] -> [atm]                                            2.90362800883016E+08
 [a.u.] -> [eV]                                             2.72113838565563E+01
 [a.u.] -> [Hz]                                             6.57968392072181E+15
 [a.u.] -> [1/cm] (wave numbers)                            2.19474631370540E+05
 [a.u./Bohr**2] -> [1/cm]                                   5.14048714338585E+03
 

 CELL| Volume [angstrom^3]:                                         15625.000000
 CELL| Vector a [angstrom]:      25.000     0.000     0.000   |a| =    25.000000
 CELL| Vector b [angstrom]:       0.000    25.000     0.000   |b| =    25.000000
 CELL| Vector c [angstrom]:       0.000     0.000    25.000   |c| =    25.000000
 CELL| Angle (b,c), alpha [degree]:                                    90.000000
 CELL| Angle (a,c), beta  [degree]:                                    90.000000
 CELL| Angle (a,b), gamma [degree]:                                    90.000000
 CELL| Numerically orthorhombic:                                             YES
 CELL| Periodicity                                                          NONE

 CELL_REF| Volume [angstrom^3]:                                     15625.000000
 CELL_REF| Vector a [angstrom    25.000     0.000     0.000   |a| =    25.000000
 CELL_REF| Vector b [angstrom     0.000    25.000     0.000   |b| =    25.000000
 CELL_REF| Vector c [angstrom     0.000     0.000    25.000   |c| =    25.000000
 CELL_REF| Angle (b,c), alpha [degree]:                                90.000000
 CELL_REF| Angle (a,c), beta  [degree]:                                90.000000
 CELL_REF| Angle (a,b), gamma [degree]:                                90.000000
 CELL_REF| Numerically orthorhombic:                                         YES
 CELL_REF| Periodicity                                                      NONE

 GENERATE|  Preliminary Number of Bonds generated:                             0
 GENERATE|  Achieved consistency in connectivity generation.

 *******************************************************************************
 *******************************************************************************
 **                                                                           **
 **     #####                         ##              ##                      **
 **    ##   ##            ##          ##              ##                      **
 **   ##     ##                       ##            ######                    **
 **   ##     ##  ##   ##  ##   #####  ##  ##   ####   ##    #####    #####    **
 **   ##     ##  ##   ##  ##  ##      ## ##   ##      ##   ##   ##  ##   ##   **
 **   ##  ## ##  ##   ##  ##  ##      ####     ###    ##   ######   ######    **
 **    ##  ###   ##   ##  ##  ##      ## ##      ##   ##   ##       ##        **
 **     #######   #####   ##   #####  ##  ##  ####    ##    #####   ##        **
 **           ##                                                    ##        **
 **                                                                           **
 **                                                ... make the atoms dance   **
 **                                                                           **
 **            Copyright (C) by CP2K developers group (2000-2026)             **
 **                      J. Chem. Phys. 152, 194103 (2020)                    **
 **                                                                           **
 *******************************************************************************

 DFT| Spin unrestricted (spin-polarized) Kohn-Sham calculation               UKS
 DFT| Multiplicity                                                             3
 DFT| Number of spin states                                                    2
 DFT| Charge                                                                  -1
 DFT| Self-interaction correction (SIC)                                       NO
 DFT| Cutoffs: density                                              1.000000E-10
 DFT|          gradient                                             1.000000E-10
 DFT|          tau                                                  1.000000E-10
 DFT|          cutoff_smoothing_range                               0.000000E+00
 DFT| XC density smoothing                                                  NONE
 DFT| XC derivatives                                                          PW

 FUNCTIONAL| GAUXC:
 FUNCTIONAL| Functional computed by GauXC Skala model SKALA                     

 vdW POTENTIAL|                                                   Pair Potential
 vdW POTENTIAL|          DFT-D3 (Version 3.1)
 vdW POTENTIAL|          Potential Form: S. Grimme et al, JCP 132: 154104 (2010)
 vdW POTENTIAL|          BJ Damping: S. Grimme et al, JCC 32: 1456 (2011)
 vdW POTENTIAL|          Cutoff Radius [Bohr]:                             37.79
 vdW POTENTIAL|          s6 Scaling Factor:                               1.0000
 vdW POTENTIAL|          a1 Damping Factor:                               0.3981
 vdW POTENTIAL|          s8 Scaling Factor:                               1.9889
 vdW POTENTIAL|          a2 Damping Factor:                               4.4211
 vdW POTENTIAL|          Cutoff for CN calculation:                   0.1000E-05

 QS| Method:                                                             GAPW_XC
 QS| Density plane wave grid type                        NON-SPHERICAL FULLSPACE
 QS| Number of grid levels:                                                    5
 QS| Density cutoff [a.u.]:                                                200.0
 QS| Multi grid cutoff [a.u.]: 1) grid level                               200.0
 QS|                           2) grid level                                66.7
 QS|                           3) grid level                                22.2
 QS|                           4) grid level                                 7.4
 QS|                           5) grid level                                 2.5
 QS| Grid level progression factor:                                          3.0
 QS| Relative density cutoff [a.u.]:                                        30.0
 QS| Interaction thresholds: eps_pgf_orb:                                1.0E-06
 QS|                         eps_filter_matrix:                          0.0E+00
 QS|                         eps_core_charge:                            1.0E-14
 QS|                         eps_rho_gspace:                             1.0E-12
 QS|                         eps_rho_rspace:                             1.0E-12
 QS|                         eps_gvg_rspace:                             1.0E-06
 QS|                         eps_ppl:                                    1.0E-02
 QS|                         eps_ppnl:                                   1.0E-08
 QS| GAPW_XC|      One center basis extended with primitives (small:s)
 QS| GAPW_XC|                eps_fit:                                    1.0E-04
 QS| GAPW_XC|                eps_iso:                                    1.0E-12
 QS| GAPW_XC|                eps_svd:                                    1.0E-08
 QS| GAPW_XC|atom-r-grid: quadrature:                 GC_LOG                        
 QS| GAPW_XC|   atom-s-grid:  max l :                                          6


 ATOMIC KIND INFORMATION

  1. Atomic kind: P                                     Number of atoms:       1

     Orbital Basis Set                                   TZV2P-MOLOPT-PBE-GTH-q5

       Number of orbital shell sets:                                           1
       Number of orbital shells:                                               9
       Number of primitive Cartesian functions:                                4
       Number of Cartesian basis functions:                                   34
       Number of spherical basis functions:                                   29
       Norm type:                                                              2

       Normalised Cartesian orbitals:

                        Set   Shell   Orbital            Exponent    Coefficient

                          1       1    2s                1.529974       0.330831
                                                         0.572156      -0.121865
                                                         0.221473      -0.178453
                                                         0.075885      -0.020408

                          1       2    3s                1.529974       0.353664
                                                         0.572156      -0.203423
                                                         0.221473       0.005821
                                                         0.075885       0.111796

                          1       3    4s                1.529974      -1.067157
                                                         0.572156       0.214068
                                                         0.221473      -0.177211
                                                         0.075885       0.057956

                          1       4    3px               1.529974       0.268378
                                                         0.572156      -0.381409
                                                         0.221473      -0.118831
                                                         0.075885      -0.003877
                          1       4    3py               1.529974       0.268378
                                                         0.572156      -0.381409
                                                         0.221473      -0.118831
                                                         0.075885      -0.003877
                          1       4    3pz               1.529974       0.268378
                                                         0.572156      -0.381409
                                                         0.221473      -0.118831
                                                         0.075885      -0.003877

                          1       5    4px               1.529974       0.260904
                                                         0.572156      -0.330883
                                                         0.221473       0.080611
                                                         0.075885       0.048633
                          1       5    4py               1.529974       0.260904
                                                         0.572156      -0.330883
                                                         0.221473       0.080611
                                                         0.075885       0.048633
                          1       5    4pz               1.529974       0.260904
                                                         0.572156      -0.330883
                                                         0.221473       0.080611
                                                         0.075885       0.048633

                          1       6    5px               1.529974       0.623329
                                                         0.572156       0.730611
                                                         0.221473      -0.234303
                                                         0.075885       0.056701
                          1       6    5py               1.529974       0.623329
                                                         0.572156       0.730611
                                                         0.221473      -0.234303
                                                         0.075885       0.056701
                          1       6    5pz               1.529974       0.623329
                                                         0.572156       0.730611
                                                         0.221473      -0.234303
                                                         0.075885       0.056701

                          1       7    4dx2              1.529974       0.641565
                                                         0.572156       0.349115
                                                         0.221473       0.047365
                                                         0.075885       0.000033
                          1       7    4dxy              1.529974       1.111223
                                                         0.572156       0.604685
                                                         0.221473       0.082039
                                                         0.075885       0.000058
                          1       7    4dxz              1.529974       1.111223
                                                         0.572156       0.604685
                                                         0.221473       0.082039
                                                         0.075885       0.000058
                          1       7    4dy2              1.529974       0.641565
                                                         0.572156       0.349115
                                                         0.221473       0.047365
                                                         0.075885       0.000033
                          1       7    4dyz              1.529974       1.111223
                                                         0.572156       0.604685
                                                         0.221473       0.082039
                                                         0.075885       0.000058
                          1       7    4dz2              1.529974       0.641565
                                                         0.572156       0.349115
                                                         0.221473       0.047365
                                                         0.075885       0.000033

                          1       8    5dx2              1.529974      -0.416790
                                                         0.572156       0.702038
                                                         0.221473      -0.180280
                                                         0.075885       0.002500
                          1       8    5dxy              1.529974      -0.721901
                                                         0.572156       1.215965
                                                         0.221473      -0.312254
                                                         0.075885       0.004331
                          1       8    5dxz              1.529974      -0.721901
                                                         0.572156       1.215965
                                                         0.221473      -0.312254
                                                         0.075885       0.004331
                          1       8    5dy2              1.529974      -0.416790
                                                         0.572156       0.702038
                                                         0.221473      -0.180280
                                                         0.075885       0.002500
                          1       8    5dyz              1.529974      -0.721901
                                                         0.572156       1.215965
                                                         0.221473      -0.312254
                                                         0.075885       0.004331
                          1       8    5dz2              1.529974      -0.416790
                                                         0.572156       0.702038
                                                         0.221473      -0.180280
                                                         0.075885       0.002500

                          1       9    5fx3              1.529974       0.452264
                                                         0.572156       0.259688
                                                         0.221473       0.022786
                                                         0.075885      -0.000501
                          1       9    5fx2y             1.529974       1.011293
                                                         0.572156       0.580680
                                                         0.221473       0.050951
                                                         0.075885      -0.001120
                          1       9    5fx2z             1.529974       1.011293
                                                         0.572156       0.580680
                                                         0.221473       0.050951
                                                         0.075885      -0.001120
                          1       9    5fxy2             1.529974       1.011293
                                                         0.572156       0.580680
                                                         0.221473       0.050951
                                                         0.075885      -0.001120
                          1       9    5fxyz             1.529974       1.751610
                                                         0.572156       1.005767
                                                         0.221473       0.088251
                                                         0.075885      -0.001939
                          1       9    5fxz2             1.529974       1.011293
                                                         0.572156       0.580680
                                                         0.221473       0.050951
                                                         0.075885      -0.001120
                          1       9    5fy3              1.529974       0.452264
                                                         0.572156       0.259688
                                                         0.221473       0.022786
                                                         0.075885      -0.000501
                          1       9    5fy2z             1.529974       1.011293
                                                         0.572156       0.580680
                                                         0.221473       0.050951
                                                         0.075885      -0.001120
                          1       9    5fyz2             1.529974       1.011293
                                                         0.572156       0.580680
                                                         0.221473       0.050951
                                                         0.075885      -0.001120
                          1       9    5fz3              1.529974       0.452264
                                                         0.572156       0.259688
                                                         0.221473       0.022786
                                                         0.075885      -0.000501

       Atomic covalent radius [Angstrom]:                                  1.060

       Atomic van der Waals radius [Angstrom]:                             1.800

     The atoms of this atomic kind are PAW atoms (GAPW):
       Hard Gaussian function radius:                                      1.800
       Rho0 radius:                                                        1.800
       Maximum GTO radius used for PAW projector construction:            24.566

     GAPW Soft Basis Set                            TZV2P-MOLOPT-PBE-GTH-q5_soft

       Number of orbital shell sets:                                           1
       Number of orbital shells:                                               9
       Number of primitive Cartesian functions:                                4
       Number of Cartesian basis functions:                                   34
       Number of spherical basis functions:                                   29
       Norm type:                                                              2

       Normalised Cartesian orbitals:

                        Set   Shell   Orbital            Exponent    Coefficient

                          1       1    2s                1.529974       0.330831
                                                         0.572156      -0.121865
                                                         0.221473      -0.178453
                                                         0.075885      -0.020408

                          1       2    3s                1.529974       0.353664
                                                         0.572156      -0.203423
                                                         0.221473       0.005821
                                                         0.075885       0.111796

                          1       3    4s                1.529974      -1.067157
                                                         0.572156       0.214068
                                                         0.221473      -0.177211
                                                         0.075885       0.057956

                          1       4    3px               1.529974       0.268378
                                                         0.572156      -0.381409
                                                         0.221473      -0.118831
                                                         0.075885      -0.003877
                          1       4    3py               1.529974       0.268378
                                                         0.572156      -0.381409
                                                         0.221473      -0.118831
                                                         0.075885      -0.003877
                          1       4    3pz               1.529974       0.268378
                                                         0.572156      -0.381409
                                                         0.221473      -0.118831
                                                         0.075885      -0.003877

                          1       5    4px               1.529974       0.260904
                                                         0.572156      -0.330883
                                                         0.221473       0.080611
                                                         0.075885       0.048633
                          1       5    4py               1.529974       0.260904
                                                         0.572156      -0.330883
                                                         0.221473       0.080611
                                                         0.075885       0.048633
                          1       5    4pz               1.529974       0.260904
                                                         0.572156      -0.330883
                                                         0.221473       0.080611
                                                         0.075885       0.048633

                          1       6    5px               1.529974       0.623329
                                                         0.572156       0.730611
                                                         0.221473      -0.234303
                                                         0.075885       0.056701
                          1       6    5py               1.529974       0.623329
                                                         0.572156       0.730611
                                                         0.221473      -0.234303
                                                         0.075885       0.056701
                          1       6    5pz               1.529974       0.623329
                                                         0.572156       0.730611
                                                         0.221473      -0.234303
                                                         0.075885       0.056701

                          1       7    4dx2              1.529974       0.641565
                                                         0.572156       0.349115
                                                         0.221473       0.047365
                                                         0.075885       0.000033
                          1       7    4dxy              1.529974       1.111223
                                                         0.572156       0.604685
                                                         0.221473       0.082039
                                                         0.075885       0.000058
                          1       7    4dxz              1.529974       1.111223
                                                         0.572156       0.604685
                                                         0.221473       0.082039
                                                         0.075885       0.000058
                          1       7    4dy2              1.529974       0.641565
                                                         0.572156       0.349115
                                                         0.221473       0.047365
                                                         0.075885       0.000033
                          1       7    4dyz              1.529974       1.111223
                                                         0.572156       0.604685
                                                         0.221473       0.082039
                                                         0.075885       0.000058
                          1       7    4dz2              1.529974       0.641565
                                                         0.572156       0.349115
                                                         0.221473       0.047365
                                                         0.075885       0.000033

                          1       8    5dx2              1.529974      -0.416790
                                                         0.572156       0.702038
                                                         0.221473      -0.180280
                                                         0.075885       0.002500
                          1       8    5dxy              1.529974      -0.721901
                                                         0.572156       1.215965
                                                         0.221473      -0.312254
                                                         0.075885       0.004331
                          1       8    5dxz              1.529974      -0.721901
                                                         0.572156       1.215965
                                                         0.221473      -0.312254
                                                         0.075885       0.004331
                          1       8    5dy2              1.529974      -0.416790
                                                         0.572156       0.702038
                                                         0.221473      -0.180280
                                                         0.075885       0.002500
                          1       8    5dyz              1.529974      -0.721901
                                                         0.572156       1.215965
                                                         0.221473      -0.312254
                                                         0.075885       0.004331
                          1       8    5dz2              1.529974      -0.416790
                                                         0.572156       0.702038
                                                         0.221473      -0.180280
                                                         0.075885       0.002500

                          1       9    5fx3              1.529974       0.452264
                                                         0.572156       0.259688
                                                         0.221473       0.022786
                                                         0.075885      -0.000501
                          1       9    5fx2y             1.529974       1.011293
                                                         0.572156       0.580680
                                                         0.221473       0.050951
                                                         0.075885      -0.001120
                          1       9    5fx2z             1.529974       1.011293
                                                         0.572156       0.580680
                                                         0.221473       0.050951
                                                         0.075885      -0.001120
                          1       9    5fxy2             1.529974       1.011293
                                                         0.572156       0.580680
                                                         0.221473       0.050951
                                                         0.075885      -0.001120
                          1       9    5fxyz             1.529974       1.751610
                                                         0.572156       1.005767
                                                         0.221473       0.088251
                                                         0.075885      -0.001939
                          1       9    5fxz2             1.529974       1.011293
                                                         0.572156       0.580680
                                                         0.221473       0.050951
                                                         0.075885      -0.001120
                          1       9    5fy3              1.529974       0.452264
                                                         0.572156       0.259688
                                                         0.221473       0.022786
                                                         0.075885      -0.000501
                          1       9    5fy2z             1.529974       1.011293
                                                         0.572156       0.580680
                                                         0.221473       0.050951
                                                         0.075885      -0.001120
                          1       9    5fyz2             1.529974       1.011293
                                                         0.572156       0.580680
                                                         0.221473       0.050951
                                                         0.075885      -0.001120
                          1       9    5fz3              1.529974       0.452264
                                                         0.572156       0.259688
                                                         0.221473       0.022786
                                                         0.075885      -0.000501

     GTH Potential information for                                    GTH-PBE-q5

       Description:                       Goedecker-Teter-Hutter pseudopotential
                                           Goedecker et al., PRB 54, 1703 (1996)
                                          Hartwigsen et al., PRB 58, 3641 (1998)
                                                      Krack, TCA 114, 145 (2005)

       Gaussian exponent of the core charge distribution:               2.702572
       Electronic configuration (s p d ...):                       2   3   0   0

       Parameters of the local part of the GTH pseudopotential:

                          rloc        C1          C2          C3          C4
                        0.430127   -5.862875

       Parameters of the non-local part of the GTH pseudopotential:

                   l      r(l)      h(i,j,l)

                   0    0.396379   11.009068   -3.470357
                                   -3.470357    4.480230
                   1    0.448294    3.056058


 MOLECULE KIND INFORMATION


 All atoms are their own molecule, skipping detailed information


 TOTAL NUMBERS AND MAXIMUM NUMBERS

  Total number of            - Atomic kinds:                                   1
                             - Atoms:                                          1
                             - Shell sets:                                     1
                             - Shells:                                         9
                             - Primitive Cartesian functions:                  4
                             - Cartesian basis functions:                     34
                             - Spherical basis functions:                     29

  Maximum angular momentum of- Orbital basis functions:                        3
                             - Local part of the GTH pseudopotential:          0
                             - Non-local part of the GTH pseudopotential:      2


 MODULE QUICKSTEP: ATOMIC COORDINATES IN ANGSTROM

   Atom Kind Element         X             Y             Z       Z(eff)     Mass
      1    1 P    15     12.500000     12.500000     12.500000   5.0000  30.9738



 SCF PARAMETERS         Density guess:                                   RESTART
                        --------------------------------------------------------
                        max_scf:                                              75
                        max_scf_history:                                       0
                        max_diis:                                              4
                        --------------------------------------------------------
                        eps_scf:                                        1.00E-07
                        eps_scf_history:                                0.00E+00
                        eps_diis:                                       0.00E+00
                        eps_eigval:                                     1.00E-05
                        --------------------------------------------------------
                        level_shift [a.u.]:                             0.000000
                        --------------------------------------------------------
                        Outer loop SCF in use 
                        No variables optimised in outer loop
                        eps_scf                                         1.00E-07
                        max_scf                                               10
                        No outer loop optimization
                        step_size                                       5.00E-01

 PW_GRID| Information for grid number                                          1
 PW_GRID| Cutoff [a.u.]                                                    200.0
 PW_GRID| spherical cutoff:                                                   NO
 PW_GRID|   Bounds   1           -160     159                Points:         320
 PW_GRID|   Bounds   2           -160     159                Points:         320
 PW_GRID|   Bounds   3           -160     159                Points:         320
 PW_GRID| Volume element (a.u.^3)  0.3218E-02     Volume (a.u.^3)    105442.7279
 PW_GRID| Grid span                                                    FULLSPACE

 PW_GRID| Information for grid number                                          2
 PW_GRID| Number of the reference grid                                         1
 PW_GRID| Cutoff [a.u.]                                                     66.7
 PW_GRID| spherical cutoff:                                                   NO
 PW_GRID|   Bounds   1            -90      89                Points:         180
 PW_GRID|   Bounds   2            -90      89                Points:         180
 PW_GRID|   Bounds   3            -90      89                Points:         180
 PW_GRID| Volume element (a.u.^3)  0.1808E-01     Volume (a.u.^3)    105442.7279
 PW_GRID| Grid span                                                    FULLSPACE

 PW_GRID| Information for grid number                                          3
 PW_GRID| Number of the reference grid                                         1
 PW_GRID| Cutoff [a.u.]                                                     22.2
 PW_GRID| spherical cutoff:                                                   NO
 PW_GRID|   Bounds   1            -54      53                Points:         108
 PW_GRID|   Bounds   2            -54      53                Points:         108
 PW_GRID|   Bounds   3            -54      53                Points:         108
 PW_GRID| Volume element (a.u.^3)  0.8370E-01     Volume (a.u.^3)    105442.7279
 PW_GRID| Grid span                                                    FULLSPACE

 PW_GRID| Information for grid number                                          4
 PW_GRID| Number of the reference grid                                         1
 PW_GRID| Cutoff [a.u.]                                                      7.4
 PW_GRID| spherical cutoff:                                                   NO
 PW_GRID|   Bounds   1            -30      29                Points:          60
 PW_GRID|   Bounds   2            -30      29                Points:          60
 PW_GRID|   Bounds   3            -30      29                Points:          60
 PW_GRID| Volume element (a.u.^3)  0.4882         Volume (a.u.^3)    105442.7279
 PW_GRID| Grid span                                                    FULLSPACE

 PW_GRID| Information for grid number                                          5
 PW_GRID| Number of the reference grid                                         1
 PW_GRID| Cutoff [a.u.]                                                      2.5
 PW_GRID| spherical cutoff:                                                   NO
 PW_GRID|   Bounds   1            -18      17                Points:          36
 PW_GRID|   Bounds   2            -18      17                Points:          36
 PW_GRID|   Bounds   3            -18      17                Points:          36
 PW_GRID| Volume element (a.u.^3)   2.260         Volume (a.u.^3)    105442.7279
 PW_GRID| Grid span                                                    FULLSPACE

 POISSON| Solver                                                        ANALYTIC
 POISSON| Periodicity                                                       NONE

 RS_GRID| Information for grid number                                          1
 RS_GRID|   Bounds   1           -160     159                Points:         320
 RS_GRID|   Bounds   2           -160     159                Points:         320
 RS_GRID|   Bounds   3           -160     159                Points:         320

 RS_GRID| Information for grid number                                          2
 RS_GRID|   Bounds   1            -90      89                Points:         180
 RS_GRID|   Bounds   2            -90      89                Points:         180
 RS_GRID|   Bounds   3            -90      89                Points:         180

 RS_GRID| Information for grid number                                          3
 RS_GRID|   Bounds   1            -54      53                Points:         108
 RS_GRID|   Bounds   2            -54      53                Points:         108
 RS_GRID|   Bounds   3            -54      53                Points:         108

 RS_GRID| Information for grid number                                          4
 RS_GRID|   Bounds   1            -30      29                Points:          60
 RS_GRID|   Bounds   2            -30      29                Points:          60
 RS_GRID|   Bounds   3            -30      29                Points:          60

 RS_GRID| Information for grid number                                          5
 RS_GRID|   Bounds   1            -18      17                Points:          36
 RS_GRID|   Bounds   2            -18      17                Points:          36
 RS_GRID|   Bounds   3            -18      17                Points:          36

 Extrapolation method: initial_guess

 Spin 1

 Number of electrons:                                                          4
 Number of occupied orbitals:                                                  4
 Number of molecular orbitals:                                                 4

 Spin 2

 Number of electrons:                                                          2
 Number of occupied orbitals:                                                  2
 Number of molecular orbitals:                                                 2

 Number of orbital functions:                                                 29
 Number of independent orbital functions:                                     29


 SCF WAVEFUNCTION OPTIMIZATION

  ----------------------------------- OT ---------------------------------------
  Minimizer      : DIIS                : direct inversion
                                         in the iterative subspace
                                         using   7 DIIS vectors
                                         safer DIIS on
  Preconditioner : FULL_ALL            : diagonalization, state selective
  Precond_solver : DEFAULT
  stepsize       :    0.05000000                  energy_gap     :    0.00100000
  eps_taylor     :   0.10000E-15                  max_taylor     :             4
  ----------------------------------- OT ---------------------------------------

  Step     Update method      Time    Convergence         Total energy    Change
  ------------------------------------------------------------------------------
 SKALA_GPW| Atom-composite cross support/maxima   0.000000000000E+00   0.000000000000E+00   0.000000000000E+00   0.000000000000E+00
 SKALA_GPW| Active atom-composite XC energy  -1.7797917431133241E+00
 SKALA_GPW| Active atom-composite electrons   5.9999995810221884E+00
 SKALA_GPW| Active atom-composite density range  -1.2631213585963561E-10   6.8526074124198255E-02
 SKALA_GPW| Active atom-composite tau range  -1.3206153178173189E-09   1.0595389752682163E-01
 SKALA_GPW| Active atom-composite tau integral   2.5350261046185620E+00
 SKALA_GPW| Active atom-composite max gradient   9.8378032097995671E-02
     1 OT DIIS     0.50E-01   44.5     0.00000001        -6.4878145929 -6.49E+00

  *** SCF run converged in     1 steps ***


  Electronic density on regular grids:         -6.0000000000        0.0000000000
  Core density on regular grids:                5.0000000000       -0.0000000000
  Total charge density on r-space grids:       -1.0000000000
  Total charge density g-space grids:          -1.0000000000

  Overlap energy of the core charge distribution:               0.00000000000000
  Self energy of the core charge distribution:                -16.39602901162278
  Core Hamiltonian energy:                                      3.54567125760799
  Hartree energy:                                               8.14233490419386
  Exchange-correlation energy:                                  0.00000000000000

  GAPW_XC| Exc from hard and soft atomic rho1:                 -1.77979174311332

  Total energy:                                                -6.48781459293426

  outer SCF iter =    1 RMS gradient =   0.12E-07 energy =         -6.4878145929
  outer SCF loop converged in   1 iterations or    1 steps


  Integrated spin density:                                          2.0000000000
  Integrated absolute spin density:                                 2.0572476123
  Ideal and single determinant S**2 :                    2.000000       2.010083

 !-----------------------------------------------------------------------------!
                     Mulliken Population Analysis

 #  Atom  Element  Kind  Atomic population (alpha,beta) Net charge  Spin moment
       1     P        1         4.000000     2.000000    -1.000000     2.000000
 # Total charge and spin        4.000000     2.000000    -1.000000     2.000000

 !-----------------------------------------------------------------------------!

 !-----------------------------------------------------------------------------!
                           Hirshfeld Charges

  #Atom  Element  Kind  Ref Charge     Population       Spin moment  Net charge
      1       P      1       5.000    3.998   1.999            1.999     -0.997

  Total Charge                                                           -0.997
 !-----------------------------------------------------------------------------!

 ENERGY| Total FORCE_EVAL ( QS ) energy [hartree]             -6.487814592934259

 -------------------------------------------------------------------------------
 -                                                                             -
 -                                DBCSR STATISTICS                             -
 -                                                                             -
 -------------------------------------------------------------------------------
 COUNTER                                    TOTAL       BLAS       SMM       ACC
 flops     2 x     2 x     2                   16     100.0%      0.0%      0.0%     
 flops     4 x     4 x     4                  128     100.0%      0.0%      0.0%     
 flops     2 x     2 x    29                 1160     100.0%      0.0%      0.0%     
 flops    29 x     2 x     2                 1392     100.0%      0.0%      0.0%     
 flops     4 x     4 x    29                 4640     100.0%      0.0%      0.0%     
 flops    29 x     4 x     4                 5568     100.0%      0.0%      0.0%     
 flops    29 x    29 x     2                 6728     100.0%      0.0%      0.0%     
 flops    29 x    29 x     4                13456     100.0%      0.0%      0.0%     
 flops    29 x     2 x    29                47096     100.0%      0.0%      0.0%     
 flops    29 x     4 x    29                87464     100.0%      0.0%      0.0%     
 flops inhomo. stacks                           0       0.0%      0.0%      0.0%
 flops total                       167.648000E+03     100.0%      0.0%      0.0%
 flops max/rank                    167.648000E+03     100.0%      0.0%      0.0%
 matmuls inhomo. stacks                         0       0.0%      0.0%      0.0%
 matmuls total                                 55     100.0%      0.0%      0.0%
 number of processed stacks                    55     100.0%      0.0%      0.0%
 average stack size                                     1.0       0.0       0.0
 marketing flops                   168.808000E+03
 -------------------------------------------------------------------------------
 # multiplications                             57
 max memory usage/rank              41.885802E+09
 # max total images/rank                        1
 # max 3D layers                                1
 # MPI messages exchanged                       0
 -------------------------------------------------------------------------------
 -                                                                             -
 -                      DBCSR MESSAGE PASSING PERFORMANCE                      -
 -                                                                             -
 -------------------------------------------------------------------------------
 ROUTINE             CALLS      AVE VOLUME [Bytes]
 MP_Bcast               11                     12.
 MP_Allreduce          284                     10.
 MP_Alltoall           651                    655.
 MP_ISend              220                     20.
 MP_IRecv              220                     20.
 -------------------------------------------------------------------------------

 -------------------------------------------------------------------------------
 -                                                                             -
 -                                GRID STATISTICS                              -
 -                                                                             -
 -------------------------------------------------------------------------------
 LP    KERNEL             BACKEND                              COUNT     PERCENT
 6     collocate ortho    CPU                                    128      43.69%
 8     collocate ortho    CPU                                     64      21.84%
 6     integrate ortho    CPU                                     64      21.84%
 8     integrate ortho    CPU                                     32      10.92%
 0     collocate general  CPU                                      3       1.02%
 0     integrate general  CPU                                      2       0.68%
 -------------------------------------------------------------------------------

 -------------------------------------------------------------------------------
 -                                                                             -
 -                          OFFLOAD MEMPOOL STATISTICS                         -
 -                                                                             -
 -------------------------------------------------------------------------------
 Memory consumption                Number of allocations  Used [MiB]  Size [MiB]
 Host                                                  9         306    89649842
 -------------------------------------------------------------------------------

 MEMORY| Estimated peak process memory [MiB]                               20574

 -------------------------------------------------------------------------------
 ----                             MULTIGRID INFO                            ----
 -------------------------------------------------------------------------------
 count for grid        1:            407          cutoff [a.u.]          200.00
 count for grid        2:           3708          cutoff [a.u.]           66.67
 count for grid        3:           2080          cutoff [a.u.]           22.22
 count for grid        4:            452          cutoff [a.u.]            7.41
 count for grid        5:             45          cutoff [a.u.]            2.47
 total gridlevel count  :           6692

 -------------------------------------------------------------------------------
 -                                                                             -
 -                         MESSAGE PASSING PERFORMANCE                         -
 -                                                                             -
 -------------------------------------------------------------------------------

 ROUTINE             CALLS      AVE VOLUME [Bytes]
 MP_Group                6
 MP_Bcast               51                  55941.
 MP_Allreduce          212               24771974.
 MP_Sync                13
 MP_comm_split           8
 -------------------------------------------------------------------------------


 -------------------------------------------------------------------------------
 -                                                                             -
 -                           R E F E R E N C E S                               -
 -                                                                             -
 -------------------------------------------------------------------------------
 
 CP2K version 2026.2 (Development Version), the CP2K developers group (2026).
 CP2K is freely available from https://www.cp2k.org/ .
 
 M. Iannuzzi, J. Wilhelm, F. Stein, A. Bussy, H. Elgabarty, D. Golze, A. Hehn, 
 M. Graml, S. Marek, B. Sertcan Gökmen, C. Schran, H. Forbert, R. Z. 
 Khaliullin, A. Kozhevnikov, M. Taillefumier, R. Meli, V. V. Rybkin, M. Brehm, 
 R. Schade, O. Schütt, J. V. Pototschnig, H. Mirhosseini, A. Knüpfer, D. Marx, 
 M. Krack, J. Hutter, T. D. Kühne.
 J. Phys. Chem. B 130, 1237-1310 (2026).
 The CP2K Program Package Made Simple.
 https://doi.org/10.1021/acs.jpcb.5c05851

 L. Wittmann, I. Gordiy, M. Friede, B. Helmich-Paris, S. Grimme, A. Hansen, M. 
 Bursch.
 Phys. Chem. Chem. Phys. 26, 21379-21394 (2024).
 Extension of the D3 and D4 London dispersion corrections to the full actinides 
 series.
 https://doi.org/10.1039/d4cp01514b

 T. D. Kühne, M. Iannuzzi, M. Del Ben, V. V. Rybkin, P. Seewald, F. Stein, T. 
 Laino, R. Z. Khaliullin, O. Schütt, F. Schiffmann, D. Golze, J. Wilhelm, S. 
 Chulkov, M. H. Bani-Hashemian, V. Weber, U. Borstnik, M. Taillefumier, A. S. 
 Jakobovits, A. Lazzaro, H. Pabst, T. Müller, R. Schade, M. Guidon, S. 
 Andermatt, N. Holmberg, G. K. Schenter, A. Hehn, A. Bussy, F. Belleflamme, G. 
 Tabacchi, A. Glöß, M. Lass, I. Bethune, C. J. Mundy, C. Plessl, M. Watkins, 
 J. VandeVondele, M. Krack, J. Hutter.
 J. Chem. Phys. 152, 194103 (2020).
 CP2K: An electronic structure and molecular dynamics software package - 
 Quickstep: Efficient and accurate electronic structure calculations.
 https://doi.org/10.1063/5.0007045

 L. Goerigk, A. Hansen, C. Bauer, S. Ehrlich, A. Najibi, S. Grimme.
 Phys. Chem. Chem. Phys. 19, 32184-32215 (2017).
 A look at the density functional theory zoo with the advanced GMTKN55 database 
 for general main group thermochemistry, kinetics and noncovalent interactions.
 https://doi.org/10.1039/C7CP04913G

 O. Schuett, P. Messmer, J. Hutter, J. VandeVondele.
 Electronic Structure Calculations on Graphics Processing Units, 173-190 (2016).
 GPU-Accelerated Sparse Matrix-Matrix Multiplication for Linear Scaling Density 
 Functional Theory.
 https://doi.org/10.1002/9781118670712.ch8

 U. Borstnik, J. VandeVondele, V. Weber, J. Hutter.
 Parallel Comput. 40, 47-58 (2014).
 Sparse matrix multiplication: The distributed block-compressed sparse row 
 library.
 https://doi.org/10.1016/j.parco.2014.03.012

 S. Grimme, S. Ehrlich, L. Goerigk.
 J. Comput. Chem. 32, 1456 (2011).
 Effect of the damping function in dispersion corrected density functional 
 theory.
 https://doi.org/10.1002/jcc.21759

 S. Grimme, J. Antony, S. Ehrlich, H. Krieg.
 J. Chem. Phys. 132, 154104 (2010).
 A consistent and accurate ab initio parametrization of density functional 
 dispersion correction (DFT-D) for the 94 elements H-Pu.
 https://doi.org/10.1063/1.3382344

 J. VandeVondele, J. Hutter.
 J. Chem. Phys. 127, 114105 (2007).
 Gaussian basis sets for accurate calculations on molecular systems in gas and 
 condensed phases.
 https://doi.org/10.1063/1.2770708

 M. Krack.
 Theor. Chem. Acc. 114, 145-152 (2005).
 Pseudopotentials for H to Kr optimized for gradient-corrected 
 exchange-correlation functionals.
 https://doi.org/10.1007/s00214-005-0655-y

 M. Frigo, S. G. Johnson.
 Proc. IEEE 93, 216-231 (2005).
 The design and implementation of FFTW3.
 https://doi.org/10.1109/JPROC.2004.840301

 J. VandeVondele, J. Hutter.
 J. Chem. Phys. 118, 4365-4369 (2003).
 An efficient orbital transformation method for electronic structure 
 calculations.
 https://doi.org/10.1063/1.1543154

 C. Hartwigsen, S. Goedecker, J. Hutter.
 Phys. Rev. B 58, 3641-3662 (1998).
 Relativistic separable dual-space Gaussian pseudopotentials from H to Rn.
 https://doi.org/10.1103/PhysRevB.58.3641

 S. Goedecker, M. Teter, J. Hutter.
 Phys. Rev. B 54, 1703-1710 (1996).
 Separable dual-space Gaussian pseudopotentials.
 https://doi.org/10.1103/PhysRevB.54.1703


 -------------------------------------------------------------------------------
 -                                                                             -
 -                                T I M I N G                                  -
 -                                                                             -
 -------------------------------------------------------------------------------
 SUBROUTINE                       CALLS  ASD         SELF TIME        TOTAL TIME
                                MAXIMUM       AVERAGE  MAXIMUM  AVERAGE  MAXIMUM
 CP2K                                 1  1.0    0.149    0.149   84.700   84.700
 qs_energies                          1  2.0    0.000    0.000   74.928   74.928
 scf_env_do_scf                       1  3.0    0.000    0.000   61.076   61.076
 init_scf_loop                        1  4.0    0.000    0.000   44.453   44.453
 qs_ks_update_qs_env                  2  5.0    0.000    0.000   44.431   44.431
 rebuild_ks_matrix                    1  6.0    0.000    0.000   44.431   44.431
 qs_ks_build_kohn_sham_matrix         1  7.0    0.001    0.001   44.431   44.431
 fft_wrap_pw1pw2                    118  9.0    0.004    0.004   43.201   43.201
 fft_wrap_pw1pw2_200                 46 10.1    3.502    3.502   40.272   40.272
 calculate_vxc_atom                   1  8.0   13.403   13.403   35.067   35.067
 qs_rho_update_rho_low                2  5.0    0.000    0.000   28.240   28.240
 calculate_rho_elec                  12  6.0    1.036    1.036   28.237   28.237
 fft3d_s                            119 11.0   24.557   24.557   24.562   24.562
 density_rs2pw                       12  7.0    0.002    0.002   24.411   24.411
 scf_env_do_scf_inner_loop            1  4.0    0.000    0.000   16.623   16.623
 init_scf_run                         1  3.0    0.000    0.000   11.649   11.649
 scf_env_initial_rho_setup            1  4.0    0.000    0.000   11.649   11.649
 xc_pw_derive                        12  9.5    0.000    0.000   11.626   11.626
 qs_init_subsys                       1  2.0    0.001    0.001    9.593    9.593
 qs_env_setup                         1  3.0    0.000    0.000    9.509    9.509
 qs_env_rebuild_pw_env                2  3.5    0.000    0.000    9.509    9.509
 pw_env_rebuild                       1  5.0    0.000    0.000    9.509    9.509
 pw_grid_setup                        5  6.0    0.000    0.000    9.508    9.508
 pw_grid_setup_internal               5  7.0    0.172    0.172    9.508    9.508
 pw_grid_sort                         5  8.0    6.512    6.512    8.726    8.726
 pw_gather_s                         73 10.5    8.557    8.557    8.557    8.557
 xc_pw_divergence                     2  9.0    0.000    0.000    8.360    8.360
 sum_up_and_integrate                 1  8.0    0.000    0.000    7.595    7.595
 integrate_v_rspace                   6  9.0    0.001    0.001    7.501    7.501
 potential_pw2rs                      6 10.0    0.096    0.096    7.470    7.470
 pw_scatter_s                        45 12.0    4.672    4.672    4.672    4.672
 grid_collocate_task_list            12  7.0    2.789    2.789    2.789    2.789
 calc_tau_atom                        3  9.0    2.433    2.433    2.433    2.433
 fft_wrap_pw1pw2_70                  18 10.0    0.410    0.410    2.382    2.382
 sort_shells                          5  9.0    2.214    2.214    2.214    2.214
 -------------------------------------------------------------------------------

 The number of warnings for this run is : 0
 
 -------------------------------------------------------------------------------
  **** **** ******  **  PROGRAM ENDED AT                 2026-08-26 14:57:02.813
 ***** ** ***  *** **   PROGRAM RAN ON                                     terok
 **    ****   ******    PROGRAM RAN BY                                  kuehne88
 ***** **    ** ** **   PROGRAM PROCESS ID                                592149
  **** **  *******  **  PROGRAM STOPPED IN /home/kuehne88/work/native-skala-tero
                                           k/diet-production-p25/gapwxc-gth-one-
                                           center/853d65c3d0bfdcf390e2024faaba15
                                           8f079e3eec
