 DBCSR| CPU Multiplication driver                                           BLAS (U)
 DBCSR| Multrec recursion limit                                              512 (U)
 DBCSR| Multiplication stack size                                           1000 (D)
 DBCSR| Maximum elements for images                                    UNLIMITED (U)
 DBCSR| Multiplicative factor virtual images                                   1 (U)
 DBCSR| Use multiplication densification                                       T (D)
 DBCSR| Multiplication size stacks                                             3 (U)
 DBCSR| Use memory pool for CPU allocation                                     F (U)
 DBCSR| Number of 3D layers                                               SINGLE (U)
 DBCSR| Use MPI memory allocation                                              F (U)
 DBCSR| Use RMA algorithm                                                      F (U)
 DBCSR| Use Communication thread                                               T (U)
 DBCSR| Communication thread load                                             60 (D)
 DBCSR| MPI: My process id                                                     0
 DBCSR| MPI: Number of processes                                               1
 DBCSR| OMP: Current number of threads                                         8
 DBCSR| OMP: Max number of threads                                             8
 DBCSR| Split modifier for TAS multiplication algorithm                  1.0E+00 (U)


  **** **** ******  **  PROGRAM STARTED AT               2026-09-09 12:21:15.886
 ***** ** ***  *** **   PROGRAM STARTED ON                                 terok
 **    ****   ******    PROGRAM STARTED BY                              kuehne88
 ***** **    ** ** **   PROGRAM PROCESS ID                               4093840
  **** **  *******  **  PROGRAM STARTED IN /home/kuehne88/work/native-skala-tero
                                           k/pccp-validation-20260909/derivative
                                           -checks/gapwxc-gth/force-minus-0.001

 CP2K| version string:                 CP2K version 2026.2 (Development Version)
 CP2K| source code revision number:                                   37aedacbb3
 CP2K| cp2kflags: omp fftw3 gauxc gauxc_mpi gauxc_onedft gauxc_host parallel sca
 CP2K|            lapack mpi_f08 openblas libtorch libtorch_cuda
 CP2K| is freely available from                            https://www.cp2k.org/
 CP2K| Program compiled at                                   2026-09-08 17:22:32
 CP2K| Program compiled on                                                 terok
 CP2K| Program compiled for                                               x86_64
 CP2K| Data directory path    /home/kuehne88/work/native-skala-terok/x23-mini/ru
 CP2K| Input file name                                                 input.inp

 GLOBAL| Force Environment number                                              1
 GLOBAL| Basis set file name                             BASIS_MOLOPT_UZH_2026.2
 GLOBAL| Potential file name                                POTENTIAL_UZH_2026.2
 GLOBAL| MM Potential file name                                     MM_POTENTIAL
 GLOBAL| Coordinate file name                                      __STD_INPUT__
 GLOBAL| Method name                                                        CP2K
 GLOBAL| Project name                                              fd_gapwxc-gth
 GLOBAL| Run type                                                   ENERGY_FORCE
 GLOBAL| FFT library                                                       FFTW3
 GLOBAL| Diagonalization library                                       ScaLAPACK
 GLOBAL| Cholesky decomposition library                                ScaLAPACK
 GLOBAL| DGEMM library                                                      BLAS
 GLOBAL| Direct generalized diagonalization requested                          F
 GLOBAL| Orthonormality check for eigenvectors                          DISABLED
 GLOBAL| Matrix multiplication library                                 ScaLAPACK
 GLOBAL| All-to-all communication in single precision                          F
 GLOBAL| Grid backend                                                       AUTO
 GLOBAL| Global print level                                               MEDIUM
 GLOBAL| MPI I/O enabled                                                       T
 GLOBAL| Total number of message passing processes                             1
 GLOBAL| Number of distributed systems (nodes)                                 1
 GLOBAL| Number of threads for this process                                    8
 GLOBAL| This output is from process                                           0
 GLOBAL| OpenMP stack size per thread (OMP_STACKSIZE)                       256M
 GLOBAL| CPU model name                                       AMD EPYC Processor

 MEMORY| system memory details [Kb]
 MEMORY|                        rank 0           min           max       average
 MEMORY| MemTotal            528104844     528104844     528104844     528104844
 MEMORY| MemFree             238368548     238368548     238368548     238368548
 MEMORY| Buffers                   664           664           664           664
 MEMORY| Cached              243206124     243206124     243206124     243206124
 MEMORY| Slab                 36116688      36116688      36116688      36116688
 MEMORY| SReclaimable         29888872      29888872      29888872      29888872
 MEMORY| MemLikelyFree       511464208     511464208     511464208     511464208


 *** Fundamental physical constants (SI units) ***

 *** Literature: B. J. Mohr and B. N. Taylor,
 ***             CODATA recommended values of the fundamental physical
 ***             constants: 2006, Web Version 5.1
 ***             http://physics.nist.gov/constants

 Speed of light in vacuum [m/s]                             2.99792458000000E+08
 Magnetic constant or permeability of vacuum [N/A**2]       1.25663706143592E-06
 Electric constant or permittivity of vacuum [F/m]          8.85418781762039E-12
 Planck constant (h) [J*s]                                  6.62606896000000E-34
 Planck constant (h-bar) [J*s]                              1.05457162825177E-34
 Elementary charge [C]                                      1.60217648700000E-19
 Electron mass [kg]                                         9.10938215000000E-31
 Electron g factor [ ]                                     -2.00231930436220E+00
 Proton mass [kg]                                           1.67262163700000E-27
 Fine-structure constant                                    7.29735253760000E-03
 Rydberg constant [1/m]                                     1.09737315685270E+07
 Avogadro constant [1/mol]                                  6.02214179000000E+23
 Boltzmann constant [J/K]                                   1.38065040000000E-23
 Atomic mass unit [kg]                                      1.66053878200000E-27
 Bohr radius [m]                                            5.29177208590000E-11

 *** Conversion factors ***

 [u] -> [a.u.]                                              1.82288848426455E+03
 [Angstrom] -> [Bohr] = [a.u.]                              1.88972613288564E+00
 [a.u.] = [Bohr] -> [Angstrom]                              5.29177208590000E-01
 [a.u.] -> [s]                                              2.41888432650478E-17
 [a.u.] -> [fs]                                             2.41888432650478E-02
 [a.u.] -> [J]                                              4.35974393937059E-18
 [a.u.] -> [N]                                              8.23872205491840E-08
 [a.u.] -> [K]                                              3.15774647902944E+05
 [a.u.] -> [kJ/mol]                                         2.62549961709828E+03
 [a.u.] -> [kcal/mol]                                       6.27509468713739E+02
 [a.u.] -> [Pa]                                             2.94210107994716E+13
 [a.u.] -> [bar]                                            2.94210107994716E+08
 [a.u.] -> [atm]                                            2.90362800883016E+08
 [a.u.] -> [eV]                                             2.72113838565563E+01
 [a.u.] -> [Hz]                                             6.57968392072181E+15
 [a.u.] -> [1/cm] (wave numbers)                            2.19474631370540E+05
 [a.u./Bohr**2] -> [1/cm]                                   5.14048714338585E+03
 

 CELL| Volume [angstrom^3]:                                           512.000000
 CELL| Vector a [angstrom]:       8.000     0.000     0.000   |a| =     8.000000
 CELL| Vector b [angstrom]:       0.000     8.000     0.000   |b| =     8.000000
 CELL| Vector c [angstrom]:       0.000     0.000     8.000   |c| =     8.000000
 CELL| Angle (b,c), alpha [degree]:                                    90.000000
 CELL| Angle (a,c), beta  [degree]:                                    90.000000
 CELL| Angle (a,b), gamma [degree]:                                    90.000000
 CELL| Numerically orthorhombic:                                             YES
 CELL| Periodicity                                                           XYZ

 CELL_REF| Volume [angstrom^3]:                                       512.000000
 CELL_REF| Vector a [angstrom     8.000     0.000     0.000   |a| =     8.000000
 CELL_REF| Vector b [angstrom     0.000     8.000     0.000   |b| =     8.000000
 CELL_REF| Vector c [angstrom     0.000     0.000     8.000   |c| =     8.000000
 CELL_REF| Angle (b,c), alpha [degree]:                                90.000000
 CELL_REF| Angle (a,c), beta  [degree]:                                90.000000
 CELL_REF| Angle (a,b), gamma [degree]:                                90.000000
 CELL_REF| Numerically orthorhombic:                                         YES
 CELL_REF| Periodicity                                                       XYZ

 GENERATE|  Preliminary Number of Bonds generated:                             0
 GENERATE|  Achieved consistency in connectivity generation.

 *******************************************************************************
 *******************************************************************************
 **                                                                           **
 **     #####                         ##              ##                      **
 **    ##   ##            ##          ##              ##                      **
 **   ##     ##                       ##            ######                    **
 **   ##     ##  ##   ##  ##   #####  ##  ##   ####   ##    #####    #####    **
 **   ##     ##  ##   ##  ##  ##      ## ##   ##      ##   ##   ##  ##   ##   **
 **   ##  ## ##  ##   ##  ##  ##      ####     ###    ##   ######   ######    **
 **    ##  ###   ##   ##  ##  ##      ## ##      ##   ##   ##       ##        **
 **     #######   #####   ##   #####  ##  ##  ####    ##    #####   ##        **
 **           ##                                                    ##        **
 **                                                                           **
 **                                                ... make the atoms dance   **
 **                                                                           **
 **            Copyright (C) by CP2K developers group (2000-2026)             **
 **                      J. Chem. Phys. 152, 194103 (2020)                    **
 **                                                                           **
 *******************************************************************************

 DFT| Spin restricted Kohn-Sham (RKS) calculation                            RKS
 DFT| Multiplicity                                                             1
 DFT| Number of spin states                                                    1
 DFT| Charge                                                                   0
 DFT| Self-interaction correction (SIC)                                       NO
 DFT| Cutoffs: density                                              1.000000E-10
 DFT|          gradient                                             1.000000E-10
 DFT|          tau                                                  1.000000E-10
 DFT|          cutoff_smoothing_range                               0.000000E+00
 DFT| XC density smoothing                                                  NONE
 DFT| XC derivatives                                                          PW

 FUNCTIONAL| GAUXC:
 FUNCTIONAL| Functional computed by GauXC Skala model SKALA                     


 QS| Method:                                                             GAPW_XC
 QS| Density plane wave grid type                        NON-SPHERICAL FULLSPACE
 QS| Number of grid levels:                                                    5
 QS| Density cutoff [a.u.]:                                                200.0
 QS| Multi grid cutoff [a.u.]: 1) grid level                               200.0
 QS|                           2) grid level                                66.7
 QS|                           3) grid level                                22.2
 QS|                           4) grid level                                 7.4
 QS|                           5) grid level                                 2.5
 QS| Grid level progression factor:                                          3.0
 QS| Relative density cutoff [a.u.]:                                        30.0
 QS| Interaction thresholds: eps_pgf_orb:                                1.0E-06
 QS|                         eps_filter_matrix:                          0.0E+00
 QS|                         eps_core_charge:                            1.0E-14
 QS|                         eps_rho_gspace:                             1.0E-12
 QS|                         eps_rho_rspace:                             1.0E-12
 QS|                         eps_gvg_rspace:                             1.0E-06
 QS|                         eps_ppl:                                    1.0E-02
 QS|                         eps_ppnl:                                   1.0E-08
 QS| GAPW_XC|      One center basis extended with primitives (small:s)
 QS| GAPW_XC|                eps_fit:                                    1.0E-04
 QS| GAPW_XC|                eps_iso:                                    1.0E-12
 QS| GAPW_XC|                eps_svd:                                    1.0E-08
 QS| GAPW_XC|atom-r-grid: quadrature:                 GC_LOG                        
 QS| GAPW_XC|   atom-s-grid:  max l :                                          6


 ATOMIC KIND INFORMATION

  1. Atomic kind: O                                     Number of atoms:       1

     Orbital Basis Set                                   TZV2P-MOLOPT-PBE-GTH-q6

       Number of orbital shell sets:                                           1
       Number of orbital shells:                                               9
       Number of primitive Cartesian functions:                                5
       Number of Cartesian basis functions:                                   34
       Number of spherical basis functions:                                   29
       Norm type:                                                              2

       Normalised Cartesian orbitals:

                        Set   Shell   Orbital            Exponent    Coefficient

                          1       1    2s               10.277042      -0.485504
                                                         3.564053      -0.220015
                                                         1.313636       0.373321
                                                         0.488903       0.264765
                                                         0.155332       0.020043

                          1       2    3s               10.277042       0.224066
                                                         3.564053       0.080746
                                                         1.313636      -0.123482
                                                         0.488903      -0.035459
                                                         0.155332       0.195554

                          1       3    4s               10.277042      -3.846583
                                                         3.564053      -0.604002
                                                         1.313636       0.878850
                                                         0.488903      -0.388670
                                                         0.155332       0.020403

                          1       4    3px              10.277042      -1.528218
                                                         3.564053      -1.277699
                                                         1.313636      -0.654740
                                                         0.488903      -0.229926
                                                         0.155332      -0.043447
                          1       4    3py              10.277042      -1.528218
                                                         3.564053      -1.277699
                                                         1.313636      -0.654740
                                                         0.488903      -0.229926
                                                         0.155332      -0.043447
                          1       4    3pz              10.277042      -1.528218
                                                         3.564053      -1.277699
                                                         1.313636      -0.654740
                                                         0.488903      -0.229926
                                                         0.155332      -0.043447

                          1       5    4px              10.277042       2.036465
                                                         3.564053       1.678955
                                                         1.313636       0.821025
                                                         0.488903       0.173956
                                                         0.155332      -0.133459
                          1       5    4py              10.277042       2.036465
                                                         3.564053       1.678955
                                                         1.313636       0.821025
                                                         0.488903       0.173956
                                                         0.155332      -0.133459
                          1       5    4pz              10.277042       2.036465
                                                         3.564053       1.678955
                                                         1.313636       0.821025
                                                         0.488903       0.173956
                                                         0.155332      -0.133459

                          1       6    5px              10.277042       4.160760
                                                         3.564053       3.839534
                                                         1.313636       1.365137
                                                         0.488903      -0.557232
                                                         0.155332       0.019989
                          1       6    5py              10.277042       4.160760
                                                         3.564053       3.839534
                                                         1.313636       1.365137
                                                         0.488903      -0.557232
                                                         0.155332       0.019989
                          1       6    5pz              10.277042       4.160760
                                                         3.564053       3.839534
                                                         1.313636       1.365137
                                                         0.488903      -0.557232
                                                         0.155332       0.019989

                          1       7    4dx2             10.277042      -5.653729
                                                         3.564053       2.384130
                                                         1.313636       0.763128
                                                         0.488903       0.368121
                                                         0.155332      -0.007951
                          1       7    4dxy             10.277042      -9.792547
                                                         3.564053       4.129435
                                                         1.313636       1.321776
                                                         0.488903       0.637605
                                                         0.155332      -0.013772
                          1       7    4dxz             10.277042      -9.792547
                                                         3.564053       4.129435
                                                         1.313636       1.321776
                                                         0.488903       0.637605
                                                         0.155332      -0.013772
                          1       7    4dy2             10.277042      -5.653729
                                                         3.564053       2.384130
                                                         1.313636       0.763128
                                                         0.488903       0.368121
                                                         0.155332      -0.007951
                          1       7    4dyz             10.277042      -9.792547
                                                         3.564053       4.129435
                                                         1.313636       1.321776
                                                         0.488903       0.637605
                                                         0.155332      -0.013772
                          1       7    4dz2             10.277042      -5.653729
                                                         3.564053       2.384130
                                                         1.313636       0.763128
                                                         0.488903       0.368121
                                                         0.155332      -0.007951

                          1       8    5dx2             10.277042      -1.240143
                                                         3.564053       0.370203
                                                         1.313636       0.144297
                                                         0.488903       0.056503
                                                         0.155332       0.057456
                          1       8    5dxy             10.277042      -2.147990
                                                         3.564053       0.641211
                                                         1.313636       0.249929
                                                         0.488903       0.097865
                                                         0.155332       0.099516
                          1       8    5dxz             10.277042      -2.147990
                                                         3.564053       0.641211
                                                         1.313636       0.249929
                                                         0.488903       0.097865
                                                         0.155332       0.099516
                          1       8    5dy2             10.277042      -1.240143
                                                         3.564053       0.370203
                                                         1.313636       0.144297
                                                         0.488903       0.056503
                                                         0.155332       0.057456
                          1       8    5dyz             10.277042      -2.147990
                                                         3.564053       0.641211
                                                         1.313636       0.249929
                                                         0.488903       0.097865
                                                         0.155332       0.099516
                          1       8    5dz2             10.277042      -1.240143
                                                         3.564053       0.370203
                                                         1.313636       0.144297
                                                         0.488903       0.056503
                                                         0.155332       0.057456

                          1       9    5fx3             10.277042      -6.690350
                                                         3.564053       0.340627
                                                         1.313636       0.043047
                                                         0.488903       0.291962
                                                         0.155332      -0.000154
                          1       9    5fx2y            10.277042     -14.960077
                                                         3.564053       0.761664
                                                         1.313636       0.096256
                                                         0.488903       0.652848
                                                         0.155332      -0.000345
                          1       9    5fx2z            10.277042     -14.960077
                                                         3.564053       0.761664
                                                         1.313636       0.096256
                                                         0.488903       0.652848
                                                         0.155332      -0.000345
                          1       9    5fxy2            10.277042     -14.960077
                                                         3.564053       0.761664
                                                         1.313636       0.096256
                                                         0.488903       0.652848
                                                         0.155332      -0.000345
                          1       9    5fxyz            10.277042     -25.911613
                                                         3.564053       1.319241
                                                         1.313636       0.166721
                                                         0.488903       1.130766
                                                         0.155332      -0.000597
                          1       9    5fxz2            10.277042     -14.960077
                                                         3.564053       0.761664
                                                         1.313636       0.096256
                                                         0.488903       0.652848
                                                         0.155332      -0.000345
                          1       9    5fy3             10.277042      -6.690350
                                                         3.564053       0.340627
                                                         1.313636       0.043047
                                                         0.488903       0.291962
                                                         0.155332      -0.000154
                          1       9    5fy2z            10.277042     -14.960077
                                                         3.564053       0.761664
                                                         1.313636       0.096256
                                                         0.488903       0.652848
                                                         0.155332      -0.000345
                          1       9    5fyz2            10.277042     -14.960077
                                                         3.564053       0.761664
                                                         1.313636       0.096256
                                                         0.488903       0.652848
                                                         0.155332      -0.000345
                          1       9    5fz3             10.277042      -6.690350
                                                         3.564053       0.340627
                                                         1.313636       0.043047
                                                         0.488903       0.291962
                                                         0.155332      -0.000154

       Atomic covalent radius [Angstrom]:                                  0.730

       Atomic van der Waals radius [Angstrom]:                             1.520

     The atoms of this atomic kind are PAW atoms (GAPW):
       Hard Gaussian function radius:                                      1.400
       Rho0 radius:                                                        1.400
       Maximum GTO radius used for PAW projector construction:            24.566

     GAPW Soft Basis Set                            TZV2P-MOLOPT-PBE-GTH-q6_soft

       Number of orbital shell sets:                                           1
       Number of orbital shells:                                               9
       Number of primitive Cartesian functions:                                4
       Number of Cartesian basis functions:                                   34
       Number of spherical basis functions:                                   29
       Norm type:                                                              2

       Normalised Cartesian orbitals:

                        Set   Shell   Orbital            Exponent    Coefficient

                          1       1    2s                3.564053      -0.220015
                                                         1.313636       0.373321
                                                         0.488903       0.264765
                                                         0.155332       0.020043

                          1       2    3s                3.564053       0.080746
                                                         1.313636      -0.123482
                                                         0.488903      -0.035459
                                                         0.155332       0.195554

                          1       3    4s                3.564053      -0.604002
                                                         1.313636       0.878850
                                                         0.488903      -0.388670
                                                         0.155332       0.020403

                          1       4    3px               3.564053      -1.277699
                                                         1.313636      -0.654740
                                                         0.488903      -0.229926
                                                         0.155332      -0.043447
                          1       4    3py               3.564053      -1.277699
                                                         1.313636      -0.654740
                                                         0.488903      -0.229926
                                                         0.155332      -0.043447
                          1       4    3pz               3.564053      -1.277699
                                                         1.313636      -0.654740
                                                         0.488903      -0.229926
                                                         0.155332      -0.043447

                          1       5    4px               3.564053       1.678955
                                                         1.313636       0.821025
                                                         0.488903       0.173956
                                                         0.155332      -0.133459
                          1       5    4py               3.564053       1.678955
                                                         1.313636       0.821025
                                                         0.488903       0.173956
                                                         0.155332      -0.133459
                          1       5    4pz               3.564053       1.678955
                                                         1.313636       0.821025
                                                         0.488903       0.173956
                                                         0.155332      -0.133459

                          1       6    5px               3.564053       3.839534
                                                         1.313636       1.365137
                                                         0.488903      -0.557232
                                                         0.155332       0.019989
                          1       6    5py               3.564053       3.839534
                                                         1.313636       1.365137
                                                         0.488903      -0.557232
                                                         0.155332       0.019989
                          1       6    5pz               3.564053       3.839534
                                                         1.313636       1.365137
                                                         0.488903      -0.557232
                                                         0.155332       0.019989

                          1       7    4dx2              3.564053       2.384130
                                                         1.313636       0.763128
                                                         0.488903       0.368121
                                                         0.155332      -0.007951
                          1       7    4dxy              3.564053       4.129435
                                                         1.313636       1.321776
                                                         0.488903       0.637605
                                                         0.155332      -0.013772
                          1       7    4dxz              3.564053       4.129435
                                                         1.313636       1.321776
                                                         0.488903       0.637605
                                                         0.155332      -0.013772
                          1       7    4dy2              3.564053       2.384130
                                                         1.313636       0.763128
                                                         0.488903       0.368121
                                                         0.155332      -0.007951
                          1       7    4dyz              3.564053       4.129435
                                                         1.313636       1.321776
                                                         0.488903       0.637605
                                                         0.155332      -0.013772
                          1       7    4dz2              3.564053       2.384130
                                                         1.313636       0.763128
                                                         0.488903       0.368121
                                                         0.155332      -0.007951

                          1       8    5dx2              3.564053       0.370203
                                                         1.313636       0.144297
                                                         0.488903       0.056503
                                                         0.155332       0.057456
                          1       8    5dxy              3.564053       0.641211
                                                         1.313636       0.249929
                                                         0.488903       0.097865
                                                         0.155332       0.099516
                          1       8    5dxz              3.564053       0.641211
                                                         1.313636       0.249929
                                                         0.488903       0.097865
                                                         0.155332       0.099516
                          1       8    5dy2              3.564053       0.370203
                                                         1.313636       0.144297
                                                         0.488903       0.056503
                                                         0.155332       0.057456
                          1       8    5dyz              3.564053       0.641211
                                                         1.313636       0.249929
                                                         0.488903       0.097865
                                                         0.155332       0.099516
                          1       8    5dz2              3.564053       0.370203
                                                         1.313636       0.144297
                                                         0.488903       0.056503
                                                         0.155332       0.057456

                          1       9    5fx3              3.564053       0.340627
                                                         1.313636       0.043047
                                                         0.488903       0.291962
                                                         0.155332      -0.000154
                          1       9    5fx2y             3.564053       0.761664
                                                         1.313636       0.096256
                                                         0.488903       0.652848
                                                         0.155332      -0.000345
                          1       9    5fx2z             3.564053       0.761664
                                                         1.313636       0.096256
                                                         0.488903       0.652848
                                                         0.155332      -0.000345
                          1       9    5fxy2             3.564053       0.761664
                                                         1.313636       0.096256
                                                         0.488903       0.652848
                                                         0.155332      -0.000345
                          1       9    5fxyz             3.564053       1.319241
                                                         1.313636       0.166721
                                                         0.488903       1.130766
                                                         0.155332      -0.000597
                          1       9    5fxz2             3.564053       0.761664
                                                         1.313636       0.096256
                                                         0.488903       0.652848
                                                         0.155332      -0.000345
                          1       9    5fy3              3.564053       0.340627
                                                         1.313636       0.043047
                                                         0.488903       0.291962
                                                         0.155332      -0.000154
                          1       9    5fy2z             3.564053       0.761664
                                                         1.313636       0.096256
                                                         0.488903       0.652848
                                                         0.155332      -0.000345
                          1       9    5fyz2             3.564053       0.761664
                                                         1.313636       0.096256
                                                         0.488903       0.652848
                                                         0.155332      -0.000345
                          1       9    5fz3              3.564053       0.340627
                                                         1.313636       0.043047
                                                         0.488903       0.291962
                                                         0.155332      -0.000154

     GTH Potential information for                                    GTH-PBE-q6

       Description:                       Goedecker-Teter-Hutter pseudopotential
                                           Goedecker et al., PRB 54, 1703 (1996)
                                          Hartwigsen et al., PRB 58, 3641 (1998)
                                                      Krack, TCA 114, 145 (2005)

       Gaussian exponent of the core charge distribution:               8.366479
       Electronic configuration (s p d ...):                       2   4   0   0

       Parameters of the local part of the GTH pseudopotential:

                          rloc        C1          C2          C3          C4
                        0.244463  -16.675482    2.489086

       Parameters of the non-local part of the GTH pseudopotential:

                   l      r(l)      h(i,j,l)

                   0    0.220971   18.334469

  2. Atomic kind: H                                     Number of atoms:       2

     Orbital Basis Set                                   TZV2P-MOLOPT-PBE-GTH-q1

       Number of orbital shell sets:                                           1
       Number of orbital shells:                                               6
       Number of primitive Cartesian functions:                                5
       Number of Cartesian basis functions:                                   15
       Number of spherical basis functions:                                   14
       Norm type:                                                              2

       Normalised Cartesian orbitals:

                        Set   Shell   Orbital            Exponent    Coefficient

                          1       1    2s                9.586642       0.069481
                                                         2.202360       0.112147
                                                         0.604094       0.130550
                                                         0.146498       0.088477
                                                         0.139526       0.035929

                          1       2    3s                9.586642      -0.087313
                                                         2.202360      -0.117928
                                                         0.604094      -0.099372
                                                         0.146498      -0.105375
                                                         0.139526       0.287433

                          1       3    4s                9.586642       0.882480
                                                         2.202360       0.096105
                                                         0.604094      -0.739894
                                                         0.146498       0.120904
                                                         0.139526       0.013904

                          1       4    3px               9.586642      -2.186125
                                                         2.202360       1.112625
                                                         0.604094       0.330981
                                                         0.146498       0.087385
                                                         0.139526      -0.016905
                          1       4    3py               9.586642      -2.186125
                                                         2.202360       1.112625
                                                         0.604094       0.330981
                                                         0.146498       0.087385
                                                         0.139526      -0.016905
                          1       4    3pz               9.586642      -2.186125
                                                         2.202360       1.112625
                                                         0.604094       0.330981
                                                         0.146498       0.087385
                                                         0.139526      -0.016905

                          1       5    4px               9.586642       1.866908
                                                         2.202360       0.174551
                                                         0.604094       0.060190
                                                         0.146498       0.014182
                                                         0.139526       0.100545
                          1       5    4py               9.586642       1.866908
                                                         2.202360       0.174551
                                                         0.604094       0.060190
                                                         0.146498       0.014182
                                                         0.139526       0.100545
                          1       5    4pz               9.586642       1.866908
                                                         2.202360       0.174551
                                                         0.604094       0.060190
                                                         0.146498       0.014182
                                                         0.139526       0.100545

                          1       6    4dx2              9.586642       0.111501
                                                         2.202360      -0.020603
                                                         0.604094      -0.012612
                                                         0.146498      -0.000171
                                                         0.139526       0.052995
                          1       6    4dxy              9.586642       0.193125
                                                         2.202360      -0.035686
                                                         0.604094      -0.021844
                                                         0.146498      -0.000296
                                                         0.139526       0.091790
                          1       6    4dxz              9.586642       0.193125
                                                         2.202360      -0.035686
                                                         0.604094      -0.021844
                                                         0.146498      -0.000296
                                                         0.139526       0.091790
                          1       6    4dy2              9.586642       0.111501
                                                         2.202360      -0.020603
                                                         0.604094      -0.012612
                                                         0.146498      -0.000171
                                                         0.139526       0.052995
                          1       6    4dyz              9.586642       0.193125
                                                         2.202360      -0.035686
                                                         0.604094      -0.021844
                                                         0.146498      -0.000296
                                                         0.139526       0.091790
                          1       6    4dz2              9.586642       0.111501
                                                         2.202360      -0.020603
                                                         0.604094      -0.012612
                                                         0.146498      -0.000171
                                                         0.139526       0.052995

       Atomic covalent radius [Angstrom]:                                  0.320

       Atomic van der Waals radius [Angstrom]:                             1.090

     The atoms of this atomic kind are PAW atoms (GAPW):
       Hard Gaussian function radius:                                      1.000
       Rho0 radius:                                                        1.000
       Maximum GTO radius used for PAW projector construction:            24.566

     GAPW Soft Basis Set                            TZV2P-MOLOPT-PBE-GTH-q1_soft

       Number of orbital shell sets:                                           1
       Number of orbital shells:                                               6
       Number of primitive Cartesian functions:                                4
       Number of Cartesian basis functions:                                   15
       Number of spherical basis functions:                                   14
       Norm type:                                                              2

       Normalised Cartesian orbitals:

                        Set   Shell   Orbital            Exponent    Coefficient

                          1       1    2s                2.202360       0.112147
                                                         0.604094       0.130550
                                                         0.146498       0.088477
                                                         0.139526       0.035929

                          1       2    3s                2.202360      -0.117928
                                                         0.604094      -0.099372
                                                         0.146498      -0.105375
                                                         0.139526       0.287433

                          1       3    4s                2.202360       0.096105
                                                         0.604094      -0.739894
                                                         0.146498       0.120904
                                                         0.139526       0.013904

                          1       4    3px               2.202360       1.112625
                                                         0.604094       0.330981
                                                         0.146498       0.087385
                                                         0.139526      -0.016905
                          1       4    3py               2.202360       1.112625
                                                         0.604094       0.330981
                                                         0.146498       0.087385
                                                         0.139526      -0.016905
                          1       4    3pz               2.202360       1.112625
                                                         0.604094       0.330981
                                                         0.146498       0.087385
                                                         0.139526      -0.016905

                          1       5    4px               2.202360       0.174551
                                                         0.604094       0.060190
                                                         0.146498       0.014182
                                                         0.139526       0.100545
                          1       5    4py               2.202360       0.174551
                                                         0.604094       0.060190
                                                         0.146498       0.014182
                                                         0.139526       0.100545
                          1       5    4pz               2.202360       0.174551
                                                         0.604094       0.060190
                                                         0.146498       0.014182
                                                         0.139526       0.100545

                          1       6    4dx2              2.202360      -0.020603
                                                         0.604094      -0.012612
                                                         0.146498      -0.000171
                                                         0.139526       0.052995
                          1       6    4dxy              2.202360      -0.035686
                                                         0.604094      -0.021844
                                                         0.146498      -0.000296
                                                         0.139526       0.091790
                          1       6    4dxz              2.202360      -0.035686
                                                         0.604094      -0.021844
                                                         0.146498      -0.000296
                                                         0.139526       0.091790
                          1       6    4dy2              2.202360      -0.020603
                                                         0.604094      -0.012612
                                                         0.146498      -0.000171
                                                         0.139526       0.052995
                          1       6    4dyz              2.202360      -0.035686
                                                         0.604094      -0.021844
                                                         0.146498      -0.000296
                                                         0.139526       0.091790
                          1       6    4dz2              2.202360      -0.020603
                                                         0.604094      -0.012612
                                                         0.146498      -0.000171
                                                         0.139526       0.052995

     GTH Potential information for                                    GTH-PBE-q1

       Description:                       Goedecker-Teter-Hutter pseudopotential
                                           Goedecker et al., PRB 54, 1703 (1996)
                                          Hartwigsen et al., PRB 58, 3641 (1998)
                                                      Krack, TCA 114, 145 (2005)

       Gaussian exponent of the core charge distribution:              12.426182
       Electronic configuration (s p d ...):                       1   0   0   0

       Parameters of the local part of the GTH pseudopotential:

                          rloc        C1          C2          C3          C4
                        0.200593   -4.178068    0.724409


 MOLECULE KIND INFORMATION


 All atoms are their own molecule, skipping detailed information


 TOTAL NUMBERS AND MAXIMUM NUMBERS

  Total number of            - Atomic kinds:                                   2
                             - Atoms:                                          3
                             - Shell sets:                                     3
                             - Shells:                                        21
                             - Primitive Cartesian functions:                 15
                             - Cartesian basis functions:                     64
                             - Spherical basis functions:                     57

  Maximum angular momentum of- Orbital basis functions:                        3
                             - Local part of the GTH pseudopotential:          2
                             - Non-local part of the GTH pseudopotential:      0


 MODULE QUICKSTEP: ATOMIC COORDINATES IN ANGSTROM

   Atom Kind Element         X             Y             Z       Z(eff)     Mass
      1    1 O     8      4.000000      4.000000      4.000000   6.0000  15.9994
      2    2 H     1      4.759471      4.000000      4.590000   1.0000   1.0079
      3    2 H     1      3.760000      4.740000      4.590000   1.0000   1.0079



 SCF PARAMETERS         Density guess:                                   RESTART
                        --------------------------------------------------------
                        max_scf:                                             200
                        max_scf_history:                                       0
                        max_diis:                                              4
                        --------------------------------------------------------
                        eps_scf:                                        1.00E-09
                        eps_scf_history:                                0.00E+00
                        eps_diis:                                       0.00E+00
                        eps_eigval:                                     1.00E-05
                        --------------------------------------------------------
                        level_shift [a.u.]:                             0.000000
                        --------------------------------------------------------
                        Outer loop SCF in use 
                        No variables optimised in outer loop
                        eps_scf                                         1.00E-09
                        max_scf                                                2
                        No outer loop optimization
                        step_size                                       5.00E-01

 PW_GRID| Information for grid number                                          1
 PW_GRID| Cutoff [a.u.]                                                    200.0
 PW_GRID| spherical cutoff:                                                   NO
 PW_GRID|   Bounds   1            -50      49                Points:         100
 PW_GRID|   Bounds   2            -50      49                Points:         100
 PW_GRID|   Bounds   3            -50      49                Points:         100
 PW_GRID| Volume element (a.u.^3)  0.3455E-02     Volume (a.u.^3)      3455.1473
 PW_GRID| Grid span                                                    FULLSPACE

 PW_GRID| Information for grid number                                          2
 PW_GRID| Number of the reference grid                                         1
 PW_GRID| Cutoff [a.u.]                                                     66.7
 PW_GRID| spherical cutoff:                                                   NO
 PW_GRID|   Bounds   1            -30      29                Points:          60
 PW_GRID|   Bounds   2            -30      29                Points:          60
 PW_GRID|   Bounds   3            -30      29                Points:          60
 PW_GRID| Volume element (a.u.^3)  0.1600E-01     Volume (a.u.^3)      3455.1473
 PW_GRID| Grid span                                                    FULLSPACE

 PW_GRID| Information for grid number                                          3
 PW_GRID| Number of the reference grid                                         1
 PW_GRID| Cutoff [a.u.]                                                     22.2
 PW_GRID| spherical cutoff:                                                   NO
 PW_GRID|   Bounds   1            -18      17                Points:          36
 PW_GRID|   Bounds   2            -18      17                Points:          36
 PW_GRID|   Bounds   3            -18      17                Points:          36
 PW_GRID| Volume element (a.u.^3)  0.7406E-01     Volume (a.u.^3)      3455.1473
 PW_GRID| Grid span                                                    FULLSPACE

 PW_GRID| Information for grid number                                          4
 PW_GRID| Number of the reference grid                                         1
 PW_GRID| Cutoff [a.u.]                                                      7.4
 PW_GRID| spherical cutoff:                                                   NO
 PW_GRID|   Bounds   1            -10       9                Points:          20
 PW_GRID|   Bounds   2            -10       9                Points:          20
 PW_GRID|   Bounds   3            -10       9                Points:          20
 PW_GRID| Volume element (a.u.^3)  0.4319         Volume (a.u.^3)      3455.1473
 PW_GRID| Grid span                                                    FULLSPACE

 PW_GRID| Information for grid number                                          5
 PW_GRID| Number of the reference grid                                         1
 PW_GRID| Cutoff [a.u.]                                                      2.5
 PW_GRID| spherical cutoff:                                                   NO
 PW_GRID|   Bounds   1             -6       5                Points:          12
 PW_GRID|   Bounds   2             -6       5                Points:          12
 PW_GRID|   Bounds   3             -6       5                Points:          12
 PW_GRID| Volume element (a.u.^3)   2.000         Volume (a.u.^3)      3455.1473
 PW_GRID| Grid span                                                    FULLSPACE

 POISSON| Solver                                                        PERIODIC
 POISSON| Periodicity                                                        XYZ

 RS_GRID| Information for grid number                                          1
 RS_GRID|   Bounds   1            -50      49                Points:         100
 RS_GRID|   Bounds   2            -50      49                Points:         100
 RS_GRID|   Bounds   3            -50      49                Points:         100

 RS_GRID| Information for grid number                                          2
 RS_GRID|   Bounds   1            -30      29                Points:          60
 RS_GRID|   Bounds   2            -30      29                Points:          60
 RS_GRID|   Bounds   3            -30      29                Points:          60

 RS_GRID| Information for grid number                                          3
 RS_GRID|   Bounds   1            -18      17                Points:          36
 RS_GRID|   Bounds   2            -18      17                Points:          36
 RS_GRID|   Bounds   3            -18      17                Points:          36

 RS_GRID| Information for grid number                                          4
 RS_GRID|   Bounds   1            -10       9                Points:          20
 RS_GRID|   Bounds   2            -10       9                Points:          20
 RS_GRID|   Bounds   3            -10       9                Points:          20

 RS_GRID| Information for grid number                                          5
 RS_GRID|   Bounds   1             -6       5                Points:          12
 RS_GRID|   Bounds   2             -6       5                Points:          12
 RS_GRID|   Bounds   3             -6       5                Points:          12

 Extrapolation method: initial_guess

 Number of electrons:                                                          8
 Number of occupied orbitals:                                                  4
 Number of molecular orbitals:                                                 4

 Number of orbital functions:                                                 57
 Number of independent orbital functions:                                     57


 SCF WAVEFUNCTION OPTIMIZATION

  ----------------------------------- OT ---------------------------------------
  Minimizer      : DIIS                : direct inversion
                                         in the iterative subspace
                                         using   7 DIIS vectors
                                         safer DIIS on
  Preconditioner : FULL_ALL            : diagonalization, state selective
  Precond_solver : DEFAULT
  stepsize       :    0.05000000                  energy_gap     :    0.08000000
  eps_taylor     :   0.10000E-15                  max_taylor     :             4
  ----------------------------------- OT ---------------------------------------

  Step     Update method      Time    Convergence         Total energy    Change
  ------------------------------------------------------------------------------
 SKALA_GPW| Atom-composite cross support/maxima   1.926008776013E+00   1.002957597427E-01   9.805046835035E-01   6.152698611285E+00
 SKALA_GPW| Active atom-composite XC energy  -4.2413609506571905E+00
 SKALA_GPW| Active atom-composite electrons   7.9999983407328159E+00
 SKALA_GPW| Active atom-composite density range  -4.5535830357209399E-18   6.1166272949074296E-01
 SKALA_GPW| Active atom-composite tau range  -1.1685243706278889E-17   1.6341950335069246E+01
 SKALA_GPW| Active atom-composite tau integral   1.3576945702880289E+01
 SKALA_GPW| Active atom-composite max gradient   2.3342480858799148E+00
     1 OT DIIS     0.50E-01   30.2     0.00005070       -17.2170445808 -1.72E+01
 SKALA_GPW| Atom-composite cross support/maxima   1.926008776013E+00   1.002972536170E-01   9.805148444726E-01   6.152864679964E+00
 SKALA_GPW| Active atom-composite XC energy  -4.2413997028833945E+00
 SKALA_GPW| Active atom-composite electrons   7.9999983405527209E+00
 SKALA_GPW| Active atom-composite density range  -5.4267365829568024E-19   6.1166932935751106E-01
 SKALA_GPW| Active atom-composite tau range  -8.4950794027545543E-18   1.6342399435134446E+01
 SKALA_GPW| Active atom-composite tau integral   1.3577199358273603E+01
 SKALA_GPW| Active atom-composite max gradient   2.3342958286116069E+00
     2 OT DIIS     0.50E-01   31.3     0.00003771       -17.2170446079 -2.71E-08
 SKALA_GPW| Atom-composite cross support/maxima   1.926008776013E+00   1.002970416466E-01   9.805185130483E-01   6.153108432301E+00
 SKALA_GPW| Active atom-composite XC energy  -4.2414582785854869E+00
 SKALA_GPW| Active atom-composite electrons   7.9999983402636499E+00
 SKALA_GPW| Active atom-composite density range  -1.1807937924364630E-18   6.1167389326057064E-01
 SKALA_GPW| Active atom-composite tau range  -8.6646217278556535E-18   1.6343059184490027E+01
 SKALA_GPW| Active atom-composite tau integral   1.3577592016901196E+01
 SKALA_GPW| Active atom-composite max gradient   2.3343605680115922E+00
     3 OT DIIS     0.50E-01   31.8     0.00001486       -17.2170446390 -3.11E-08
 SKALA_GPW| Atom-composite cross support/maxima   1.926008776013E+00   1.002920362354E-01   9.804934816403E-01   6.153052636387E+00
 SKALA_GPW| Active atom-composite XC energy  -4.2414464087556425E+00
 SKALA_GPW| Active atom-composite electrons   7.9999983402874637E+00
 SKALA_GPW| Active atom-composite density range  -3.9132383652549531E-19   6.1166168007666899E-01
 SKALA_GPW| Active atom-composite tau range  -1.0018445066419121E-17   1.6342902593502181E+01
 SKALA_GPW| Active atom-composite tau integral   1.3577534601614428E+01
 SKALA_GPW| Active atom-composite max gradient   2.3343346707146790E+00
     4 OT DIIS     0.50E-01   30.8     0.00000280       -17.2170446435 -4.52E-09
 SKALA_GPW| Atom-composite cross support/maxima   1.926008776013E+00   1.002915030602E-01   9.804900381095E-01   6.153062786849E+00
 SKALA_GPW| Active atom-composite XC energy  -4.2414439589785822E+00
 SKALA_GPW| Active atom-composite electrons   7.9999983402945558E+00
 SKALA_GPW| Active atom-composite density range  -2.4894289952042597E-18   6.1165975360266445E-01
 SKALA_GPW| Active atom-composite tau range  -4.9419491223265488E-18   1.6342913104672409E+01
 SKALA_GPW| Active atom-composite tau integral   1.3577528729678251E+01
 SKALA_GPW| Active atom-composite max gradient   2.3343367253134564E+00
     5 OT DIIS     0.50E-01   30.1     0.00000041       -17.2170446456 -2.05E-09
 SKALA_GPW| Atom-composite cross support/maxima   1.926008776013E+00   1.002913240495E-01   9.804901401363E-01   6.153064742537E+00
 SKALA_GPW| Active atom-composite XC energy  -4.2414439622970415E+00
 SKALA_GPW| Active atom-composite electrons   7.9999983402925281E+00
 SKALA_GPW| Active atom-composite density range  -4.1980610479525246E-18   6.1165940779697003E-01
 SKALA_GPW| Active atom-composite tau range  -1.3053845918911152E-17   1.6342918069865110E+01
 SKALA_GPW| Active atom-composite tau integral   1.3577530271216087E+01
 SKALA_GPW| Active atom-composite max gradient   2.3343374343319399E+00
     6 OT DIIS     0.50E-01   29.1     0.00000005       -17.2170446451  4.42E-10
 SKALA_GPW| Atom-composite cross support/maxima   1.926008776013E+00   1.002913099216E-01   9.804901548853E-01   6.153064779730E+00
 SKALA_GPW| Active atom-composite XC energy  -4.2414439688439396E+00
 SKALA_GPW| Active atom-composite electrons   7.9999983402925130E+00
 SKALA_GPW| Active atom-composite density range  -4.7085103184866867E-18   6.1165937534669923E-01
 SKALA_GPW| Active atom-composite tau range  -8.4879209753521842E-18   1.6342918341834356E+01
 SKALA_GPW| Active atom-composite tau integral   1.3577530370504276E+01
 SKALA_GPW| Active atom-composite max gradient   2.3343374731972735E+00
     7 OT DIIS     0.50E-01   29.9     0.00000003       -17.2170446441  9.91E-10
 SKALA_GPW| Atom-composite cross support/maxima   1.926008776013E+00   1.002912897419E-01   9.804901407356E-01   6.153064481051E+00
 SKALA_GPW| Active atom-composite XC energy  -4.2414439718797015E+00
 SKALA_GPW| Active atom-composite electrons   7.9999983402925121E+00
 SKALA_GPW| Active atom-composite density range  -1.8720504485541523E-18   6.1165931893547565E-01
 SKALA_GPW| Active atom-composite tau range  -6.1025338183439866E-18   1.6342918053414728E+01
 SKALA_GPW| Active atom-composite tau integral   1.3577530318240457E+01
 SKALA_GPW| Active atom-composite max gradient   2.3343374239671486E+00
     8 OT DIIS     0.50E-01   30.0     7.6351E-09       -17.2170446455 -1.40E-09
 SKALA_GPW| Atom-composite cross support/maxima   1.926008776013E+00   1.002912869441E-01   9.804901403958E-01   6.153064438637E+00
 SKALA_GPW| Active atom-composite XC energy  -4.2414439713381586E+00
 SKALA_GPW| Active atom-composite electrons   7.9999983402924801E+00
 SKALA_GPW| Active atom-composite density range  -4.5938260105865609E-18   6.1165931094509196E-01
 SKALA_GPW| Active atom-composite tau range  -1.2841530352705535E-17   1.6342918008919138E+01
 SKALA_GPW| Active atom-composite tau integral   1.3577530302338301E+01
 SKALA_GPW| Active atom-composite max gradient   2.3343374166238404E+00
     9 OT DIIS     0.50E-01   29.5     3.2605E-09       -17.2170446463 -7.56E-10
 SKALA_GPW| Atom-composite cross support/maxima   1.926008776013E+00   1.002912849839E-01   9.804901391896E-01   6.153064404764E+00
 SKALA_GPW| Active atom-composite XC energy  -4.2414439685194907E+00
 SKALA_GPW| Active atom-composite electrons   7.9999983402925849E+00
 SKALA_GPW| Active atom-composite density range  -4.0590096862262064E-18   6.1165930535514468E-01
 SKALA_GPW| Active atom-composite tau range  -6.2060716909088331E-18   1.6342917963839742E+01
 SKALA_GPW| Active atom-composite tau integral   1.3577530283429596E+01
 SKALA_GPW| Active atom-composite max gradient   2.3343374095076310E+00
    10 OT DIIS     0.50E-01   30.1     8.5645E-10       -17.2170446458  5.17E-10

  *** SCF run converged in    10 steps ***


  Electronic density on regular grids:         -7.9999999992        0.0000000008
  Core density on regular grids:                8.0000000000       -0.0000000000
  Total charge density on r-space grids:        0.0000000008
  Total charge density g-space grids:           0.0000000008

  Overlap energy of the core charge distribution:               0.00000004751094
  Self energy of the core charge distribution:                -44.35427365113802
  Core Hamiltonian energy:                                     12.86429906331066
  Hartree energy:                                              18.51437386308211
  Exchange-correlation energy:                                  0.00000000000000

  GAPW_XC| Exc from hard and soft atomic rho1:                 -4.24144396851949

  Total energy:                                               -17.21704464575381

  outer SCF iter =    1 RMS gradient =   0.86E-09 energy =        -17.2170446458
  outer SCF loop converged in   1 iterations or   10 steps


 !-----------------------------------------------------------------------------!
                     Mulliken Population Analysis

 #  Atom  Element  Kind  Atomic population                           Net charge
       1     O        1          6.317559                             -0.317559
       2     H        2          0.845873                              0.154127
       3     H        2          0.836568                              0.163432
 # Total charge                              8.000000                  0.000000

 !-----------------------------------------------------------------------------!

 !-----------------------------------------------------------------------------!
                           Hirshfeld Charges

  #Atom  Element  Kind  Ref Charge     Population                    Net charge
      1       O      1       6.000          7.104                        -1.104
      2       H      2       1.000          0.448                         0.552
      3       H      2       1.000          0.445                         0.555

  Total Charge                                                            0.002
 !-----------------------------------------------------------------------------!
 SKALA_GPW| Composite-direction one-center VXC contraction     0.0000000000E+00
 SKALA_GPW| Composite-direction one-center rho contraction     0.0000000000E+00
 SKALA_GPW| Composite-direction one-center tau contraction     0.0000000000E+00
 SKALA_GPW| Native atom force 1   0.000000000000E+00   0.000000000000E+00   0.000000000000E+00
 SKALA_GPW| Native atom force 2   0.000000000000E+00   0.000000000000E+00   0.000000000000E+00
 SKALA_GPW| Native atom force 3   0.000000000000E+00   0.000000000000E+00   0.000000000000E+00
 SKALA_GPW| Atom-composite cross support/maxima   1.926008776013E+00   1.002912847520E-01   9.804901389300E-01   6.153064402203E+00
 SKALA_GPW| Atom-composite model-atom force 1   7.831804033765E-03   1.151254146661E-02   1.829201132911E-02
 SKALA_GPW| Atom-composite grid-coordinate force 1  -7.831804033765E-03  -1.151254146661E-02  -1.829201132911E-02
 SKALA_GPW| Atom-composite moving-smooth force 1  -4.225753400559E-01  -5.557833737558E-01  -9.113105916477E-01
 SKALA_GPW| Atom-composite cross-region force 1  -1.555870871291E-03  -1.885027786124E-03  -3.219803852477E-03
 SKALA_GPW| Atom-composite NLCC-center force 1   0.000000000000E+00   0.000000000000E+00   0.000000000000E+00
 SKALA_GPW| Atom-composite NLCC-target force 1   0.000000000000E+00   0.000000000000E+00   0.000000000000E+00
 SKALA_GPW| Atom-composite partition force 1   4.308427567387E-01   5.673651614515E-01   9.300304155036E-01
 SKALA_GPW| Atom-composite explicit force 1   6.711545811584E-03   9.696759909587E-03   1.550002000336E-02
 SKALA_GPW| Atom-composite model-atom force 2   4.739956257856E-04   2.690059281939E-04   6.069999781443E-04
 SKALA_GPW| Atom-composite grid-coordinate force 2  -4.739956257856E-04  -2.690059281939E-04  -6.069999781443E-04
 SKALA_GPW| Atom-composite moving-smooth force 2   7.488994597463E-01  -9.659732655147E-02   4.804443653975E-01
 SKALA_GPW| Atom-composite cross-region force 2   2.392276204254E-03  -1.513830087288E-04   1.738645295827E-03
 SKALA_GPW| Atom-composite NLCC-center force 2   0.000000000000E+00   0.000000000000E+00   0.000000000000E+00
 SKALA_GPW| Atom-composite NLCC-target force 2   0.000000000000E+00   0.000000000000E+00   0.000000000000E+00
 SKALA_GPW| Atom-composite partition force 2  -7.465005728693E-01   9.701475424510E-02  -4.780894997468E-01
 SKALA_GPW| Atom-composite explicit force 2   4.791163081215E-03   2.660446849045E-04   4.093510946562E-03
 SKALA_GPW| Atom-composite model-atom force 3   1.129081855042E-04   5.041213184384E-04   6.595808052329E-04
 SKALA_GPW| Atom-composite grid-coordinate force 3  -1.129081855042E-04  -5.041213184384E-04  -6.595808052329E-04
 SKALA_GPW| Atom-composite moving-smooth force 3  -3.161258348344E-01   6.668513488633E-01   4.541946110036E-01
 SKALA_GPW| Atom-composite cross-region force 3  -8.364053329636E-04   2.036410794853E-03   1.481158556650E-03
 SKALA_GPW| Atom-composite NLCC-center force 3   0.000000000000E+00   0.000000000000E+00   0.000000000000E+00
 SKALA_GPW| Atom-composite NLCC-target force 3   0.000000000000E+00   0.000000000000E+00   0.000000000000E+00
 SKALA_GPW| Atom-composite partition force 3   3.156578161306E-01  -6.643799156966E-01  -4.519409157568E-01
 SKALA_GPW| Atom-composite explicit force 3  -1.304424036759E-03   4.507843961586E-03   3.734853803539E-03
 SKALA_GPW| Atom-composite explicit virial
 SKALA_GPW|     1.2107217185E+00   -4.4024525576E-01    4.7862841956E-01
 SKALA_GPW|    -4.3941287782E-01    9.2622088534E-01    6.3047549881E-01
 SKALA_GPW|     4.7935594094E-01    6.2992171369E-01    1.0333376725E+00
 SKALA_GPW| Atom-composite cross-image virial
 SKALA_GPW|    -5.8564556161E-12    9.9713610035E-12   -2.3028658962E-12
 SKALA_GPW|     1.7139200353E-11   -1.2088097129E-11   -5.2848416728E-13
 SKALA_GPW|     9.2081387095E-13    8.7223990081E-12    2.2043502832E-12
 SKALA_GPW| Atom-composite feature virial
 SKALA_GPW|     1.3372507775E-01    1.8383258599E-02   -1.2645690860E-02
 SKALA_GPW|     1.8351671540E-02    1.4484604218E-01   -1.6488317140E-02
 SKALA_GPW|    -1.2644243702E-02   -1.6493261330E-02    1.4731513280E-01
 SKALA_GPW| Atom-composite interpolation virial
 SKALA_GPW|     2.9324758974E+00    4.4588941112E-01   -4.8085505941E-01
 SKALA_GPW|     4.4484967035E-01    3.2196751020E+00   -6.3409610490E-01
 SKALA_GPW|    -4.8191454304E-01   -6.3344807204E-01    3.1144727390E+00
 SKALA_GPW| Active atom-composite XC energy  -4.2414439681223328E+00
 SKALA_GPW| Active atom-composite electrons   7.9999983402925627E+00
 SKALA_GPW| Active atom-composite density range  -4.5949607233879339E-18   6.1165930464659635E-01
 SKALA_GPW| Active atom-composite tau range  -5.4282218089687192E-18   1.6342917963172614E+01
 SKALA_GPW| Active atom-composite tau integral   1.3577530282746745E+01
 SKALA_GPW| Active atom-composite max gradient   2.3343374090961220E+00

 ENERGY| Total FORCE_EVAL ( QS ) energy [hartree]            -17.217044645753806

 FORCES| Atomic forces [hartree/bohr]
 FORCES|   Atom     x               y               z               |f|
 FORCES|      1  5.38011259E-03  2.45049731E-02  3.00008735E-02   3.91087168E-02
 FORCES|      2  3.27941277E-02 -3.42094902E-02 -1.05097851E-02   4.85407006E-02
 FORCES|      3 -3.81152370E-02  9.76931783E-03 -1.94247537E-02   4.38808833E-02
 FORCES| Sum     5.90033463E-05  6.48007357E-05  6.63345943E-05
 FORCES| Total atomic force                                       1.09912732E-04

 STRESS| Analytical stress tensor [bar]
 STRESS|                        x                   y                   z
 STRESS|      x        5.47702985972E+03  -4.54076848312E+03  -5.08913229749E+02
 STRESS|      y       -4.54076848312E+03   1.13787457532E+03  -2.30138701560E+03
 STRESS|      z       -5.08913229749E+02  -2.30138701560E+03  -2.93026190594E+03
 STRESS| 1/3 Trace                                             1.22821417636E+03
 STRESS| Determinant                                           2.21643776896E+09

 STRESS| Eigenvectors and eigenvalues of the analytical stress tensor [bar]
 STRESS|                        1                   2                   3
 STRESS| Eigenvalues  -4.65717187934E+03  -5.66672966881E+01   8.39848170511E+03
 STRESS|      x           0.280066409214      0.473717207836      0.834957971056
 STRESS|      y           0.535784359599      0.644562903059     -0.545411573042
 STRESS|      z           0.796553781260     -0.600108882620      0.073289853059

 -------------------------------------------------------------------------------
 -                                                                             -
 -                                DBCSR STATISTICS                             -
 -                                                                             -
 -------------------------------------------------------------------------------
 COUNTER                                    TOTAL       BLAS       SMM       ACC
 flops     4 x     4 x     4                 1280     100.0%      0.0%      0.0%     
 flops    29 x    14 x     4                38976     100.0%      0.0%      0.0%     
 flops    14 x    29 x     4                38976     100.0%      0.0%      0.0%     
 flops    14 x     4 x     4                45696     100.0%      0.0%      0.0%     
 flops    29 x     4 x     4                47328     100.0%      0.0%      0.0%     
 flops    14 x    14 x     4                56448     100.0%      0.0%      0.0%     
 flops     4 x     4 x    57                74784     100.0%      0.0%      0.0%     
 flops    29 x    29 x     4                80736     100.0%      0.0%      0.0%     
 flops    14 x     4 x    14               175616     100.0%      0.0%      0.0%     
 flops    29 x     4 x    14               181888     100.0%      0.0%      0.0%     
 flops    14 x     4 x    29               181888     100.0%      0.0%      0.0%     
 flops    29 x     4 x    29               188384     100.0%      0.0%      0.0%     
 flops    14 x     4 x    57               280896     100.0%      0.0%      0.0%     
 flops    29 x     4 x    57               290928     100.0%      0.0%      0.0%     
 flops inhomo. stacks                           0       0.0%      0.0%      0.0%
 flops total                         1.683824E+06     100.0%      0.0%      0.0%
 flops max/rank                      1.683824E+06     100.0%      0.0%      0.0%
 matmuls inhomo. stacks                         0       0.0%      0.0%      0.0%
 matmuls total                                594     100.0%      0.0%      0.0%
 number of processed stacks                   498     100.0%      0.0%      0.0%
 average stack size                                     1.2       0.0       0.0
 marketing flops                     1.782416E+06
 -------------------------------------------------------------------------------
 # multiplications                            165
 max memory usage/rank               8.243102E+09
 # max total images/rank                        1
 # max 3D layers                                1
 # MPI messages exchanged                       0
 -------------------------------------------------------------------------------
 -                                                                             -
 -                      DBCSR MESSAGE PASSING PERFORMANCE                      -
 -                                                                             -
 -------------------------------------------------------------------------------
 ROUTINE             CALLS      AVE VOLUME [Bytes]
 MP_Bcast               15                     12.
 MP_Allreduce          815                      9.
 MP_Alltoall           741                   1023.
 MP_ISend              656                     70.
 MP_IRecv              656                     70.
 -------------------------------------------------------------------------------

 -------------------------------------------------------------------------------
 -                                                                             -
 -                                GRID STATISTICS                              -
 -                                                                             -
 -------------------------------------------------------------------------------
 LP    KERNEL             BACKEND                              COUNT     PERCENT
 4     collocate ortho    CPU                                   4587      20.19%
 4     integrate ortho    CPU                                   4170      18.35%
 6     collocate ortho    CPU                                   2992      13.17%
 6     integrate ortho    CPU                                   2720      11.97%
 5     collocate ortho    CPU                                   2332      10.26%
 5     integrate ortho    CPU                                   2120       9.33%
 7     integrate ortho    CPU                                   1387       6.11%
 7     collocate ortho    CPU                                   1067       4.70%
 8     integrate ortho    CPU                                    552       2.43%
 8     collocate ortho    CPU                                    374       1.65%
 9     integrate ortho    CPU                                    272       1.20%
 10    integrate ortho    CPU                                     97       0.43%
 11    integrate ortho    CPU                                     34       0.15%
 0     collocate general  CPU                                      9       0.04%
 0     integrate general  CPU                                      3       0.01%
 3     integrate general  CPU                                      3       0.01%
 -------------------------------------------------------------------------------

 -------------------------------------------------------------------------------
 -                                                                             -
 -                          OFFLOAD MEMPOOL STATISTICS                         -
 -                                                                             -
 -------------------------------------------------------------------------------
 Memory consumption                Number of allocations  Used [MiB]  Size [MiB]
 Host                                                  9          10    89867061
 -------------------------------------------------------------------------------

 MEMORY| Estimated peak process memory [MiB]                                1457

 -------------------------------------------------------------------------------
 ----                             MULTIGRID INFO                            ----
 -------------------------------------------------------------------------------
 count for grid        1:          18669          cutoff [a.u.]          200.00
 count for grid        2:           5850          cutoff [a.u.]           66.67
 count for grid        3:           4582          cutoff [a.u.]           22.22
 count for grid        4:            105          cutoff [a.u.]            7.41
 count for grid        5:              0          cutoff [a.u.]            2.47
 total gridlevel count  :          29206

 -------------------------------------------------------------------------------
 -                                                                             -
 -                         MESSAGE PASSING PERFORMANCE                         -
 -                                                                             -
 -------------------------------------------------------------------------------

 ROUTINE             CALLS      AVE VOLUME [Bytes]
 MP_Group               27
 MP_Bcast              128                  40183.
 MP_Allreduce         1011                 997373.
 MP_Sync                 9
 MP_comm_split           4
 -------------------------------------------------------------------------------


 -------------------------------------------------------------------------------
 -                                                                             -
 -                           R E F E R E N C E S                               -
 -                                                                             -
 -------------------------------------------------------------------------------
 
 CP2K version 2026.2 (Development Version), the CP2K developers group (2026).
 CP2K is freely available from https://www.cp2k.org/ .
 
 M. Iannuzzi, J. Wilhelm, F. Stein, A. Bussy, H. Elgabarty, D. Golze, A. Hehn, 
 M. Graml, S. Marek, B. Sertcan Gökmen, C. Schran, H. Forbert, R. Z. 
 Khaliullin, A. Kozhevnikov, M. Taillefumier, R. Meli, V. V. Rybkin, M. Brehm, 
 R. Schade, O. Schütt, J. V. Pototschnig, H. Mirhosseini, A. Knüpfer, D. Marx, 
 M. Krack, J. Hutter, T. D. Kühne.
 J. Phys. Chem. B 130, 1237-1310 (2026).
 The CP2K Program Package Made Simple.
 https://doi.org/10.1021/acs.jpcb.5c05851

 T. D. Kühne, M. Iannuzzi, M. Del Ben, V. V. Rybkin, P. Seewald, F. Stein, T. 
 Laino, R. Z. Khaliullin, O. Schütt, F. Schiffmann, D. Golze, J. Wilhelm, S. 
 Chulkov, M. H. Bani-Hashemian, V. Weber, U. Borstnik, M. Taillefumier, A. S. 
 Jakobovits, A. Lazzaro, H. Pabst, T. Müller, R. Schade, M. Guidon, S. 
 Andermatt, N. Holmberg, G. K. Schenter, A. Hehn, A. Bussy, F. Belleflamme, G. 
 Tabacchi, A. Glöß, M. Lass, I. Bethune, C. J. Mundy, C. Plessl, M. Watkins, 
 J. VandeVondele, M. Krack, J. Hutter.
 J. Chem. Phys. 152, 194103 (2020).
 CP2K: An electronic structure and molecular dynamics software package - 
 Quickstep: Efficient and accurate electronic structure calculations.
 https://doi.org/10.1063/5.0007045

 O. Schuett, P. Messmer, J. Hutter, J. VandeVondele.
 Electronic Structure Calculations on Graphics Processing Units, 173-190 (2016).
 GPU-Accelerated Sparse Matrix-Matrix Multiplication for Linear Scaling Density 
 Functional Theory.
 https://doi.org/10.1002/9781118670712.ch8

 U. Borstnik, J. VandeVondele, V. Weber, J. Hutter.
 Parallel Comput. 40, 47-58 (2014).
 Sparse matrix multiplication: The distributed block-compressed sparse row 
 library.
 https://doi.org/10.1016/j.parco.2014.03.012

 J. VandeVondele, J. Hutter.
 J. Chem. Phys. 127, 114105 (2007).
 Gaussian basis sets for accurate calculations on molecular systems in gas and 
 condensed phases.
 https://doi.org/10.1063/1.2770708

 M. Krack.
 Theor. Chem. Acc. 114, 145-152 (2005).
 Pseudopotentials for H to Kr optimized for gradient-corrected 
 exchange-correlation functionals.
 https://doi.org/10.1007/s00214-005-0655-y

 M. Frigo, S. G. Johnson.
 Proc. IEEE 93, 216-231 (2005).
 The design and implementation of FFTW3.
 https://doi.org/10.1109/JPROC.2004.840301

 J. VandeVondele, J. Hutter.
 J. Chem. Phys. 118, 4365-4369 (2003).
 An efficient orbital transformation method for electronic structure 
 calculations.
 https://doi.org/10.1063/1.1543154

 C. Hartwigsen, S. Goedecker, J. Hutter.
 Phys. Rev. B 58, 3641-3662 (1998).
 Relativistic separable dual-space Gaussian pseudopotentials from H to Rn.
 https://doi.org/10.1103/PhysRevB.58.3641

 S. Goedecker, M. Teter, J. Hutter.
 Phys. Rev. B 54, 1703-1710 (1996).
 Separable dual-space Gaussian pseudopotentials.
 https://doi.org/10.1103/PhysRevB.54.1703


 -------------------------------------------------------------------------------
 -                                                                             -
 -                                T I M I N G                                  -
 -                                                                             -
 -------------------------------------------------------------------------------
 SUBROUTINE                       CALLS  ASD         SELF TIME        TOTAL TIME
                                MAXIMUM       AVERAGE  MAXIMUM  AVERAGE  MAXIMUM
 CP2K                                 1  1.0    0.005    0.005  354.913  354.913
 qs_forces                            1  2.0    0.000    0.000  354.667  354.667
 rebuild_ks_matrix                   11  6.7    0.000    0.000  352.946  352.946
 qs_ks_build_kohn_sham_matrix        11  7.7    0.003    0.003  352.946  352.946
 calculate_vxc_atom                  11  8.7  230.407  230.407  350.714  350.714
 qs_energies                          1  3.0    0.000    0.000  303.193  303.193
 scf_env_do_scf                       1  4.0    0.000    0.000  303.000  303.000
 qs_ks_update_qs_env                 11  6.0    0.000    0.000  301.484  301.484
 scf_env_do_scf_inner_loop           10  5.0    0.001    0.001  272.774  272.774
 qs_ks_update_qs_env_forces           1  3.0    0.000    0.000   51.463   51.463
 skala_atom_torch_backward           11  9.7   46.193   46.193   46.193   46.193
 init_scf_loop                        1  5.0    0.000    0.000   30.225   30.225
 skala_atom_torch_forward            11  9.7    0.003    0.003   27.332   27.332
 torch_model_forward_mol_tensor      11 10.7   27.329   27.329   27.329   27.329
 calc_tau_atom                      102  9.6   19.308   19.308   19.308   19.308
 gaVxcgb_GC                          66  9.7   13.303   13.303   13.303   13.303
 dgaVtaudgb                          66  9.7   11.397   11.397   11.397   11.397
 -------------------------------------------------------------------------------

 The number of warnings for this run is : 0
 
 -------------------------------------------------------------------------------
  **** **** ******  **  PROGRAM ENDED AT                 2026-09-09 12:27:12.475
 ***** ** ***  *** **   PROGRAM RAN ON                                     terok
 **    ****   ******    PROGRAM RAN BY                                  kuehne88
 ***** **    ** ** **   PROGRAM PROCESS ID                               4093840
  **** **  *******  **  PROGRAM STOPPED IN /home/kuehne88/work/native-skala-tero
                                           k/pccp-validation-20260909/derivative
                                           -checks/gapwxc-gth/force-minus-0.001
