 DBCSR| CPU Multiplication driver                                           XSMM (U)
 DBCSR| Multrec recursion limit                                              512 (U)
 DBCSR| Multiplication stack size                                           1000 (D)
 DBCSR| Maximum elements for images                                    UNLIMITED (U)
 DBCSR| Multiplicative factor virtual images                                   1 (U)
 DBCSR| Use multiplication densification                                       T (D)
 DBCSR| Multiplication size stacks                                             3 (U)
 DBCSR| Use memory pool for CPU allocation                                     F (U)
 DBCSR| Number of 3D layers                                               SINGLE (U)
 DBCSR| Use MPI memory allocation                                              F (U)
 DBCSR| Use RMA algorithm                                                      F (U)
 DBCSR| Use Communication thread                                               T (U)
 DBCSR| Communication thread load                                             15 (D)
 DBCSR| MPI: My process id                                                     0
 DBCSR| MPI: Number of processes                                               1
 DBCSR| OMP: Current number of threads                                        20
 DBCSR| OMP: Max number of threads                                            20
 DBCSR| Split modifier for TAS multiplication algorithm                  1.0E+00 (U)


  **** **** ******  **  PROGRAM STARTED AT               2026-09-01 11:55:24.521
 ***** ** ***  *** **   PROGRAM STARTED ON                            spark-c86c
 **    ****   ******    PROGRAM STARTED BY                              kuehne88
 ***** **    ** ** **   PROGRAM PROCESS ID                               2654802
  **** **  *******  **  PROGRAM STARTED IN /home/kuehne88/work/native-skala-spar
                                           k/goldzak12/runs/production/hybrid-on
                                           e-center/MgS/v10

 CP2K| version string:                 CP2K version 2026.2 (Development Version)
 CP2K| source code revision number:                                   c1bff3eeb8
 CP2K| cp2kflags: omp fftw3 parallel scalapack spglib openblas libtorch libtorch
 CP2K|            _cuda
 CP2K| is freely available from                            https://www.cp2k.org/
 CP2K| Program compiled at                                   2026-08-23 22:42:03
 CP2K| Program compiled on                                            spark-c86c
 CP2K| Program compiled for                                              aarch64
 CP2K| Data directory path      /home/kuehne88/work/native-skala-spark/cp2k/data
 CP2K| Input file name                                          actual-input.inp

 GLOBAL| Force Environment number                                              1
 GLOBAL| Basis set file name                             BASIS_MOLOPT_UZH_2026.2
 GLOBAL| Potential file name                                POTENTIAL_UZH_2026.2
 GLOBAL| MM Potential file name                                     MM_POTENTIAL
 GLOBAL| Coordinate file name                                      __STD_INPUT__
 GLOBAL| Method name                                                        CP2K
 GLOBAL| Project name                   G12_MgS_hybrid-one-center_v1p1000000000_
 GLOBAL| Run type                                                         ENERGY
 GLOBAL| FFT library                                                       FFTW3
 GLOBAL| Diagonalization library                                       ScaLAPACK
 GLOBAL| Cholesky decomposition library                                ScaLAPACK
 GLOBAL| DGEMM library                                                      BLAS
 GLOBAL| Direct generalized diagonalization requested                          F
 GLOBAL| Orthonormality check for eigenvectors                          DISABLED
 GLOBAL| Matrix multiplication library                                 ScaLAPACK
 GLOBAL| All-to-all communication in single precision                          F
 GLOBAL| FFTs using library dependent lengths                                  F
 GLOBAL| Grid backend                                                       AUTO
 GLOBAL| Global print level                                               MEDIUM
 GLOBAL| MPI I/O enabled                                                       T
 GLOBAL| Total number of message passing processes                             1
 GLOBAL| Number of distributed systems (nodes)                                 1
 GLOBAL| Number of threads for this process                                   20
 GLOBAL| This output is from process                                           0
 GLOBAL| OpenMP stack size per thread (OMP_STACKSIZE)                       512M
 GLOBAL| CPU model name                                                  UNKNOWN
 GLOBAL| CPUID                                                              2000

 MEMORY| system memory details [Kb]
 MEMORY|                        rank 0           min           max       average
 MEMORY| MemTotal            125507828     125507828     125507828     125507828
 MEMORY| MemFree              94656420      94656420      94656420      94656420
 MEMORY| Buffers               3826708       3826708       3826708       3826708
 MEMORY| Cached               18461456      18461456      18461456      18461456
 MEMORY| Slab                  6251400       6251400       6251400       6251400
 MEMORY| SReclaimable          5273872       5273872       5273872       5273872
 MEMORY| MemLikelyFree       122218456     122218456     122218456     122218456


 *** Fundamental physical constants (SI units) ***

 *** Literature: B. J. Mohr and B. N. Taylor,
 ***             CODATA recommended values of the fundamental physical
 ***             constants: 2006, Web Version 5.1
 ***             http://physics.nist.gov/constants

 Speed of light in vacuum [m/s]                             2.99792458000000E+08
 Magnetic constant or permeability of vacuum [N/A**2]       1.25663706143592E-06
 Electric constant or permittivity of vacuum [F/m]          8.85418781762039E-12
 Planck constant (h) [J*s]                                  6.62606896000000E-34
 Planck constant (h-bar) [J*s]                              1.05457162825177E-34
 Elementary charge [C]                                      1.60217648700000E-19
 Electron mass [kg]                                         9.10938215000000E-31
 Electron g factor [ ]                                     -2.00231930436220E+00
 Proton mass [kg]                                           1.67262163700000E-27
 Fine-structure constant                                    7.29735253760000E-03
 Rydberg constant [1/m]                                     1.09737315685270E+07
 Avogadro constant [1/mol]                                  6.02214179000000E+23
 Boltzmann constant [J/K]                                   1.38065040000000E-23
 Atomic mass unit [kg]                                      1.66053878200000E-27
 Bohr radius [m]                                            5.29177208590000E-11

 *** Conversion factors ***

 [u] -> [a.u.]                                              1.82288848426455E+03
 [Angstrom] -> [Bohr] = [a.u.]                              1.88972613288564E+00
 [a.u.] = [Bohr] -> [Angstrom]                              5.29177208590000E-01
 [a.u.] -> [s]                                              2.41888432650478E-17
 [a.u.] -> [fs]                                             2.41888432650478E-02
 [a.u.] -> [J]                                              4.35974393937059E-18
 [a.u.] -> [N]                                              8.23872205491840E-08
 [a.u.] -> [K]                                              3.15774647902944E+05
 [a.u.] -> [kJ/mol]                                         2.62549961709828E+03
 [a.u.] -> [kcal/mol]                                       6.27509468713739E+02
 [a.u.] -> [Pa]                                             2.94210107994716E+13
 [a.u.] -> [bar]                                            2.94210107994716E+08
 [a.u.] -> [atm]                                            2.90362800883016E+08
 [a.u.] -> [eV]                                             2.72113838565563E+01
 [a.u.] -> [Hz]                                             6.57968392072181E+15
 [a.u.] -> [1/cm] (wave numbers)                            2.19474631370540E+05
 [a.u./Bohr**2] -> [1/cm]                                   5.14048714338585E+03
 

 CELL| Volume [angstrom^3]:                                           153.600485
 CELL| Vector a [angstrom]:       5.355     0.000     0.000   |a| =     5.355469
 CELL| Vector b [angstrom]:       0.000     5.355     0.000   |b| =     5.355469
 CELL| Vector c [angstrom]:       0.000     0.000     5.355   |c| =     5.355469
 CELL| Angle (b,c), alpha [degree]:                                    90.000000
 CELL| Angle (a,c), beta  [degree]:                                    90.000000
 CELL| Angle (a,b), gamma [degree]:                                    90.000000
 CELL| Numerically orthorhombic:                                             YES
 CELL| Periodicity                                                           XYZ

 CELL_REF| Volume [angstrom^3]:                                       153.600485
 CELL_REF| Vector a [angstrom     5.355     0.000     0.000   |a| =     5.355469
 CELL_REF| Vector b [angstrom     0.000     5.355     0.000   |b| =     5.355469
 CELL_REF| Vector c [angstrom     0.000     0.000     5.355   |c| =     5.355469
 CELL_REF| Angle (b,c), alpha [degree]:                                90.000000
 CELL_REF| Angle (a,c), beta  [degree]:                                90.000000
 CELL_REF| Angle (a,b), gamma [degree]:                                90.000000
 CELL_REF| Numerically orthorhombic:                                         YES
 CELL_REF| Periodicity                                                       XYZ

 GENERATE|  Preliminary Number of Bonds generated:                             0
 GENERATE|  Achieved consistency in connectivity generation.

 *******************************************************************************
 *******************************************************************************
 **                                                                           **
 **     #####                         ##              ##                      **
 **    ##   ##            ##          ##              ##                      **
 **   ##     ##                       ##            ######                    **
 **   ##     ##  ##   ##  ##   #####  ##  ##   ####   ##    #####    #####    **
 **   ##     ##  ##   ##  ##  ##      ## ##   ##      ##   ##   ##  ##   ##   **
 **   ##  ## ##  ##   ##  ##  ##      ####     ###    ##   ######   ######    **
 **    ##  ###   ##   ##  ##  ##      ## ##      ##   ##   ##       ##        **
 **     #######   #####   ##   #####  ##  ##  ####    ##    #####   ##        **
 **           ##                                                    ##        **
 **                                                                           **
 **                                                ... make the atoms dance   **
 **                                                                           **
 **            Copyright (C) by CP2K developers group (2000-2026)             **
 **                      J. Chem. Phys. 152, 194103 (2020)                    **
 **                                                                           **
 *******************************************************************************

 DFT| Spin restricted Kohn-Sham (RKS) calculation                            RKS
 DFT| Multiplicity                                                             1
 DFT| Number of spin states                                                    1
 DFT| Charge                                                                   0
 DFT| Self-interaction correction (SIC)                                       NO
 DFT| Cutoffs: density                                              1.000000E-10
 DFT|          gradient                                             1.000000E-10
 DFT|          tau                                                  1.000000E-10
 DFT|          cutoff_smoothing_range                               0.000000E+00
 DFT| XC density smoothing                                                  NONE
 DFT| XC derivatives                                                          PW

 FUNCTIONAL| GAUXC:
 FUNCTIONAL| Functional computed by GauXC Skala model SKALA                     

 vdW POTENTIAL|                                                   Pair Potential
 vdW POTENTIAL|          DFT-D3 (Version 3.1)
 vdW POTENTIAL|          Potential Form: S. Grimme et al, JCP 132: 154104 (2010)
 vdW POTENTIAL|          BJ Damping: S. Grimme et al, JCC 32: 1456 (2011)
 vdW POTENTIAL|          Cutoff Radius [Bohr]:                             37.79
 vdW POTENTIAL|          s6 Scaling Factor:                               1.0000
 vdW POTENTIAL|          a1 Damping Factor:                               0.3981
 vdW POTENTIAL|          s8 Scaling Factor:                               1.9889
 vdW POTENTIAL|          a2 Damping Factor:                               4.4211
 vdW POTENTIAL|          Cutoff for CN calculation:                   0.1000E-05

 QS| Method:                                                                GAPW
 QS| Density plane wave grid type                        NON-SPHERICAL FULLSPACE
 QS| Number of grid levels:                                                    5
 QS| Density cutoff [a.u.]:                                                400.0
 QS| Multi grid cutoff [a.u.]: 1) grid level                               400.0
 QS|                           2) grid level                               133.3
 QS|                           3) grid level                                44.4
 QS|                           4) grid level                                14.8
 QS|                           5) grid level                                 4.9
 QS| Grid level progression factor:                                          3.0
 QS| Relative density cutoff [a.u.]:                                        30.0
 QS| Interaction thresholds: eps_pgf_orb:                                1.0E-06
 QS|                         eps_filter_matrix:                          0.0E+00
 QS|                         eps_core_charge:                            1.0E-14
 QS|                         eps_rho_gspace:                             1.0E-12
 QS|                         eps_rho_rspace:                             1.0E-12
 QS|                         eps_gvg_rspace:                             1.0E-06
 QS|                         eps_ppl:                                    1.0E-02
 QS|                         eps_ppnl:                                   1.0E-08
 QS| GAPW|      XC integration using accurate scheme: Ref. exponent     6.000000
 QS| GAPW|      One center basis extended with primitives (small:s)
 QS| GAPW|                   eps_fit:                                    1.0E-04
 QS| GAPW|                   eps_iso:                                    1.0E-12
 QS| GAPW|                   eps_svd:                                    1.0E-08
 QS| GAPW|                   eps_cpc:                                    1.0E-12
 QS| GAPW|   atom-r-grid: quadrature:                                     GC_LOG
 QS| GAPW|      atom-s-grid:  max l :                                          6
 QS| GAPW|      max_l_rho0 :                                                   4


 ATOMIC KIND INFORMATION

  1. Atomic kind: Mg                                    Number of atoms:       4

     Orbital Basis Set                                  TZV2P-MOLOPT-PBE-GTH-q10

       Number of orbital shell sets:                                           1
       Number of orbital shells:                                               8
       Number of primitive Cartesian functions:                                7
       Number of Cartesian basis functions:                                   19
       Number of spherical basis functions:                                   18
       Norm type:                                                              2

       Normalised Cartesian orbitals:

                        Set   Shell   Orbital            Exponent    Coefficient

                          1       1    2s               30.665113       0.451447
                                                        12.275859       0.726075
                                                         4.272010      -0.526256
                                                         1.495769      -0.610303
                                                         0.537465      -0.133706
                                                         0.150468       0.056297
                                                         0.053463       0.038886

                          1       2    3s               30.665113       0.334492
                                                        12.275859       0.526478
                                                         4.272010      -0.362593
                                                         1.495769      -0.325293
                                                         0.537465      -0.035503
                                                         0.150468      -0.067140
                                                         0.053463      -0.027721

                          1       3    4s               30.665113      -0.099998
                                                        12.275859      -0.274466
                                                         4.272010       0.175263
                                                         1.495769      -0.432909
                                                         0.537465       0.026355
                                                         0.150468       0.323066
                                                         0.053463      -0.137249

                          1       4    5s               30.665113      -0.186629
                                                        12.275859      -0.607745
                                                         4.272010       0.356895
                                                         1.495769      -0.575877
                                                         0.537465       0.591349
                                                         0.150468      -0.004891
                                                         0.053463       0.014396

                          1       5    3px              30.665113       3.733874
                                                        12.275859       5.044435
                                                         4.272010       3.057335
                                                         1.495769       0.909074
                                                         0.537465       0.129687
                                                         0.150468       0.022899
                                                         0.053463       0.004096
                          1       5    3py              30.665113       3.733874
                                                        12.275859       5.044435
                                                         4.272010       3.057335
                                                         1.495769       0.909074
                                                         0.537465       0.129687
                                                         0.150468       0.022899
                                                         0.053463       0.004096
                          1       5    3pz              30.665113       3.733874
                                                        12.275859       5.044435
                                                         4.272010       3.057335
                                                         1.495769       0.909074
                                                         0.537465       0.129687
                                                         0.150468       0.022899
                                                         0.053463       0.004096

                          1       6    4px              30.665113       1.755132
                                                        12.275859       2.473459
                                                         4.272010       1.516219
                                                         1.495769       0.501872
                                                         0.537465      -0.010970
                                                         0.150468      -0.080635
                                                         0.053463      -0.015741
                          1       6    4py              30.665113       1.755132
                                                        12.275859       2.473459
                                                         4.272010       1.516219
                                                         1.495769       0.501872
                                                         0.537465      -0.010970
                                                         0.150468      -0.080635
                                                         0.053463      -0.015741
                          1       6    4pz              30.665113       1.755132
                                                        12.275859       2.473459
                                                         4.272010       1.516219
                                                         1.495769       0.501872
                                                         0.537465      -0.010970
                                                         0.150468      -0.080635
                                                         0.053463      -0.015741

                          1       7    5px              30.665113      -0.708806
                                                        12.275859      -1.489042
                                                         4.272010      -0.885332
                                                         1.495769      -0.583098
                                                         0.537465       0.505452
                                                         0.150468       0.075488
                                                         0.053463      -0.036487
                          1       7    5py              30.665113      -0.708806
                                                        12.275859      -1.489042
                                                         4.272010      -0.885332
                                                         1.495769      -0.583098
                                                         0.537465       0.505452
                                                         0.150468       0.075488
                                                         0.053463      -0.036487
                          1       7    5pz              30.665113      -0.708806
                                                        12.275859      -1.489042
                                                         4.272010      -0.885332
                                                         1.495769      -0.583098
                                                         0.537465       0.505452
                                                         0.150468       0.075488
                                                         0.053463      -0.036487

                          1       8    4dx2             30.665113      14.879881
                                                        12.275859      -1.842904
                                                         4.272010       0.638933
                                                         1.495769       0.185250
                                                         0.537465       0.191459
                                                         0.150468       0.039970
                                                         0.053463       0.001356
                          1       8    4dxy             30.665113      25.772709
                                                        12.275859      -3.192003
                                                         4.272010       1.106664
                                                         1.495769       0.320863
                                                         0.537465       0.331617
                                                         0.150468       0.069229
                                                         0.053463       0.002348
                          1       8    4dxz             30.665113      25.772709
                                                        12.275859      -3.192003
                                                         4.272010       1.106664
                                                         1.495769       0.320863
                                                         0.537465       0.331617
                                                         0.150468       0.069229
                                                         0.053463       0.002348
                          1       8    4dy2             30.665113      14.879881
                                                        12.275859      -1.842904
                                                         4.272010       0.638933
                                                         1.495769       0.185250
                                                         0.537465       0.191459
                                                         0.150468       0.039970
                                                         0.053463       0.001356
                          1       8    4dyz             30.665113      25.772709
                                                        12.275859      -3.192003
                                                         4.272010       1.106664
                                                         1.495769       0.320863
                                                         0.537465       0.331617
                                                         0.150468       0.069229
                                                         0.053463       0.002348
                          1       8    4dz2             30.665113      14.879881
                                                        12.275859      -1.842904
                                                         4.272010       0.638933
                                                         1.495769       0.185250
                                                         0.537465       0.191459
                                                         0.150468       0.039970
                                                         0.053463       0.001356

       Atomic covalent radius [Angstrom]:                                  1.360

       Atomic van der Waals radius [Angstrom]:                             1.730

     The atoms of this atomic kind are PAW atoms (GAPW):
       Hard Gaussian function radius:                                      1.900
       Rho0 radius:                                                        1.900
       Maximum GTO radius used for PAW projector construction:            24.566

     GAPW Soft Basis Set                           TZV2P-MOLOPT-PBE-GTH-q10_soft

       Number of orbital shell sets:                                           1
       Number of orbital shells:                                               8
       Number of primitive Cartesian functions:                                4
       Number of Cartesian basis functions:                                   19
       Number of spherical basis functions:                                   18
       Norm type:                                                              2

       Normalised Cartesian orbitals:

                        Set   Shell   Orbital            Exponent    Coefficient

                          1       1    2s                1.495769      -0.610303
                                                         0.537465      -0.133706
                                                         0.150468       0.056297
                                                         0.053463       0.038886

                          1       2    3s                1.495769      -0.325293
                                                         0.537465      -0.035503
                                                         0.150468      -0.067140
                                                         0.053463      -0.027721

                          1       3    4s                1.495769      -0.432909
                                                         0.537465       0.026355
                                                         0.150468       0.323066
                                                         0.053463      -0.137249

                          1       4    5s                1.495769      -0.575877
                                                         0.537465       0.591349
                                                         0.150468      -0.004891
                                                         0.053463       0.014396

                          1       5    3px               1.495769       0.909074
                                                         0.537465       0.129687
                                                         0.150468       0.022899
                                                         0.053463       0.004096
                          1       5    3py               1.495769       0.909074
                                                         0.537465       0.129687
                                                         0.150468       0.022899
                                                         0.053463       0.004096
                          1       5    3pz               1.495769       0.909074
                                                         0.537465       0.129687
                                                         0.150468       0.022899
                                                         0.053463       0.004096

                          1       6    4px               1.495769       0.501872
                                                         0.537465      -0.010970
                                                         0.150468      -0.080635
                                                         0.053463      -0.015741
                          1       6    4py               1.495769       0.501872
                                                         0.537465      -0.010970
                                                         0.150468      -0.080635
                                                         0.053463      -0.015741
                          1       6    4pz               1.495769       0.501872
                                                         0.537465      -0.010970
                                                         0.150468      -0.080635
                                                         0.053463      -0.015741

                          1       7    5px               1.495769      -0.583098
                                                         0.537465       0.505452
                                                         0.150468       0.075488
                                                         0.053463      -0.036487
                          1       7    5py               1.495769      -0.583098
                                                         0.537465       0.505452
                                                         0.150468       0.075488
                                                         0.053463      -0.036487
                          1       7    5pz               1.495769      -0.583098
                                                         0.537465       0.505452
                                                         0.150468       0.075488
                                                         0.053463      -0.036487

                          1       8    4dx2              1.495769       0.185250
                                                         0.537465       0.191459
                                                         0.150468       0.039970
                                                         0.053463       0.001356
                          1       8    4dxy              1.495769       0.320863
                                                         0.537465       0.331617
                                                         0.150468       0.069229
                                                         0.053463       0.002348
                          1       8    4dxz              1.495769       0.320863
                                                         0.537465       0.331617
                                                         0.150468       0.069229
                                                         0.053463       0.002348
                          1       8    4dy2              1.495769       0.185250
                                                         0.537465       0.191459
                                                         0.150468       0.039970
                                                         0.053463       0.001356
                          1       8    4dyz              1.495769       0.320863
                                                         0.537465       0.331617
                                                         0.150468       0.069229
                                                         0.053463       0.002348
                          1       8    4dz2              1.495769       0.185250
                                                         0.537465       0.191459
                                                         0.150468       0.039970
                                                         0.053463       0.001356

     GTH Potential information for                                   GTH-PBE-q10

       Description:                       Goedecker-Teter-Hutter pseudopotential
                                           Goedecker et al., PRB 54, 1703 (1996)
                                          Hartwigsen et al., PRB 58, 3641 (1998)
                                                      Krack, TCA 114, 145 (2005)

       Gaussian exponent of the core charge distribution:              13.466850
       Electronic configuration (s p d ...):                       4   6   0   0

       Parameters of the local part of the GTH pseudopotential:

                          rloc        C1          C2          C3          C4
                        0.192687  -20.567356    3.014683

       Parameters of the non-local part of the GTH pseudopotential:

                   l      r(l)      h(i,j,l)

                   0    0.141434   41.044219
                   1    0.102998   -9.980682

  2. Atomic kind: S                                     Number of atoms:       4

     Orbital Basis Set                                   TZV2P-MOLOPT-PBE-GTH-q6

       Number of orbital shell sets:                                           1
       Number of orbital shells:                                               9
       Number of primitive Cartesian functions:                                4
       Number of Cartesian basis functions:                                   34
       Number of spherical basis functions:                                   29
       Norm type:                                                              2

       Normalised Cartesian orbitals:

                        Set   Shell   Orbital            Exponent    Coefficient

                          1       1    2s                1.909285       0.317142
                                                         1.195069      -0.043753
                                                         0.372557      -0.224533
                                                         0.119646      -0.070852

                          1       2    3s                1.909285      -0.359750
                                                         1.195069      -0.143623
                                                         0.372557       0.347052
                                                         0.119646      -0.222614

                          1       3    4s                1.909285       0.697346
                                                         1.195069      -1.478645
                                                         0.372557       0.075945
                                                         0.119646       0.034089

                          1       4    3px               1.909285       0.542980
                                                         1.195069      -0.491283
                                                         0.372557      -0.270944
                                                         0.119646      -0.032363
                          1       4    3py               1.909285       0.542980
                                                         1.195069      -0.491283
                                                         0.372557      -0.270944
                                                         0.119646      -0.032363
                          1       4    3pz               1.909285       0.542980
                                                         1.195069      -0.491283
                                                         0.372557      -0.270944
                                                         0.119646      -0.032363

                          1       5    4px               1.909285       0.682434
                                                         1.195069      -0.508016
                                                         0.372557      -0.183204
                                                         0.119646       0.125359
                          1       5    4py               1.909285       0.682434
                                                         1.195069      -0.508016
                                                         0.372557      -0.183204
                                                         0.119646       0.125359
                          1       5    4pz               1.909285       0.682434
                                                         1.195069      -0.508016
                                                         0.372557      -0.183204
                                                         0.119646       0.125359

                          1       6    5px               1.909285      -4.787543
                                                         1.195069       1.991006
                                                         0.372557      -0.393268
                                                         0.119646       0.017618
                          1       6    5py               1.909285      -4.787543
                                                         1.195069       1.991006
                                                         0.372557      -0.393268
                                                         0.119646       0.017618
                          1       6    5pz               1.909285      -4.787543
                                                         1.195069       1.991006
                                                         0.372557      -0.393268
                                                         0.119646       0.017618

                          1       7    4dx2              1.909285       0.298660
                                                         1.195069       0.639898
                                                         0.372557       0.199968
                                                         0.119646       0.006416
                          1       7    4dxy              1.909285       0.517294
                                                         1.195069       1.108336
                                                         0.372557       0.346354
                                                         0.119646       0.011113
                          1       7    4dxz              1.909285       0.517294
                                                         1.195069       1.108336
                                                         0.372557       0.346354
                                                         0.119646       0.011113
                          1       7    4dy2              1.909285       0.298660
                                                         1.195069       0.639898
                                                         0.372557       0.199968
                                                         0.119646       0.006416
                          1       7    4dyz              1.909285       0.517294
                                                         1.195069       1.108336
                                                         0.372557       0.346354
                                                         0.119646       0.011113
                          1       7    4dz2              1.909285       0.298660
                                                         1.195069       0.639898
                                                         0.372557       0.199968
                                                         0.119646       0.006416

                          1       8    5dx2              1.909285      -1.624320
                                                         1.195069       3.449010
                                                         0.372557      -0.180239
                                                         0.119646       0.000879
                          1       8    5dxy              1.909285      -2.813405
                                                         1.195069       5.973861
                                                         0.372557      -0.312183
                                                         0.119646       0.001522
                          1       8    5dxz              1.909285      -2.813405
                                                         1.195069       5.973861
                                                         0.372557      -0.312183
                                                         0.119646       0.001522
                          1       8    5dy2              1.909285      -1.624320
                                                         1.195069       3.449010
                                                         0.372557      -0.180239
                                                         0.119646       0.000879
                          1       8    5dyz              1.909285      -2.813405
                                                         1.195069       5.973861
                                                         0.372557      -0.312183
                                                         0.119646       0.001522
                          1       8    5dz2              1.909285      -1.624320
                                                         1.195069       3.449010
                                                         0.372557      -0.180239
                                                         0.119646       0.000879

                          1       9    5fx3              1.909285      -0.584906
                                                         1.195069       0.904283
                                                         0.372557       0.121142
                                                         0.119646       0.000670
                          1       9    5fx2y             1.909285      -1.307890
                                                         1.195069       2.022038
                                                         0.372557       0.270881
                                                         0.119646       0.001498
                          1       9    5fx2z             1.909285      -1.307890
                                                         1.195069       2.022038
                                                         0.372557       0.270881
                                                         0.119646       0.001498
                          1       9    5fxy2             1.909285      -1.307890
                                                         1.195069       2.022038
                                                         0.372557       0.270881
                                                         0.119646       0.001498
                          1       9    5fxyz             1.909285      -2.265332
                                                         1.195069       3.502273
                                                         0.372557       0.469179
                                                         0.119646       0.002595
                          1       9    5fxz2             1.909285      -1.307890
                                                         1.195069       2.022038
                                                         0.372557       0.270881
                                                         0.119646       0.001498
                          1       9    5fy3              1.909285      -0.584906
                                                         1.195069       0.904283
                                                         0.372557       0.121142
                                                         0.119646       0.000670
                          1       9    5fy2z             1.909285      -1.307890
                                                         1.195069       2.022038
                                                         0.372557       0.270881
                                                         0.119646       0.001498
                          1       9    5fyz2             1.909285      -1.307890
                                                         1.195069       2.022038
                                                         0.372557       0.270881
                                                         0.119646       0.001498
                          1       9    5fz3              1.909285      -0.584906
                                                         1.195069       0.904283
                                                         0.372557       0.121142
                                                         0.119646       0.000670

       Atomic covalent radius [Angstrom]:                                  1.020

       Atomic van der Waals radius [Angstrom]:                             1.800

     The atoms of this atomic kind are PAW atoms (GAPW):
       Hard Gaussian function radius:                                      1.800
       Rho0 radius:                                                        1.800
       Maximum GTO radius used for PAW projector construction:            24.566

     GAPW Soft Basis Set                            TZV2P-MOLOPT-PBE-GTH-q6_soft

       Number of orbital shell sets:                                           1
       Number of orbital shells:                                               9
       Number of primitive Cartesian functions:                                4
       Number of Cartesian basis functions:                                   34
       Number of spherical basis functions:                                   29
       Norm type:                                                              2

       Normalised Cartesian orbitals:

                        Set   Shell   Orbital            Exponent    Coefficient

                          1       1    2s                1.909285       0.317142
                                                         1.195069      -0.043753
                                                         0.372557      -0.224533
                                                         0.119646      -0.070852

                          1       2    3s                1.909285      -0.359750
                                                         1.195069      -0.143623
                                                         0.372557       0.347052
                                                         0.119646      -0.222614

                          1       3    4s                1.909285       0.697346
                                                         1.195069      -1.478645
                                                         0.372557       0.075945
                                                         0.119646       0.034089

                          1       4    3px               1.909285       0.542980
                                                         1.195069      -0.491283
                                                         0.372557      -0.270944
                                                         0.119646      -0.032363
                          1       4    3py               1.909285       0.542980
                                                         1.195069      -0.491283
                                                         0.372557      -0.270944
                                                         0.119646      -0.032363
                          1       4    3pz               1.909285       0.542980
                                                         1.195069      -0.491283
                                                         0.372557      -0.270944
                                                         0.119646      -0.032363

                          1       5    4px               1.909285       0.682434
                                                         1.195069      -0.508016
                                                         0.372557      -0.183204
                                                         0.119646       0.125359
                          1       5    4py               1.909285       0.682434
                                                         1.195069      -0.508016
                                                         0.372557      -0.183204
                                                         0.119646       0.125359
                          1       5    4pz               1.909285       0.682434
                                                         1.195069      -0.508016
                                                         0.372557      -0.183204
                                                         0.119646       0.125359

                          1       6    5px               1.909285      -4.787543
                                                         1.195069       1.991006
                                                         0.372557      -0.393268
                                                         0.119646       0.017618
                          1       6    5py               1.909285      -4.787543
                                                         1.195069       1.991006
                                                         0.372557      -0.393268
                                                         0.119646       0.017618
                          1       6    5pz               1.909285      -4.787543
                                                         1.195069       1.991006
                                                         0.372557      -0.393268
                                                         0.119646       0.017618

                          1       7    4dx2              1.909285       0.298660
                                                         1.195069       0.639898
                                                         0.372557       0.199968
                                                         0.119646       0.006416
                          1       7    4dxy              1.909285       0.517294
                                                         1.195069       1.108336
                                                         0.372557       0.346354
                                                         0.119646       0.011113
                          1       7    4dxz              1.909285       0.517294
                                                         1.195069       1.108336
                                                         0.372557       0.346354
                                                         0.119646       0.011113
                          1       7    4dy2              1.909285       0.298660
                                                         1.195069       0.639898
                                                         0.372557       0.199968
                                                         0.119646       0.006416
                          1       7    4dyz              1.909285       0.517294
                                                         1.195069       1.108336
                                                         0.372557       0.346354
                                                         0.119646       0.011113
                          1       7    4dz2              1.909285       0.298660
                                                         1.195069       0.639898
                                                         0.372557       0.199968
                                                         0.119646       0.006416

                          1       8    5dx2              1.909285      -1.624320
                                                         1.195069       3.449010
                                                         0.372557      -0.180239
                                                         0.119646       0.000879
                          1       8    5dxy              1.909285      -2.813405
                                                         1.195069       5.973861
                                                         0.372557      -0.312183
                                                         0.119646       0.001522
                          1       8    5dxz              1.909285      -2.813405
                                                         1.195069       5.973861
                                                         0.372557      -0.312183
                                                         0.119646       0.001522
                          1       8    5dy2              1.909285      -1.624320
                                                         1.195069       3.449010
                                                         0.372557      -0.180239
                                                         0.119646       0.000879
                          1       8    5dyz              1.909285      -2.813405
                                                         1.195069       5.973861
                                                         0.372557      -0.312183
                                                         0.119646       0.001522
                          1       8    5dz2              1.909285      -1.624320
                                                         1.195069       3.449010
                                                         0.372557      -0.180239
                                                         0.119646       0.000879

                          1       9    5fx3              1.909285      -0.584906
                                                         1.195069       0.904283
                                                         0.372557       0.121142
                                                         0.119646       0.000670
                          1       9    5fx2y             1.909285      -1.307890
                                                         1.195069       2.022038
                                                         0.372557       0.270881
                                                         0.119646       0.001498
                          1       9    5fx2z             1.909285      -1.307890
                                                         1.195069       2.022038
                                                         0.372557       0.270881
                                                         0.119646       0.001498
                          1       9    5fxy2             1.909285      -1.307890
                                                         1.195069       2.022038
                                                         0.372557       0.270881
                                                         0.119646       0.001498
                          1       9    5fxyz             1.909285      -2.265332
                                                         1.195069       3.502273
                                                         0.372557       0.469179
                                                         0.119646       0.002595
                          1       9    5fxz2             1.909285      -1.307890
                                                         1.195069       2.022038
                                                         0.372557       0.270881
                                                         0.119646       0.001498
                          1       9    5fy3              1.909285      -0.584906
                                                         1.195069       0.904283
                                                         0.372557       0.121142
                                                         0.119646       0.000670
                          1       9    5fy2z             1.909285      -1.307890
                                                         1.195069       2.022038
                                                         0.372557       0.270881
                                                         0.119646       0.001498
                          1       9    5fyz2             1.909285      -1.307890
                                                         1.195069       2.022038
                                                         0.372557       0.270881
                                                         0.119646       0.001498
                          1       9    5fz3              1.909285      -0.584906
                                                         1.195069       0.904283
                                                         0.372557       0.121142
                                                         0.119646       0.000670

     GTH Potential information for                                    GTH-PBE-q6

       Description:                       Goedecker-Teter-Hutter pseudopotential
                                           Goedecker et al., PRB 54, 1703 (1996)
                                          Hartwigsen et al., PRB 58, 3641 (1998)
                                                      Krack, TCA 114, 145 (2005)

       Gaussian exponent of the core charge distribution:               2.832916
       Electronic configuration (s p d ...):                       2   4   0   0

       Parameters of the local part of the GTH pseudopotential:

                          rloc        C1          C2          C3          C4
                        0.420115   -5.974780

       Parameters of the non-local part of the GTH pseudopotential:

                   l      r(l)      h(i,j,l)

                   0    0.364825   13.144660   -4.241830
                                   -4.241830    5.476178
                   1    0.409479    3.700870


 MOLECULE KIND INFORMATION


 All atoms are their own molecule, skipping detailed information


 TOTAL NUMBERS AND MAXIMUM NUMBERS

  Total number of            - Atomic kinds:                                   2
                             - Atoms:                                          8
                             - Shell sets:                                     8
                             - Shells:                                        68
                             - Primitive Cartesian functions:                 44
                             - Cartesian basis functions:                    212
                             - Spherical basis functions:                    188

  Maximum angular momentum of- Orbital basis functions:                        3
                             - Local part of the GTH pseudopotential:          2
                             - Non-local part of the GTH pseudopotential:      2


 MODULE QUICKSTEP: ATOMIC COORDINATES IN ANGSTROM

   Atom Kind Element         X             Y             Z       Z(eff)     Mass
      1    1 Mg   12      0.000000      0.000000      0.000000  10.0000  24.3050
      2    1 Mg   12      0.000000      2.677735      2.677735  10.0000  24.3050
      3    1 Mg   12      2.677735      0.000000      2.677735  10.0000  24.3050
      4    1 Mg   12      2.677735      2.677735      0.000000  10.0000  24.3050
      5    2 S    16      2.677735      0.000000      0.000000   6.0000  32.0650
      6    2 S    16      0.000000      2.677735      0.000000   6.0000  32.0650
      7    2 S    16      0.000000      0.000000      2.677735   6.0000  32.0650
      8    2 S    16      2.677735      2.677735      2.677735   6.0000  32.0650



 SCF PARAMETERS         Density guess:                                    ATOMIC
                        --------------------------------------------------------
                        max_scf:                                             200
                        max_scf_history:                                       0
                        max_diis:                                              4
                        --------------------------------------------------------
                        eps_scf:                                        5.00E-06
                        eps_scf_history:                                0.00E+00
                        eps_diis:                                       1.00E-01
                        eps_eigval:                                     1.00E-05
                        --------------------------------------------------------
                        level_shift [a.u.]:                             0.000000
                        --------------------------------------------------------
                        Mixing method:                           DIRECT_P_MIXING
                        --------------------------------------------------------
                        Outer loop SCF in use 
                        No variables optimised in outer loop
                        eps_scf                                         5.00E-06
                        max_scf                                                5
                        No outer loop optimization
                        step_size                                       5.00E-01

 PW_GRID| Information for grid number                                          1
 PW_GRID| Cutoff [a.u.]                                                    400.0
 PW_GRID| spherical cutoff:                                                   NO
 PW_GRID|   Bounds   1            -48      47                Points:          96
 PW_GRID|   Bounds   2            -48      47                Points:          96
 PW_GRID|   Bounds   3            -48      47                Points:          96
 PW_GRID| Volume element (a.u.^3)  0.1172E-02     Volume (a.u.^3)      1036.5475
 PW_GRID| Grid span                                                    FULLSPACE

 PW_GRID| Information for grid number                                          2
 PW_GRID| Number of the reference grid                                         1
 PW_GRID| Cutoff [a.u.]                                                    133.3
 PW_GRID| spherical cutoff:                                                   NO
 PW_GRID|   Bounds   1            -27      26                Points:          54
 PW_GRID|   Bounds   2            -27      26                Points:          54
 PW_GRID|   Bounds   3            -27      26                Points:          54
 PW_GRID| Volume element (a.u.^3)  0.6583E-02     Volume (a.u.^3)      1036.5475
 PW_GRID| Grid span                                                    FULLSPACE

 PW_GRID| Information for grid number                                          3
 PW_GRID| Number of the reference grid                                         1
 PW_GRID| Cutoff [a.u.]                                                     44.4
 PW_GRID| spherical cutoff:                                                   NO
 PW_GRID|   Bounds   1            -16      15                Points:          32
 PW_GRID|   Bounds   2            -16      15                Points:          32
 PW_GRID|   Bounds   3            -16      15                Points:          32
 PW_GRID| Volume element (a.u.^3)  0.3163E-01     Volume (a.u.^3)      1036.5475
 PW_GRID| Grid span                                                    FULLSPACE

 PW_GRID| Information for grid number                                          4
 PW_GRID| Number of the reference grid                                         1
 PW_GRID| Cutoff [a.u.]                                                     14.8
 PW_GRID| spherical cutoff:                                                   NO
 PW_GRID|   Bounds   1             -9       8                Points:          18
 PW_GRID|   Bounds   2             -9       8                Points:          18
 PW_GRID|   Bounds   3             -9       8                Points:          18
 PW_GRID| Volume element (a.u.^3)  0.1777         Volume (a.u.^3)      1036.5475
 PW_GRID| Grid span                                                    FULLSPACE

 PW_GRID| Information for grid number                                          5
 PW_GRID| Number of the reference grid                                         1
 PW_GRID| Cutoff [a.u.]                                                      4.9
 PW_GRID| spherical cutoff:                                                   NO
 PW_GRID|   Bounds   1             -6       5                Points:          12
 PW_GRID|   Bounds   2             -6       5                Points:          12
 PW_GRID|   Bounds   3             -6       5                Points:          12
 PW_GRID| Volume element (a.u.^3)  0.5999         Volume (a.u.^3)      1036.5475
 PW_GRID| Grid span                                                    FULLSPACE

 POISSON| Solver                                                        PERIODIC
 POISSON| Periodicity                                                        XYZ

 RS_GRID| Information for grid number                                          1
 RS_GRID|   Bounds   1            -48      47                Points:          96
 RS_GRID|   Bounds   2            -48      47                Points:          96
 RS_GRID|   Bounds   3            -48      47                Points:          96

 RS_GRID| Information for grid number                                          2
 RS_GRID|   Bounds   1            -27      26                Points:          54
 RS_GRID|   Bounds   2            -27      26                Points:          54
 RS_GRID|   Bounds   3            -27      26                Points:          54

 RS_GRID| Information for grid number                                          3
 RS_GRID|   Bounds   1            -16      15                Points:          32
 RS_GRID|   Bounds   2            -16      15                Points:          32
 RS_GRID|   Bounds   3            -16      15                Points:          32

 RS_GRID| Information for grid number                                          4
 RS_GRID|   Bounds   1             -9       8                Points:          18
 RS_GRID|   Bounds   2             -9       8                Points:          18
 RS_GRID|   Bounds   3             -9       8                Points:          18

 RS_GRID| Information for grid number                                          5
 RS_GRID|   Bounds   1             -6       5                Points:          12
 RS_GRID|   Bounds   2             -6       5                Points:          12
 RS_GRID|   Bounds   3             -6       5                Points:          12

 *******************************************************************************
                                    Kpoints
 *******************************************************************************
 BRILLOUIN| K-point scheme                                        Monkhorst-Pack
 BRILLOUIN| K-Point grid                                             4    4    4
 BRILLOUIN| Gamma-centered k-point mesh                                     ON
 BRILLOUIN| K-point symmetry accuracy                               0.100000E-07
 BRILLOUIN| K-Point point group symmetrization                                ON
 BRILLOUIN| Symmetry backend                                               K290
 BRILLOUIN| Symmetry reduction method                                      K290
 BRILLOUIN| Wavefunction type                                            COMPLEX
 BRILLOUIN| List of Kpoints [2 Pi/Bohr]                                       10
 BRILLOUIN| Number           Weight            X              Y              Z
 BRILLOUIN|     1           0.12500       -0.25000       -0.25000       -0.25000
 BRILLOUIN|     2           0.18750       -0.25000       -0.25000        0.00000
 BRILLOUIN|     3           0.18750       -0.25000       -0.25000        0.50000
 BRILLOUIN|     4           0.09375       -0.25000        0.00000        0.00000
 BRILLOUIN|     5           0.18750       -0.25000        0.00000        0.50000
 BRILLOUIN|     6           0.09375       -0.25000        0.50000        0.50000
 BRILLOUIN|     7           0.01562        0.00000        0.00000        0.00000
 BRILLOUIN|     8           0.04688        0.00000        0.00000        0.50000
 BRILLOUIN|     9           0.04688        0.00000        0.50000        0.50000
 BRILLOUIN|    10           0.01562        0.50000        0.50000        0.50000
 *******************************************************************************

 Extrapolation method: initial_guess

 Atomic guess: The first density matrix is obtained in terms of atomic orbitals
               and electronic configurations assigned to each atomic kind

 Guess for atomic kind: Mg

 Electronic structure
    Total number of core electrons                                          2.00
    Total number of valence electrons                                      10.00
    Total number of electrons                                              12.00
    Multiplicity                                                   not specified
    S   [  2.00] 2.00  2.00
    P      6.00


 *******************************************************************************
                  Iteration          Convergence                     Energy [au]
 *******************************************************************************
                          1        0.890996                     -62.893242442572
                          2        0.435602                     -62.942740074711
                          3        0.623800E-02                 -62.962495104531
                          4        0.154674E-03                 -62.962503557557
                          5        0.119023E-05                 -62.962503576840
                          6        0.640022E-06                 -62.962503576840

 Energy components [Hartree]           Total Energy ::          -62.962503576840
                                        Band Energy ::          -16.164473040271
                                     Kinetic Energy ::           51.482004292917
                                   Potential Energy ::         -114.444507869757
                                      Virial (-V/T) ::            2.223000239435
                                        Core Energy ::         -104.129008124597
                                          XC Energy ::           -8.236629339440
                                     Coulomb Energy ::           49.403133887197
                       Total Pseudopotential Energy ::         -155.671792991532
                       Local Pseudopotential Energy ::         -154.786636564434
                    Nonlocal Pseudopotential Energy ::           -0.885156427097
                                        Confinement ::            0.607805740181

 Orbital energies  State     L     Occupation   Energy[a.u.]          Energy[eV]

                       1     0          2.000      -2.899238          -78.892265
                       2     0          2.000      -0.140551           -3.824595

                       1     1          6.000      -1.680816          -45.737327


 Total Electron Density at R=0:                                         0.001681

 Guess for atomic kind: S

 Electronic structure
    Total number of core electrons                                         10.00
    Total number of valence electrons                                       6.00
    Total number of electrons                                              16.00
    Multiplicity                                                   not specified
    S   [  2.00  2.00] 2.00
    P   [  6.00] 4.00


 *******************************************************************************
                  Iteration          Convergence                     Energy [au]
 *******************************************************************************
                          1        0.416871E-01                  -9.951610437169
                          2        0.275498E-01                  -9.951897385591
                          3        0.226171E-02                  -9.952138515622
                          4        0.418068E-06                  -9.952140127777

 Energy components [Hartree]           Total Energy ::           -9.952140127777
                                        Band Energy ::           -2.173007107509
                                     Kinetic Energy ::            3.756568468297
                                   Potential Energy ::          -13.708708596074
                                      Virial (-V/T) ::            3.649263606338
                                        Core Energy ::          -16.312866610059
                                          XC Energy ::           -2.044388496525
                                     Coulomb Energy ::            8.405114978807
                       Total Pseudopotential Energy ::          -20.127807236821
                       Local Pseudopotential Energy ::          -22.246881718442
                    Nonlocal Pseudopotential Energy ::            2.119074481620
                                        Confinement ::            0.583721584646

 Orbital energies  State     L     Occupation   Energy[a.u.]          Energy[eV]

                       1     0          2.000      -0.612544          -16.668179

                       1     1          4.000      -0.236980           -6.448543


 Total Electron Density at R=0:                                         0.000297
 Re-scaling the density matrix to get the right number of electrons
                  # Electrons              Trace(P)               Scaling factor
                           64                64.000                        1.000

 Number of electrons:                                                         64
 Number of occupied orbitals:                                                 32
 Number of molecular orbitals:                                                32

 Number of orbital functions:                                                188
 Number of independent orbital functions:                                    188


 SCF WAVEFUNCTION OPTIMIZATION

  Step     Update method      Time    Convergence         Total energy    Change
  ------------------------------------------------------------------------------
 SKALA_GPW| Atom-composite cross support/maxima   2.797827671472E+00   2.853429074638E+00   2.070838629565E+01   2.970240741507E+02

 SKALA_GPW| Native grid Torch CUDA device 0 of 1 requested -1
 SKALA_GPW| Native grid Torch CUDA rank devices 0:0
 SKALA_GPW| Active atom-composite XC energy  -4.3126384509224621E+01
 SKALA_GPW| Active atom-composite electrons   6.4046507841839812E+01
 SKALA_GPW| Active atom-composite density range   1.4268955716290055E-03   3.4193681052838927E+00
 SKALA_GPW| Active atom-composite tau range   1.0485682954040744E-03   3.0523311397907486E+02
 SKALA_GPW| Active atom-composite tau integral   2.2097411601908303E+02
 SKALA_GPW| Active atom-composite max gradient   2.3595701325797144E+01
     1 P_Mix/Diag. 0.10E+00  256.0     1.17551104      -295.0341196091 -2.95E+02
 SKALA_GPW| Atom-composite cross support/maxima   2.797827671472E+00   2.857994963385E+00   2.073479060935E+01   2.975317583755E+02
 SKALA_GPW| Active atom-composite XC energy  -4.3210711928164699E+01
 SKALA_GPW| Active atom-composite electrons   6.4045901061803491E+01
 SKALA_GPW| Active atom-composite density range   1.2982029350449458E-03   3.4235266375203470E+00
 SKALA_GPW| Active atom-composite tau range   1.0549547291988253E-03   3.0575495906707357E+02
 SKALA_GPW| Active atom-composite tau integral   2.2141927650394109E+02
 SKALA_GPW| Active atom-composite max gradient   2.3632514721997556E+01
     2 P_Mix/Diag. 0.10E+00  252.9     1.05522399      -295.0052999655  2.88E-02
 SKALA_GPW| Atom-composite cross support/maxima   2.797827671472E+00   2.862263471143E+00   2.075979743974E+01   2.980055018889E+02
 SKALA_GPW| Active atom-composite XC energy  -4.3282996701204603E+01
 SKALA_GPW| Active atom-composite electrons   6.4045425931696457E+01
 SKALA_GPW| Active atom-composite density range   1.1775799625576143E-03   3.4274655348182481E+00
 SKALA_GPW| Active atom-composite tau range   1.0648607347783297E-03   3.0624187267839676E+02
 SKALA_GPW| Active atom-composite tau integral   2.2180685883987155E+02
 SKALA_GPW| Active atom-composite max gradient   2.3667058201171038E+01
     3 P_Mix/Diag. 0.10E+00  251.7     0.94659727      -294.9767460080  2.86E-02
 SKALA_GPW| Atom-composite cross support/maxima   2.797827671472E+00   2.866447571268E+00   2.078329242412E+01   2.984451449259E+02
 SKALA_GPW| Active atom-composite XC energy  -4.3344772640603892E+01
 SKALA_GPW| Active atom-composite electrons   6.4045053770469650E+01
 SKALA_GPW| Active atom-composite density range   1.0689170101835777E-03   3.4311662205786062E+00
 SKALA_GPW| Active atom-composite tau range   1.0770999999935016E-03   3.0669370863578030E+02
 SKALA_GPW| Active atom-composite tau integral   2.2214532578122009E+02
 SKALA_GPW| Active atom-composite max gradient   2.3699277696524003E+01
     4 P_Mix/Diag. 0.10E+00  249.3     0.84879974      -294.9492443956  2.75E-02
 SKALA_GPW| Atom-composite cross support/maxima   2.797827671472E+00   2.870313692046E+00   2.080518769139E+01   2.988508520236E+02
 SKALA_GPW| Active atom-composite XC energy  -4.3397534913980685E+01
 SKALA_GPW| Active atom-composite electrons   6.4044761952926919E+01
 SKALA_GPW| Active atom-composite density range   9.7102830846862703E-04   3.4346146581927224E+00
 SKALA_GPW| Active atom-composite tau range   1.0907662981161884E-03   3.0711065087227166E+02
 SKALA_GPW| Active atom-composite tau integral   2.2244146966198397E+02
 SKALA_GPW| Active atom-composite max gradient   2.3729141359288043E+01
     5 P_Mix/Diag. 0.10E+00  249.7     0.76110886      -294.9232970517  2.59E-02
 SKALA_GPW| Atom-composite cross support/maxima   2.797827671472E+00   2.873859682716E+00   2.082542297626E+01   2.992231323096E+02
 SKALA_GPW| Active atom-composite XC energy  -4.3442658425969064E+01
 SKALA_GPW| Active atom-composite electrons   6.4044532971028673E+01
 SKALA_GPW| Active atom-composite density range   8.8282757726040645E-04   3.4378014072086449E+00
 SKALA_GPW| Active atom-composite tau range   1.1051903479106832E-03   3.0749323441378408E+02
 SKALA_GPW| Active atom-composite tau integral   2.2270078538190222E+02
 SKALA_GPW| Active atom-composite max gradient   2.3756641994356190E+01
     6 P_Mix/Diag. 0.10E+00  250.9     0.68278266      -294.8992060498  2.41E-02
 SKALA_GPW| Atom-composite cross support/maxima   2.797827671472E+00   2.877094535749E+00   2.084397731166E+01   2.995629725520E+02
 SKALA_GPW| Active atom-composite XC energy  -4.3481355995916253E+01
 SKALA_GPW| Active atom-composite electrons   6.4044353359167545E+01
 SKALA_GPW| Active atom-composite density range   8.0332958897185401E-04   3.4407233677824847E+00
 SKALA_GPW| Active atom-composite tau range   1.1198879017656025E-03   3.0784248215035944E+02
 SKALA_GPW| Active atom-composite tau integral   2.2292787522698134E+02
 SKALA_GPW| Active atom-composite max gradient   2.3781811112652857E+01
     7 P_Mix/Diag. 0.10E+00  250.6     0.61298306      -294.8771169669  2.21E-02
 SKALA_GPW| Atom-composite cross support/maxima   2.797827671472E+00   2.880032269618E+00   2.086087485525E+01   2.998718669588E+02
 SKALA_GPW| Active atom-composite XC energy  -4.3514661712997196E+01
 SKALA_GPW| Active atom-composite electrons   6.4044212745681122E+01
 SKALA_GPW| Active atom-composite density range   7.3164848853724495E-04   3.4433845776719911E+00
 SKALA_GPW| Active atom-composite tau range   1.1345131370500631E-03   3.0815993541789965E+02
 SKALA_GPW| Active atom-composite tau integral   2.2312672963417580E+02
 SKALA_GPW| Active atom-composite max gradient   2.3804725115124146E+01
     8 P_Mix/Diag. 0.10E+00  251.2     0.55079471      -294.8570522707  2.01E-02
 SKALA_GPW| Atom-composite cross support/maxima   2.797827671472E+00   2.882690769001E+00   2.087617881257E+01   3.001516932992E+02
 SKALA_GPW| Active atom-composite XC energy  -4.3543433964366841E+01
 SKALA_GPW| Active atom-composite electrons   6.4044103091313971E+01
 SKALA_GPW| Active atom-composite density range   6.6699313446951956E-04   3.4457951792933805E+00
 SKALA_GPW| Active atom-composite tau range   1.1488218832466238E-03   3.0844752705201961E+02
 SKALA_GPW| Active atom-composite tau integral   2.2330086200737554E+02
 SKALA_GPW| Active atom-composite max gradient   2.3825497910938196E+01
     9 P_Mix/Diag. 0.10E+00  251.1     0.49530862      -294.8389457148  1.81E-02
 SKALA_GPW| Atom-composite cross support/maxima   2.797827671472E+00   2.885090265875E+00   2.088998086920E+01   3.004045570916E+02
 SKALA_GPW| Active atom-composite XC energy  -4.3568376551433396E+01
 SKALA_GPW| Active atom-composite electrons   6.4044018095097599E+01
 SKALA_GPW| Active atom-composite density range   6.0865703570911738E-04   3.4479697188289840E+00
 SKALA_GPW| Active atom-composite tau range   1.1626439421492261E-03   3.0870742185375445E+02
 SKALA_GPW| Active atom-composite tau integral   2.2345338058886935E+02
 SKALA_GPW| Active atom-composite max gradient   2.3844269148323676E+01
    10 P_Mix/Diag. 0.10E+00  253.7     0.44569203      -294.8226760314  1.63E-02
 SKALA_GPW| Atom-composite cross support/maxima   2.797827671472E+00   2.887251979253E+00   2.090239004935E+01   3.006326550089E+02
 SKALA_GPW| Active atom-composite XC energy  -4.3590063327982939E+01
 SKALA_GPW| Active atom-composite electrons   6.4043952789631547E+01
 SKALA_GPW| Active atom-composite density range   5.5601109362148386E-04   3.4499253964466168E+00
 SKALA_GPW| Active atom-composite tau range   1.1758647290906930E-03   3.0894187685492545E+02
 SKALA_GPW| Active atom-composite tau integral   2.2358702735098259E+02
 SKALA_GPW| Active atom-composite max gradient   2.3861192460705475E+01
    11 P_Mix/Diag. 0.10E+00  254.5     0.40122454      -294.8080939901  1.46E-02
 SKALA_GPW| Atom-composite cross support/maxima   2.797827671472E+00   2.889197143445E+00   2.091352368752E+01   3.008381787679E+02
 SKALA_GPW| Active atom-composite XC energy  -4.3608966458635777E+01
 SKALA_GPW| Active atom-composite electrons   6.4043903215396341E+01
 SKALA_GPW| Active atom-composite density range   5.0849138093486505E-04   3.4516806659521508E+00
 SKALA_GPW| Active atom-composite tau range   1.1884107903541372E-03   3.0915314312151645E+02
 SKALA_GPW| Active atom-composite tau integral   2.2370421858751126E+02
 SKALA_GPW| Active atom-composite max gradient   2.3876426387204862E+01
    12 P_Mix/Diag. 0.10E+00  248.3     0.36130293      -294.7950421062  1.31E-02
 SKALA_GPW| Atom-composite cross support/maxima   2.797827671472E+00   2.890946207924E+00   2.092349963400E+01   3.010232372500E+02
 SKALA_GPW| Active atom-composite XC energy  -4.3625479652084529E+01
 SKALA_GPW| Active atom-composite electrons   6.4043866172837014E+01
 SKALA_GPW| Active atom-composite density range   4.6559231206619848E-04   3.4532540296533600E+00
 SKALA_GPW| Active atom-composite tau range   1.2002388730379854E-03   3.0934338547559594E+02
 SKALA_GPW| Active atom-composite tau integral   2.2380707660628593E+02
 SKALA_GPW| Active atom-composite max gradient   2.3890126623770783E+01
    13 P_Mix/Diag. 0.10E+00  248.2     0.32541147      -294.7833661732  1.17E-02
 SKALA_GPW| Atom-composite cross support/maxima   2.797827671472E+00   2.892518419767E+00   2.093243167436E+01   3.011898139595E+02
 SKALA_GPW| Active atom-composite XC energy  -4.3639932443200003E+01
 SKALA_GPW| Active atom-composite electrons   6.4043839090464459E+01
 SKALA_GPW| Active atom-composite density range   4.2685889464719428E-04   3.4546633351125227E+00
 SKALA_GPW| Active atom-composite tau range   1.2113294327744811E-03   3.0951464084959701E+02
 SKALA_GPW| Active atom-composite tau integral   2.2389745340870093E+02
 SKALA_GPW| Active atom-composite max gradient   2.3902441574253753E+01
    14 P_Mix/Diag. 0.10E+00  252.2     0.29311497      -294.7729216762  1.04E-02
 SKALA_GPW| Atom-composite cross support/maxima   2.797827671472E+00   2.893931520836E+00   2.094042617906E+01   3.013397384132E+02
 SKALA_GPW| Active atom-composite XC energy  -4.3652604422263579E+01
 SKALA_GPW| Active atom-composite electrons   6.4043819878644285E+01
 SKALA_GPW| Active atom-composite density range   3.9188078073480303E-04   3.4559252582807103E+00
 SKALA_GPW| Active atom-composite tau range   1.2216799959946037E-03   3.0966878804488897E+02
 SKALA_GPW| Active atom-composite tau integral   2.2397696043818269E+02
 SKALA_GPW| Active atom-composite max gradient   2.3913509131154523E+01
    15 P_Mix/Diag. 0.10E+00  253.7     0.26403718      -294.7635766497  9.35E-03
 SKALA_GPW| Atom-composite cross support/maxima   2.797827671472E+00   2.895201666091E+00   2.094758067903E+01   3.014746786835E+02
 SKALA_GPW| Active atom-composite XC energy  -4.3663733722757577E+01
 SKALA_GPW| Active atom-composite electrons   6.4043806844136085E+01
 SKALA_GPW| Active atom-composite density range   3.6028886914577657E-04   3.4570550867394569E+00
 SKALA_GPW| Active atom-composite tau range   1.2313011183897741E-03   3.0980753974857811E+02
 SKALA_GPW| Active atom-composite tau integral   2.2404699472741373E+02
 SKALA_GPW| Active atom-composite max gradient   2.3923455458443726E+01
    16 P_Mix/Diag. 0.10E+00  250.8     0.23784802      -294.7552121761  8.36E-03
 SKALA_GPW| Atom-composite cross support/maxima   2.797827671472E+00   2.896343436152E+00   2.095398341349E+01   3.015961425132E+02
 SKALA_GPW| Active atom-composite XC energy  -4.3673523939773283E+01
 SKALA_GPW| Active atom-composite electrons   6.4043798618108909E+01
 SKALA_GPW| Active atom-composite density range   3.3174986861563021E-04   3.4580666519286218E+00
 SKALA_GPW| Active atom-composite tau range   1.2402128824364233E-03   3.0993244408693886E+02
 SKALA_GPW| Active atom-composite tau integral   2.2410876368113546E+02
 SKALA_GPW| Active atom-composite max gradient   2.3932394742503565E+01
    17 P_Mix/Diag. 0.10E+00  250.0     0.21425684      -294.7477220809  7.49E-03
 SKALA_GPW| Atom-composite cross support/maxima   2.797827671472E+00   2.897369966226E+00   2.095971390125E+01   3.017054903529E+02
 SKALA_GPW| Active atom-composite XC energy  -4.3682149969181999E+01
 SKALA_GPW| Active atom-composite electrons   6.4043794094814274E+01
 SKALA_GPW| Active atom-composite density range   3.0596352170655705E-04   3.4589724203827688E+00
 SKALA_GPW| Active atom-composite tau range   1.2484422342596392E-03   3.1004489802374599E+02
 SKALA_GPW| Active atom-composite tau integral   2.2416331268796259E+02
 SKALA_GPW| Active atom-composite max gradient   2.3940430044955292E+01
    18 P_Mix/Diag. 0.10E+00  250.3     0.19300495      -294.7410118792  6.71E-03
 SKALA_GPW| Atom-composite cross support/maxima   2.797827671472E+00   2.898293032512E+00   2.096484327878E+01   3.018039440819E+02
 SKALA_GPW| Active atom-composite XC energy  -4.3689762348179272E+01
 SKALA_GPW| Active atom-composite electrons   6.4043792384438063E+01
 SKALA_GPW| Active atom-composite density range   2.8265945184371673E-04   3.4597835478546575E+00
 SKALA_GPW| Active atom-composite tau range   1.2560208467817687E-03   3.1014615631531399E+02
 SKALA_GPW| Active atom-composite tau integral   2.2421154554269918E+02
 SKALA_GPW| Active atom-composite max gradient   2.3947653833027779E+01
    19 P_Mix/Diag. 0.10E+00  248.8     0.17385957      -294.7349976977  6.01E-03
 SKALA_GPW| Atom-composite cross support/maxima   2.797827671472E+00   2.899123208252E+00   2.096943526718E+01   3.018926026362E+02
 SKALA_GPW| Active atom-composite XC energy  -4.3696490428429293E+01
 SKALA_GPW| Active atom-composite electrons   6.4043792781552654E+01
 SKALA_GPW| Active atom-composite density range   2.6159508214882940E-04   3.4605100303115215E+00
 SKALA_GPW| Active atom-composite tau range   1.2629837812160639E-03   3.1023734754268196E+02
 SKALA_GPW| Active atom-composite tau integral   2.2425424421729397E+02
 SKALA_GPW| Active atom-composite max gradient   2.3954149178679234E+01
    20 P_Mix/Diag. 0.10E+00  250.1     0.15661289      -294.7296052493  5.39E-03
 SKALA_GPW| Atom-composite cross support/maxima   2.797827671472E+00   2.899869959981E+00   2.097354670604E+01   3.019724517039E+02
 SKALA_GPW| Active atom-composite XC energy  -4.3702445521412947E+01
 SKALA_GPW| Active atom-composite electrons   6.4043794726609065E+01
 SKALA_GPW| Active atom-composite density range   2.4255285700152434E-04   3.4611607876837223E+00
 SKALA_GPW| Active atom-composite tau range   1.2693679583856284E-03   3.1031948406062241E+02
 SKALA_GPW| Active atom-composite tau integral   2.2429208585497403E+02
 SKALA_GPW| Active atom-composite max gradient   2.3959990461357322E+01
    21 P_Mix/Diag. 0.10E+00  248.5     0.14107663      -294.7247683989  4.84E-03
 SKALA_GPW| Atom-composite cross support/maxima   2.797827671472E+00   2.900541793197E+00   2.097722851148E+01   3.020443783710E+02
 SKALA_GPW| Active atom-composite XC energy  -4.3707723566200123E+01
 SKALA_GPW| Active atom-composite electrons   6.4043797782244539E+01
 SKALA_GPW| Active atom-composite density range   2.2533683487907790E-04   3.4617438134667600E+00
 SKALA_GPW| Active atom-composite tau range   1.2752111692071360E-03   3.1039347701824045E+02
 SKALA_GPW| Active atom-composite tau integral   2.2432565821030659E+02
 SKALA_GPW| Active atom-composite max gradient   2.3965244527099330E+01
    22 P_Mix/Diag. 0.10E+00  247.9     0.12713077      -294.7204284746  4.34E-03
 SKALA_GPW| Atom-composite cross support/maxima   2.797827671472E+00   2.901146333037E+00   2.098052613614E+01   3.021091792332E+02
 SKALA_GPW| Active atom-composite XC energy  -4.3712407717411381E+01
 SKALA_GPW| Active atom-composite electrons   6.4043801606526159E+01
 SKALA_GPW| Active atom-composite density range   2.0977169673966331E-04   3.4622662467198309E+00
 SKALA_GPW| Active atom-composite tau range   1.2805511348028102E-03   3.1046014468326803E+02
 SKALA_GPW| Active atom-composite tau integral   2.2435547265673924E+02
 SKALA_GPW| Active atom-composite max gradient   2.3969971288524548E+01
    23 P_Mix/Diag. 0.10E+00  251.5     0.11501959      -294.7165334207  3.90E-03
 SKALA_GPW| Atom-composite cross support/maxima   2.797827671472E+00   2.901690414536E+00   2.098348016059E+01   3.021675695338E+02
 SKALA_GPW| Active atom-composite XC energy  -4.3716569799862036E+01
 SKALA_GPW| Active atom-composite electrons   6.4043805932968041E+01
 SKALA_GPW| Active atom-composite density range   1.9569893286498709E-04   3.4627344636685109E+00
 SKALA_GPW| Active atom-composite tau range   1.2854247198292215E-03   3.1052022181495806E+02
 SKALA_GPW| Active atom-composite tau integral   2.2438197440754905E+02
 SKALA_GPW| Active atom-composite max gradient   2.3974224444596135E+01
    24 P_Mix/Diag. 0.10E+00  249.6     0.10406526      -294.7130366211  3.50E-03
 SKALA_GPW| Atom-composite cross support/maxima   2.797827671472E+00   2.902180175895E+00   2.098612688173E+01   3.022201925321E+02
 SKALA_GPW| Active atom-composite XC energy  -4.3720272153981803E+01
 SKALA_GPW| Active atom-composite electrons   6.4043810560314384E+01
 SKALA_GPW| Active atom-composite density range   1.8297635973776790E-04   3.4631541701831576E+00
 SKALA_GPW| Active atom-composite tau range   1.2898677267273934E-03   3.1057436927082898E+02
 SKALA_GPW| Active atom-composite tau integral   2.2440555185393626E+02
 SKALA_GPW| Active atom-composite max gradient   2.3978052205833475E+01
    25 P_Mix/Diag. 0.10E+00  254.8     0.09415731      -294.7098967812  3.14E-03
 SKALA_GPW| Atom-composite cross support/maxima   2.797827671472E+00   2.902621130433E+00   2.098849877895E+01   3.022676268830E+02
 SKALA_GPW| Active atom-composite XC energy  -4.3723568612597084E+01
 SKALA_GPW| Active atom-composite electrons   6.4043815335572035E+01
 SKALA_GPW| Active atom-composite density range   1.7147575692365221E-04   3.4635304740777362E+00
 SKALA_GPW| Active atom-composite tau range   1.2939143568077862E-03   3.1062318158031934E+02
 SKALA_GPW| Active atom-composite tau integral   2.2442654498610401E+02
 SKALA_GPW| Active atom-composite max gradient   2.3981497873561583E+01
    26 DIIS/Diag.  0.68E-05  249.3     0.08759915      -294.7070766333  2.82E-03
 SKALA_GPW| Atom-composite cross support/maxima   2.797827671472E+00   2.906601323063E+00   2.100927794776E+01   3.026989358710E+02
 SKALA_GPW| Active atom-composite XC energy  -4.3751188303064076E+01
 SKALA_GPW| Active atom-composite electrons   6.4043891702535973E+01
 SKALA_GPW| Active atom-composite density range   6.5173840838459536E-05   3.4668372523540816E+00
 SKALA_GPW| Active atom-composite tau range   1.3329801920485219E-03   3.1106723260883928E+02
 SKALA_GPW| Active atom-composite tau integral   2.2460311178857862E+02
 SKALA_GPW| Active atom-composite max gradient   2.4012564309515735E+01
    27 DIIS/Diag.  0.13E-03  250.9     0.00066510      -294.6819629528  2.51E-02
 SKALA_GPW| Atom-composite cross support/maxima   2.797827671472E+00   2.906593323760E+00   2.100936573557E+01   3.026974276755E+02
 SKALA_GPW| Active atom-composite XC energy  -4.3751441694975476E+01
 SKALA_GPW| Active atom-composite electrons   6.4043887489030936E+01
 SKALA_GPW| Active atom-composite density range   6.5668777269321547E-05   3.4668490206430942E+00
 SKALA_GPW| Active atom-composite tau range   1.3325940862146497E-03   3.1106563286647435E+02
 SKALA_GPW| Active atom-composite tau integral   2.2460455793480401E+02
 SKALA_GPW| Active atom-composite max gradient   2.4012506216198403E+01
    28 DIIS/Diag.  0.21E-03  250.2     0.00065827      -294.6819600877  2.87E-06
 SKALA_GPW| Atom-composite cross support/maxima   2.797827671472E+00   2.906594209989E+00   2.100949285993E+01   3.026969129091E+02
 SKALA_GPW| Active atom-composite XC energy  -4.3752126191962752E+01
 SKALA_GPW| Active atom-composite electrons   6.4043879478181836E+01
 SKALA_GPW| Active atom-composite density range   6.6244132084717226E-05   3.4668672858760572E+00
 SKALA_GPW| Active atom-composite tau range   1.3319844509275438E-03   3.1106506322866846E+02
 SKALA_GPW| Active atom-composite tau integral   2.2460759488651627E+02
 SKALA_GPW| Active atom-composite max gradient   2.4012521273736553E+01
    29 DIIS/Diag.  0.25E-03  252.5     0.00212049      -294.6819567053  3.38E-06
 SKALA_GPW| Atom-composite cross support/maxima   2.797827671472E+00   2.906586277226E+00   2.100984261231E+01   3.026940860686E+02
 SKALA_GPW| Active atom-composite XC energy  -4.3753823088218617E+01
 SKALA_GPW| Active atom-composite electrons   6.4043858230421407E+01
 SKALA_GPW| Active atom-composite density range   6.7981784528869086E-05   3.4669164542810571E+00
 SKALA_GPW| Active atom-composite tau range   1.3303118509949299E-03   3.1106201818605876E+02
 SKALA_GPW| Active atom-composite tau integral   2.2461538410566365E+02
 SKALA_GPW| Active atom-composite max gradient   2.4012479855981308E+01
    30 DIIS/Diag.  0.63E-03  250.7     0.00516002      -294.6819385915  1.81E-05
 SKALA_GPW| Atom-composite cross support/maxima   2.797827671472E+00   2.906661381362E+00   2.100925761308E+01   3.027069947410E+02
 SKALA_GPW| Active atom-composite XC energy  -4.3752433882266324E+01
 SKALA_GPW| Active atom-composite electrons   6.4043885653770687E+01
 SKALA_GPW| Active atom-composite density range   6.4338727294730482E-05   3.4668399223027242E+00
 SKALA_GPW| Active atom-composite tau range   1.3329937860121341E-03   3.1107566224379161E+02
 SKALA_GPW| Active atom-composite tau integral   2.2460649311891157E+02
 SKALA_GPW| Active atom-composite max gradient   2.4013039685097986E+01
    31 DIIS/Diag.  0.25E-04  253.5     0.00032648      -294.6819661918 -2.76E-05
 SKALA_GPW| Atom-composite cross support/maxima   2.797827671472E+00   2.906688213359E+00   2.100944767146E+01   3.027098508190E+02
 SKALA_GPW| Active atom-composite XC energy  -4.3751639122337942E+01
 SKALA_GPW| Active atom-composite electrons   6.4043895852083651E+01
 SKALA_GPW| Active atom-composite density range   6.4309332555552442E-05   3.4668701473779997E+00
 SKALA_GPW| Active atom-composite tau range   1.3336081763150982E-03   3.1107859538282935E+02
 SKALA_GPW| Active atom-composite tau integral   2.2460514488359937E+02
 SKALA_GPW| Active atom-composite max gradient   2.4013271372376373E+01
    32 DIIS/Diag.  0.36E-05  249.6     0.00010427      -294.6819664633 -2.71E-07
 SKALA_GPW| Atom-composite cross support/maxima   2.797827671472E+00   2.906674687419E+00   2.100934332951E+01   3.027085025184E+02
 SKALA_GPW| Active atom-composite XC energy  -4.3751811760736594E+01
 SKALA_GPW| Active atom-composite electrons   6.4043893223230398E+01
 SKALA_GPW| Active atom-composite density range   6.4312929169376142E-05   3.4668535585806350E+00
 SKALA_GPW| Active atom-composite tau range   1.3334540437059258E-03   3.1107721614497035E+02
 SKALA_GPW| Active atom-composite tau integral   2.2460505044074958E+02
 SKALA_GPW| Active atom-composite max gradient   2.4013160317963962E+01
    33 DIIS/Diag.  0.62E-08  249.7     0.00000354      -294.6819664831 -1.98E-08

  *** SCF run converged in    33 steps ***


  Electronic density on regular grids:        -46.3593608383       17.6406391617
  Core density on regular grids:               64.0000000000        0.0000000000
  Hard and soft densities (Lebedev):          -95.7254942444      -78.0848551280
  Total Rho_soft + Rho1_hard - Rho1_soft      -63.9999999547
  Total charge density (r-space):               0.0000000453
  Total Rho_soft + Rho0_soft (g-space):        -0.0000000226

  Overlap energy of the core charge distribution:               0.00000000000000
  Self energy of the core charge distribution:               -682.29444718789387
  Core Hamiltonian energy:                                    195.21234474298160
  Hartree energy:                                             107.21855002849905
  Exchange-correlation energy:                                  0.00000000000000
  Dispersion energy:                                           -0.17887349576148

  GAPW| Exc from hard and soft atomic rho1:                   -43.75181176073659
  GAPW| local Eh = 1 center integrals:                        129.11227118982180

  Total energy:                                              -294.68196648308947

  outer SCF iter =    1 RMS gradient =   0.00E+00 energy =       -294.6819664831
  outer SCF loop converged in   1 iterations or   33 steps


 !-----------------------------------------------------------------------------!
                     Mulliken Population Analysis

 #  Atom  Element  Kind  Atomic population                           Net charge
       1     Mg       1          8.690366                              1.309634
       2     Mg       1          8.690348                              1.309652
       3     Mg       1          8.690348                              1.309652
       4     Mg       1          8.690349                              1.309651
       5     S        2          7.309644                             -1.309644
       6     S        2          7.309644                             -1.309644
       7     S        2          7.309644                             -1.309644
       8     S        2          7.309657                             -1.309657
 # Total charge                             64.000000                  0.000000

 !-----------------------------------------------------------------------------!

 !-----------------------------------------------------------------------------!
                           Hirshfeld Charges

  #Atom  Element  Kind  Ref Charge     Population                    Net charge
      1       Mg     1      10.000         10.723                        -0.723
      2       Mg     1      10.000         10.723                        -0.723
      3       Mg     1      10.000         10.723                        -0.723
      4       Mg     1      10.000         10.723                        -0.723
      5       S      2       6.000          5.277                         0.723
      6       S      2       6.000          5.277                         0.723
      7       S      2       6.000          5.277                         0.723
      8       S      2       6.000          5.277                         0.723

  Total Charge                                                            0.000
 !-----------------------------------------------------------------------------!

 ENERGY| Total FORCE_EVAL ( QS ) energy [hartree]           -294.681966483089468

 -------------------------------------------------------------------------------
 -                                                                             -
 -                                DBCSR STATISTICS                             -
 -                                                                             -
 -------------------------------------------------------------------------------
 COUNTER                                    TOTAL       BLAS       SMM       ACC
 flops inhomo. stacks                           0       0.0%      0.0%      0.0%
 flops total                         0.000000E+00       0.0%      0.0%      0.0%
 flops max/rank                      0.000000E+00       0.0%      0.0%      0.0%
 matmuls inhomo. stacks                         0       0.0%      0.0%      0.0%
 matmuls total                                  0       0.0%      0.0%      0.0%
 number of processed stacks                     0       0.0%      0.0%      0.0%
 average stack size                                     0.0       0.0       0.0
 marketing flops                     0.000000E+00
 -------------------------------------------------------------------------------
 -                                                                             -
 -                      DBCSR MESSAGE PASSING PERFORMANCE                      -
 -                                                                             -
 -------------------------------------------------------------------------------
 ROUTINE             CALLS      AVE VOLUME [Bytes]
 MP_Bcast                1                     12.
 MP_Allreduce           19                     21.
 MP_Alltoall         32560                 183374.
 -------------------------------------------------------------------------------

 -------------------------------------------------------------------------------
 -                                                                             -
 -                                GRID STATISTICS                              -
 -                                                                             -
 -------------------------------------------------------------------------------
 LP    KERNEL             BACKEND                              COUNT     PERCENT
 6     collocate ortho    CPU                                 240720      14.80%
 6     integrate ortho    CPU                                 233640      14.36%
 4     collocate ortho    CPU                                 177344      10.90%
 4     integrate ortho    CPU                                 172128      10.58%
 5     collocate ortho    CPU                                 171904      10.57%
 7     collocate ortho    CPU                                 171904      10.57%
 5     integrate ortho    CPU                                 166848      10.26%
 7     integrate ortho    CPU                                 166848      10.26%
 8     collocate ortho    CPU                                  63376       3.90%
 8     integrate ortho    CPU                                  61512       3.78%
 4     collocate general  CPU                                    264       0.02%
 4     integrate general  CPU                                    264       0.02%
 0     collocate general  CPU                                     16       0.00%
 0     integrate general  CPU                                      8       0.00%
 -------------------------------------------------------------------------------

 -------------------------------------------------------------------------------
 -                                                                             -
 -                          OFFLOAD MEMPOOL STATISTICS                         -
 -                                                                             -
 -------------------------------------------------------------------------------
 Memory consumption                Number of allocations  Used [MiB]  Size [MiB]
 Host                                                 10          58   268434439
 -------------------------------------------------------------------------------

 MEMORY| Estimated peak process memory [MiB]                                2929

 -------------------------------------------------------------------------------
 ----                             MULTIGRID INFO                            ----
 -------------------------------------------------------------------------------
 count for grid        1:          18863          cutoff [a.u.]          400.00
 count for grid        2:          19695          cutoff [a.u.]          133.33
 count for grid        3:          12484          cutoff [a.u.]           44.44
 count for grid        4:          15244          cutoff [a.u.]           14.81
 count for grid        5:           3061          cutoff [a.u.]            4.94
 total gridlevel count  :          69347

 -------------------------------------------------------------------------------
 -                                                                             -
 -                         MESSAGE PASSING PERFORMANCE                         -
 -                                                                             -
 -------------------------------------------------------------------------------

 ROUTINE             CALLS      AVE VOLUME [Bytes]
 MP_Group               71
 MP_Bcast            12564                   2626.
 MP_Allreduce        26761                 184004.
 MP_Sync                 5
 MP_Wait             10000
 MP_ISend            14000                  40399.
 MP_IRecv            14000                  40399.
 -------------------------------------------------------------------------------


 -------------------------------------------------------------------------------
 -                                                                             -
 -                           R E F E R E N C E S                               -
 -                                                                             -
 -------------------------------------------------------------------------------
 
 CP2K version 2026.2 (Development Version), the CP2K developers group (2026).
 CP2K is freely available from https://www.cp2k.org/ .
 
 M. Iannuzzi, J. Wilhelm, F. Stein, A. Bussy, H. Elgabarty, D. Golze, A. Hehn, 
 M. Graml, S. Marek, B. Sertcan Gökmen, C. Schran, H. Forbert, R. Z. 
 Khaliullin, A. Kozhevnikov, M. Taillefumier, R. Meli, V. V. Rybkin, M. Brehm, 
 R. Schade, O. Schütt, J. V. Pototschnig, H. Mirhosseini, A. Knüpfer, D. Marx, 
 M. Krack, J. Hutter, T. D. Kühne.
 J. Phys. Chem. B 130, 1237-1310 (2026).
 The CP2K Program Package Made Simple.
 https://doi.org/10.1021/acs.jpcb.5c05851

 L. Wittmann, I. Gordiy, M. Friede, B. Helmich-Paris, S. Grimme, A. Hansen, M. 
 Bursch.
 Phys. Chem. Chem. Phys. 26, 21379-21394 (2024).
 Extension of the D3 and D4 London dispersion corrections to the full actinides 
 series.
 https://doi.org/10.1039/d4cp01514b

 T. D. Kühne, M. Iannuzzi, M. Del Ben, V. V. Rybkin, P. Seewald, F. Stein, T. 
 Laino, R. Z. Khaliullin, O. Schütt, F. Schiffmann, D. Golze, J. Wilhelm, S. 
 Chulkov, M. H. Bani-Hashemian, V. Weber, U. Borstnik, M. Taillefumier, A. S. 
 Jakobovits, A. Lazzaro, H. Pabst, T. Müller, R. Schade, M. Guidon, S. 
 Andermatt, N. Holmberg, G. K. Schenter, A. Hehn, A. Bussy, F. Belleflamme, G. 
 Tabacchi, A. Glöß, M. Lass, I. Bethune, C. J. Mundy, C. Plessl, M. Watkins, 
 J. VandeVondele, M. Krack, J. Hutter.
 J. Chem. Phys. 152, 194103 (2020).
 CP2K: An electronic structure and molecular dynamics software package - 
 Quickstep: Efficient and accurate electronic structure calculations.
 https://doi.org/10.1063/5.0007045

 A. Togo, I. Tanaka.
 arXiv, 1808.01590 (2018).
 Spglib : a software library for crystal symmetry search.

 L. Goerigk, A. Hansen, C. Bauer, S. Ehrlich, A. Najibi, S. Grimme.
 Phys. Chem. Chem. Phys. 19, 32184-32215 (2017).
 A look at the density functional theory zoo with the advanced GMTKN55 database 
 for general main group thermochemistry, kinetics and noncovalent interactions.
 https://doi.org/10.1039/C7CP04913G

 O. Schuett, P. Messmer, J. Hutter, J. VandeVondele.
 Electronic Structure Calculations on Graphics Processing Units, 173-190 (2016).
 GPU-Accelerated Sparse Matrix-Matrix Multiplication for Linear Scaling Density 
 Functional Theory.
 https://doi.org/10.1002/9781118670712.ch8

 U. Borstnik, J. VandeVondele, V. Weber, J. Hutter.
 Parallel Comput. 40, 47-58 (2014).
 Sparse matrix multiplication: The distributed block-compressed sparse row 
 library.
 https://doi.org/10.1016/j.parco.2014.03.012

 S. Grimme, S. Ehrlich, L. Goerigk.
 J. Comput. Chem. 32, 1456 (2011).
 Effect of the damping function in dispersion corrected density functional 
 theory.
 https://doi.org/10.1002/jcc.21759

 S. Grimme, J. Antony, S. Ehrlich, H. Krieg.
 J. Chem. Phys. 132, 154104 (2010).
 A consistent and accurate ab initio parametrization of density functional 
 dispersion correction (DFT-D) for the 94 elements H-Pu.
 https://doi.org/10.1063/1.3382344

 J. VandeVondele, J. Hutter.
 J. Chem. Phys. 127, 114105 (2007).
 Gaussian basis sets for accurate calculations on molecular systems in gas and 
 condensed phases.
 https://doi.org/10.1063/1.2770708

 M. Krack.
 Theor. Chem. Acc. 114, 145-152 (2005).
 Pseudopotentials for H to Kr optimized for gradient-corrected 
 exchange-correlation functionals.
 https://doi.org/10.1007/s00214-005-0655-y

 M. Frigo, S. G. Johnson.
 Proc. IEEE 93, 216-231 (2005).
 The design and implementation of FFTW3.
 https://doi.org/10.1109/JPROC.2004.840301

 M. Krack, M. Parrinello.
 Phys. Chem. Chem. Phys. 2, 2105-2112 (2000).
 All-electron ab-initio molecular dynamics.
 https://doi.org/10.1039/b001167n

 G. Lippert, J. Hutter, M. Parrinello.
 Theor. Chem. Acc. 103, 124-140 (1999).
 The Gaussian and augmented-plane-wave density functional method for ab initio 
 molecular dynamics simulations.
 https://doi.org/10.1007/s002140050523

 C. Hartwigsen, S. Goedecker, J. Hutter.
 Phys. Rev. B 58, 3641-3662 (1998).
 Relativistic separable dual-space Gaussian pseudopotentials from H to Rn.
 https://doi.org/10.1103/PhysRevB.58.3641

 S. Goedecker, M. Teter, J. Hutter.
 Phys. Rev. B 54, 1703-1710 (1996).
 Separable dual-space Gaussian pseudopotentials.
 https://doi.org/10.1103/PhysRevB.54.1703

 C.-L. Fu, K.-M. Ho.
 Phys. Rev. B 28, 5480-5486 (1983).
 First-principles calculation of the equilibrium ground-state properties of 
 transition metals: Applications to Nb and Mo.
 https://doi.org/10.1103/PhysRevB.28.5480

 T. G. Worlton, J. L. Warren.
 Comput. Phys. Commun. 3, 88-117 (1972).
 Group-theoretical analysis of lattice vibrations.
 https://doi.org/10.1016/0010-4655(72)90058-6


 -------------------------------------------------------------------------------
 -                                                                             -
 -                                T I M I N G                                  -
 -                                                                             -
 -------------------------------------------------------------------------------
 SUBROUTINE                       CALLS  ASD         SELF TIME        TOTAL TIME
                                MAXIMUM       AVERAGE  MAXIMUM  AVERAGE  MAXIMUM
 CP2K                                 1  1.0    0.015    0.015 8285.741 8285.741
 qs_energies                          1  2.0    0.001    0.001 8285.328 8285.328
 scf_env_do_scf                       1  3.0    0.000    0.000 8284.494 8284.494
 scf_env_do_scf_inner_loop           33  4.0    0.010    0.010 8284.493 8284.493
 qs_ks_update_qs_env                 33  5.0    0.000    0.000 8232.598 8232.598
 rebuild_ks_matrix                   33  6.0    0.000    0.000 8232.276 8232.276
 qs_ks_build_kohn_sham_matrix        33  7.0    0.016    0.016 8232.275 8232.275
 calculate_vxc_atom                  33  8.0 7851.174 7851.174 8207.355 8207.355
 gaVxcgb_GC                         528  9.0  207.305  207.305  207.305  207.305
 -------------------------------------------------------------------------------

 The number of warnings for this run is : 0
 
 -------------------------------------------------------------------------------
  **** **** ******  **  PROGRAM ENDED AT                 2026-09-01 14:13:30.459
 ***** ** ***  *** **   PROGRAM RAN ON                                spark-c86c
 **    ****   ******    PROGRAM RAN BY                                  kuehne88
 ***** **    ** ** **   PROGRAM PROCESS ID                               2654802
  **** **  *******  **  PROGRAM STOPPED IN /home/kuehne88/work/native-skala-spar
                                           k/goldzak12/runs/production/hybrid-on
                                           e-center/MgS/v10
