 DBCSR| CPU Multiplication driver                                           BLAS (U)
 DBCSR| Multrec recursion limit                                              512 (U)
 DBCSR| Multiplication stack size                                           1000 (D)
 DBCSR| Maximum elements for images                                    UNLIMITED (U)
 DBCSR| Multiplicative factor virtual images                                   1 (U)
 DBCSR| Use multiplication densification                                       T (D)
 DBCSR| Multiplication size stacks                                             3 (U)
 DBCSR| Use memory pool for CPU allocation                                     F (U)
 DBCSR| OMP: Current number of threads                                        32
 DBCSR| OMP: Max number of threads                                            32
 DBCSR| Split modifier for TAS multiplication algorithm                  1.0E+00 (U)


  **** **** ******  **  PROGRAM STARTED AT               2026-09-15 16:02:52.279
 ***** ** ***  *** **   PROGRAM STARTED ON                                cge003
 **    ****   ******    PROGRAM STARTED BY                              kuehne88
 ***** **    ** ** **   PROGRAM PROCESS ID                                952166
  **** **  *******  **  PROGRAM STARTED IN /bigdata/casus/fwuk/shared/kuehne88-n
                                           ative-skala/diet-ae-basis-controls-20
                                           260915/runs/RG18-1/ne/tzvpp

 CP2K| version string:                 CP2K version 2026.2 (Development Version)
 CP2K| source code revision number:                                   37aedacbb3
 CP2K| cp2kflags: omp fftw3 spglib openblas libtorch libtorch_cuda              
 CP2K| is freely available from                            https://www.cp2k.org/
 CP2K| Program compiled at                                   2026-09-08 17:20:25
 CP2K| Program compiled on                                                ctu003
 CP2K| Program compiled for                                               x86_64
 CP2K| Data directory path            /home/kuehne88/cp2k-native-skala/cp2k/data
 CP2K| Input file name                                          actual-input.inp

 GLOBAL| Force Environment number                                              1
 GLOBAL| Basis set file name                             BASIS_MOLOPT_UZH_2026.2
 GLOBAL| Potential file name                                POTENTIAL_UZH_2026.2
 GLOBAL| MM Potential file name                                     MM_POTENTIAL
 GLOBAL| Coordinate file name                                      __STD_INPUT__
 GLOBAL| Method name                                                        CP2K
 GLOBAL| Project name                                      diet_d078cfcbf6_tzvpp
 GLOBAL| Run type                                                         ENERGY
 GLOBAL| FFT library                                                       FFTW3
 GLOBAL| Diagonalization library                                       ScaLAPACK
 GLOBAL| Cholesky decomposition library                                ScaLAPACK
 GLOBAL| DGEMM library                                                      BLAS
 GLOBAL| Direct generalized diagonalization requested                          F
 GLOBAL| Orthonormality check for eigenvectors                          DISABLED
 GLOBAL| Matrix multiplication library                                 ScaLAPACK
 GLOBAL| All-to-all communication in single precision                          F
 GLOBAL| Grid backend                                                       AUTO
 GLOBAL| Global print level                                               MEDIUM
 GLOBAL| MPI I/O enabled                                                       T
 GLOBAL| Total number of message passing processes                             1
 GLOBAL| Number of distributed systems (nodes)                                 1
 GLOBAL| Number of threads for this process                                   32
 GLOBAL| This output is from process                                           0
 GLOBAL| OpenMP stack size per thread (OMP_STACKSIZE)                       256M
 GLOBAL| CPU model name                          AMD EPYC 9654 96-Core Processor

 MEMORY| system memory details [Kb]
 MEMORY|                        rank 0           min           max       average
 MEMORY| MemTotal           1584927776    1584927776    1584927776    1584927776
 MEMORY| MemFree            1495775828    1495775828    1495775828    1495775828
 MEMORY| Buffers                     0             0             0             0
 MEMORY| Cached                7723532       7723532       7723532       7723532
 MEMORY| Slab                  2634968       2634968       2634968       2634968
 MEMORY| SReclaimable           488944        488944        488944        488944
 MEMORY| MemLikelyFree      1503988304    1503988304    1503988304    1503988304


 *** Fundamental physical constants (SI units) ***

 *** Literature: B. J. Mohr and B. N. Taylor,
 ***             CODATA recommended values of the fundamental physical
 ***             constants: 2006, Web Version 5.1
 ***             http://physics.nist.gov/constants

 Speed of light in vacuum [m/s]                             2.99792458000000E+08
 Magnetic constant or permeability of vacuum [N/A**2]       1.25663706143592E-06
 Electric constant or permittivity of vacuum [F/m]          8.85418781762039E-12
 Planck constant (h) [J*s]                                  6.62606896000000E-34
 Planck constant (h-bar) [J*s]                              1.05457162825177E-34
 Elementary charge [C]                                      1.60217648700000E-19
 Electron mass [kg]                                         9.10938215000000E-31
 Electron g factor [ ]                                     -2.00231930436220E+00
 Proton mass [kg]                                           1.67262163700000E-27
 Fine-structure constant                                    7.29735253760000E-03
 Rydberg constant [1/m]                                     1.09737315685270E+07
 Avogadro constant [1/mol]                                  6.02214179000000E+23
 Boltzmann constant [J/K]                                   1.38065040000000E-23
 Atomic mass unit [kg]                                      1.66053878200000E-27
 Bohr radius [m]                                            5.29177208590000E-11

 *** Conversion factors ***

 [u] -> [a.u.]                                              1.82288848426455E+03
 [Angstrom] -> [Bohr] = [a.u.]                              1.88972613288564E+00
 [a.u.] = [Bohr] -> [Angstrom]                              5.29177208590000E-01
 [a.u.] -> [s]                                              2.41888432650478E-17
 [a.u.] -> [fs]                                             2.41888432650478E-02
 [a.u.] -> [J]                                              4.35974393937059E-18
 [a.u.] -> [N]                                              8.23872205491840E-08
 [a.u.] -> [K]                                              3.15774647902944E+05
 [a.u.] -> [kJ/mol]                                         2.62549961709828E+03
 [a.u.] -> [kcal/mol]                                       6.27509468713739E+02
 [a.u.] -> [Pa]                                             2.94210107994716E+13
 [a.u.] -> [bar]                                            2.94210107994716E+08
 [a.u.] -> [atm]                                            2.90362800883016E+08
 [a.u.] -> [eV]                                             2.72113838565563E+01
 [a.u.] -> [Hz]                                             6.57968392072181E+15
 [a.u.] -> [1/cm] (wave numbers)                            2.19474631370540E+05
 [a.u./Bohr**2] -> [1/cm]                                   5.14048714338585E+03
 

 CELL| Volume [angstrom^3]:                                         15625.000000
 CELL| Vector a [angstrom]:      25.000     0.000     0.000   |a| =    25.000000
 CELL| Vector b [angstrom]:       0.000    25.000     0.000   |b| =    25.000000
 CELL| Vector c [angstrom]:       0.000     0.000    25.000   |c| =    25.000000
 CELL| Angle (b,c), alpha [degree]:                                    90.000000
 CELL| Angle (a,c), beta  [degree]:                                    90.000000
 CELL| Angle (a,b), gamma [degree]:                                    90.000000
 CELL| Numerically orthorhombic:                                             YES
 CELL| Periodicity                                                          NONE

 CELL_REF| Volume [angstrom^3]:                                     15625.000000
 CELL_REF| Vector a [angstrom    25.000     0.000     0.000   |a| =    25.000000
 CELL_REF| Vector b [angstrom     0.000    25.000     0.000   |b| =    25.000000
 CELL_REF| Vector c [angstrom     0.000     0.000    25.000   |c| =    25.000000
 CELL_REF| Angle (b,c), alpha [degree]:                                90.000000
 CELL_REF| Angle (a,c), beta  [degree]:                                90.000000
 CELL_REF| Angle (a,b), gamma [degree]:                                90.000000
 CELL_REF| Numerically orthorhombic:                                         YES
 CELL_REF| Periodicity                                                      NONE

 GENERATE|  Preliminary Number of Bonds generated:                             0
 GENERATE|  Achieved consistency in connectivity generation.

 *******************************************************************************
 *******************************************************************************
 **                                                                           **
 **     #####                         ##              ##                      **
 **    ##   ##            ##          ##              ##                      **
 **   ##     ##                       ##            ######                    **
 **   ##     ##  ##   ##  ##   #####  ##  ##   ####   ##    #####    #####    **
 **   ##     ##  ##   ##  ##  ##      ## ##   ##      ##   ##   ##  ##   ##   **
 **   ##  ## ##  ##   ##  ##  ##      ####     ###    ##   ######   ######    **
 **    ##  ###   ##   ##  ##  ##      ## ##      ##   ##   ##       ##        **
 **     #######   #####   ##   #####  ##  ##  ####    ##    #####   ##        **
 **           ##                                                    ##        **
 **                                                                           **
 **                                                ... make the atoms dance   **
 **                                                                           **
 **            Copyright (C) by CP2K developers group (2000-2026)             **
 **                      J. Chem. Phys. 152, 194103 (2020)                    **
 **                                                                           **
 *******************************************************************************

 DFT| Spin restricted Kohn-Sham (RKS) calculation                            RKS
 DFT| Multiplicity                                                             1
 DFT| Number of spin states                                                    1
 DFT| Charge                                                                   0
 DFT| Self-interaction correction (SIC)                                       NO
 DFT| Cutoffs: density                                              1.000000E-10
 DFT|          gradient                                             1.000000E-10
 DFT|          tau                                                  1.000000E-10
 DFT|          cutoff_smoothing_range                               0.000000E+00
 DFT| XC density smoothing                                                  NONE
 DFT| XC derivatives                                                          PW

 FUNCTIONAL| GAUXC:
 FUNCTIONAL| Functional computed by GauXC Skala model SKALA                     

 vdW POTENTIAL|                                                   Pair Potential
 vdW POTENTIAL|          DFT-D3 (Version 3.1)
 vdW POTENTIAL|          Potential Form: S. Grimme et al, JCP 132: 154104 (2010)
 vdW POTENTIAL|          BJ Damping: S. Grimme et al, JCC 32: 1456 (2011)
 vdW POTENTIAL|          Cutoff Radius [Bohr]:                             37.79
 vdW POTENTIAL|          s6 Scaling Factor:                               1.0000
 vdW POTENTIAL|          a1 Damping Factor:                               0.3981
 vdW POTENTIAL|          s8 Scaling Factor:                               1.9889
 vdW POTENTIAL|          a2 Damping Factor:                               4.4211
 vdW POTENTIAL|          Cutoff for CN calculation:                   0.1000E-05

 QS| Method:                                                                GAPW
 QS| Density plane wave grid type                        NON-SPHERICAL FULLSPACE
 QS| Number of grid levels:                                                    5
 QS| Density cutoff [a.u.]:                                                320.0
 QS| Multi grid cutoff [a.u.]: 1) grid level                               320.0
 QS|                           2) grid level                               106.7
 QS|                           3) grid level                                35.6
 QS|                           4) grid level                                11.9
 QS|                           5) grid level                                 4.0
 QS| Grid level progression factor:                                          3.0
 QS| Relative density cutoff [a.u.]:                                        30.0
 QS| Interaction thresholds: eps_pgf_orb:                                1.0E-07
 QS|                         eps_filter_matrix:                          0.0E+00
 QS|                         eps_core_charge:                            1.0E-16
 QS|                         eps_rho_gspace:                             1.0E-14
 QS|                         eps_rho_rspace:                             1.0E-14
 QS|                         eps_gvg_rspace:                             1.0E-07
 QS|                         eps_ppl:                                    1.0E-02
 QS|                         eps_ppnl:                                   1.0E-09
 QS| GAPW|      XC integration using accurate scheme: Ref. exponent     6.000000
 QS| GAPW|      One center basis extended with primitives (small:s)
 QS| GAPW|                   eps_fit:                                    1.0E-04
 QS| GAPW|                   eps_iso:                                    1.0E-12
 QS| GAPW|                   eps_svd:                                    1.0E-08
 QS| GAPW|                   eps_cpc:                                    1.0E-14
 QS| GAPW|   atom-r-grid: quadrature:                                     GC_LOG
 QS| GAPW|      atom-s-grid:  max l :                                          6
 QS| GAPW|      max_l_rho0 :                                                   4


 ATOMIC KIND INFORMATION

  1. Atomic kind: Ne                                    Number of atoms:       1

     Orbital Basis Set                                       TZVPP-MOLOPT-PBE-ae

       Number of orbital shell sets:                                           3
       Number of orbital shells:                                              11
       Number of primitive Cartesian functions:                               14
       Number of Cartesian basis functions:                                   36
       Number of spherical basis functions:                                   31
       Norm type:                                                              2

       Normalised Cartesian orbitals:

                        Set   Shell   Orbital            Exponent    Coefficient

                          1       1    1s            45069.563080       1.598686
                                                      6755.976770       2.411937
                                                      1537.582966       4.440003
                                                       435.609766       6.728756
                                                       142.111689       8.996541
                                                        51.715998       9.018961

                          2       1    1s               99.424302       0.580095
                                                        21.924191       4.815734
                                                         8.052049       1.899148
                                                         1.812539      -0.685063

                          2       2    2px              99.424302      16.122799
                                                        21.924191      14.720551
                                                         8.052049       9.573131
                                                         1.812539       1.449822
                          2       2    2py              99.424302      16.122799
                                                        21.924191      14.720551
                                                         8.052049       9.573131
                                                         1.812539       1.449822
                          2       2    2pz              99.424302      16.122799
                                                        21.924191      14.720551
                                                         8.052049       9.573131
                                                         1.812539       1.449822

                          3       1    1s                4.656439      -0.290332
                                                         1.940818       1.014974
                                                         0.622392       0.221067
                                                         0.199299      -0.060432

                          3       2    2s                4.656439       1.107234
                                                         1.940818      -2.465587
                                                         0.622392       1.560320
                                                         0.199299      -0.375499

                          3       3    3s                4.656439       0.162996
                                                         1.940818       0.036051
                                                         0.622392       0.183404
                                                         0.199299       0.134561

                          3       4    2px               4.656439       1.753765
                                                         1.940818       1.105435
                                                         0.622392       0.336269
                                                         0.199299       0.056815
                          3       4    2py               4.656439       1.753765
                                                         1.940818       1.105435
                                                         0.622392       0.336269
                                                         0.199299       0.056815
                          3       4    2pz               4.656439       1.753765
                                                         1.940818       1.105435
                                                         0.622392       0.336269
                                                         0.199299       0.056815

                          3       5    3px               4.656439       1.668512
                                                         1.940818      -0.965508
                                                         0.622392      -0.581230
                                                         0.199299       0.243567
                          3       5    3py               4.656439       1.668512
                                                         1.940818      -0.965508
                                                         0.622392      -0.581230
                                                         0.199299       0.243567
                          3       5    3pz               4.656439       1.668512
                                                         1.940818      -0.965508
                                                         0.622392      -0.581230
                                                         0.199299       0.243567

                          3       6    3dx2              4.656439      20.145092
                                                         1.940818       0.930895
                                                         0.622392       0.025662
                                                         0.199299       0.014818
                          3       6    3dxy              4.656439      34.892323
                                                         1.940818       1.612358
                                                         0.622392       0.044447
                                                         0.199299       0.025665
                          3       6    3dxz              4.656439      34.892323
                                                         1.940818       1.612358
                                                         0.622392       0.044447
                                                         0.199299       0.025665
                          3       6    3dy2              4.656439      20.145092
                                                         1.940818       0.930895
                                                         0.622392       0.025662
                                                         0.199299       0.014818
                          3       6    3dyz              4.656439      34.892323
                                                         1.940818       1.612358
                                                         0.622392       0.044447
                                                         0.199299       0.025665
                          3       6    3dz2              4.656439      20.145092
                                                         1.940818       0.930895
                                                         0.622392       0.025662
                                                         0.199299       0.014818

                          3       7    4dx2              4.656439      -3.876107
                                                         1.940818       3.349796
                                                         0.622392       0.413886
                                                         0.199299      -0.000861
                          3       7    4dxy              4.656439      -6.713614
                                                         1.940818       5.802018
                                                         0.622392       0.716872
                                                         0.199299      -0.001491
                          3       7    4dxz              4.656439      -6.713614
                                                         1.940818       5.802018
                                                         0.622392       0.716872
                                                         0.199299      -0.001491
                          3       7    4dy2              4.656439      -3.876107
                                                         1.940818       3.349796
                                                         0.622392       0.413886
                                                         0.199299      -0.000861
                          3       7    4dyz              4.656439      -6.713614
                                                         1.940818       5.802018
                                                         0.622392       0.716872
                                                         0.199299      -0.001491
                          3       7    4dz2              4.656439      -3.876107
                                                         1.940818       3.349796
                                                         0.622392       0.413886
                                                         0.199299      -0.000861

                          3       8    4fx3              4.656439      37.046263
                                                         1.940818       1.767619
                                                         0.622392       0.020450
                                                         0.199299      -0.004511
                          3       8    4fx2y             4.656439      82.837962
                                                         1.940818       3.952516
                                                         0.622392       0.045727
                                                         0.199299      -0.010088
                          3       8    4fx2z             4.656439      82.837962
                                                         1.940818       3.952516
                                                         0.622392       0.045727
                                                         0.199299      -0.010088
                          3       8    4fxy2             4.656439      82.837962
                                                         1.940818       3.952516
                                                         0.622392       0.045727
                                                         0.199299      -0.010088
                          3       8    4fxyz             4.656439     143.479560
                                                         1.940818       6.845959
                                                         0.622392       0.079201
                                                         0.199299      -0.017473
                          3       8    4fxz2             4.656439      82.837962
                                                         1.940818       3.952516
                                                         0.622392       0.045727
                                                         0.199299      -0.010088
                          3       8    4fy3              4.656439      37.046263
                                                         1.940818       1.767619
                                                         0.622392       0.020450
                                                         0.199299      -0.004511
                          3       8    4fy2z             4.656439      82.837962
                                                         1.940818       3.952516
                                                         0.622392       0.045727
                                                         0.199299      -0.010088
                          3       8    4fyz2             4.656439      82.837962
                                                         1.940818       3.952516
                                                         0.622392       0.045727
                                                         0.199299      -0.010088
                          3       8    4fz3              4.656439      37.046263
                                                         1.940818       1.767619
                                                         0.622392       0.020450
                                                         0.199299      -0.004511

       Atomic covalent radius [Angstrom]:                                  0.710

       Atomic van der Waals radius [Angstrom]:                             1.540

     The atoms of this atomic kind are PAW atoms (GAPW):
       Hard Gaussian function radius:                                      1.520
       Rho0 radius:                                                        1.520
       Maximum GTO radius used for PAW projector construction:            24.566

     GAPW Soft Basis Set                                TZVPP-MOLOPT-PBE-ae_soft

       Number of orbital shell sets:                                           3
       Number of orbital shells:                                              11
       Number of primitive Cartesian functions:                                4
       Number of Cartesian basis functions:                                   36
       Number of spherical basis functions:                                   31
       Norm type:                                                              2

       Normalised Cartesian orbitals:

                        Set   Shell   Orbital            Exponent    Coefficient

                          1       1    1s         

                          2       1    1s                1.812539      -0.685063

                          2       2    2px               1.812539       1.449822
                          2       2    2py               1.812539       1.449822
                          2       2    2pz               1.812539       1.449822

                          3       1    1s                1.940818       1.014974
                                                         0.622392       0.221067
                                                         0.199299      -0.060432

                          3       2    2s                1.940818      -2.465587
                                                         0.622392       1.560320
                                                         0.199299      -0.375499

                          3       3    3s                1.940818       0.036051
                                                         0.622392       0.183404
                                                         0.199299       0.134561

                          3       4    2px               1.940818       1.105435
                                                         0.622392       0.336269
                                                         0.199299       0.056815
                          3       4    2py               1.940818       1.105435
                                                         0.622392       0.336269
                                                         0.199299       0.056815
                          3       4    2pz               1.940818       1.105435
                                                         0.622392       0.336269
                                                         0.199299       0.056815

                          3       5    3px               1.940818      -0.965508
                                                         0.622392      -0.581230
                                                         0.199299       0.243567
                          3       5    3py               1.940818      -0.965508
                                                         0.622392      -0.581230
                                                         0.199299       0.243567
                          3       5    3pz               1.940818      -0.965508
                                                         0.622392      -0.581230
                                                         0.199299       0.243567

                          3       6    3dx2              1.940818       0.930895
                                                         0.622392       0.025662
                                                         0.199299       0.014818
                          3       6    3dxy              1.940818       1.612358
                                                         0.622392       0.044447
                                                         0.199299       0.025665
                          3       6    3dxz              1.940818       1.612358
                                                         0.622392       0.044447
                                                         0.199299       0.025665
                          3       6    3dy2              1.940818       0.930895
                                                         0.622392       0.025662
                                                         0.199299       0.014818
                          3       6    3dyz              1.940818       1.612358
                                                         0.622392       0.044447
                                                         0.199299       0.025665
                          3       6    3dz2              1.940818       0.930895
                                                         0.622392       0.025662
                                                         0.199299       0.014818

                          3       7    4dx2              1.940818       3.349796
                                                         0.622392       0.413886
                                                         0.199299      -0.000861
                          3       7    4dxy              1.940818       5.802018
                                                         0.622392       0.716872
                                                         0.199299      -0.001491
                          3       7    4dxz              1.940818       5.802018
                                                         0.622392       0.716872
                                                         0.199299      -0.001491
                          3       7    4dy2              1.940818       3.349796
                                                         0.622392       0.413886
                                                         0.199299      -0.000861
                          3       7    4dyz              1.940818       5.802018
                                                         0.622392       0.716872
                                                         0.199299      -0.001491
                          3       7    4dz2              1.940818       3.349796
                                                         0.622392       0.413886
                                                         0.199299      -0.000861

                          3       8    4fx3              1.940818       1.767619
                                                         0.622392       0.020450
                                                         0.199299      -0.004511
                          3       8    4fx2y             1.940818       3.952516
                                                         0.622392       0.045727
                                                         0.199299      -0.010088
                          3       8    4fx2z             1.940818       3.952516
                                                         0.622392       0.045727
                                                         0.199299      -0.010088
                          3       8    4fxy2             1.940818       3.952516
                                                         0.622392       0.045727
                                                         0.199299      -0.010088
                          3       8    4fxyz             1.940818       6.845959
                                                         0.622392       0.079201
                                                         0.199299      -0.017473
                          3       8    4fxz2             1.940818       3.952516
                                                         0.622392       0.045727
                                                         0.199299      -0.010088
                          3       8    4fy3              1.940818       1.767619
                                                         0.622392       0.020450
                                                         0.199299      -0.004511
                          3       8    4fy2z             1.940818       3.952516
                                                         0.622392       0.045727
                                                         0.199299      -0.010088
                          3       8    4fyz2             1.940818       3.952516
                                                         0.622392       0.045727
                                                         0.199299      -0.010088
                          3       8    4fz3              1.940818       1.767619
                                                         0.622392       0.020450
                                                         0.199299      -0.004511

     AE Potential information for                                            ALL

       Description:                                       All-electron potential
                                          Krack, Parrinello, PCCP 2, 2105 (2000)

       Gaussian exponent of the core charge distribution:              13.850416
       Electronic configuration (s p d ...):                           4   6   0


 MOLECULE KIND INFORMATION


 All atoms are their own molecule, skipping detailed information


 TOTAL NUMBERS AND MAXIMUM NUMBERS

  Total number of            - Atomic kinds:                                   1
                             - Atoms:                                          1
                             - Shell sets:                                     3
                             - Shells:                                        11
                             - Primitive Cartesian functions:                 14
                             - Cartesian basis functions:                     36
                             - Spherical basis functions:                     31

  Maximum angular momentum of the orbital basis functions:                     3


 MODULE QUICKSTEP: ATOMIC COORDINATES IN ANGSTROM

   Atom Kind Element         X             Y             Z       Z(eff)     Mass
      1    1 Ne   10     12.500000     12.500000     12.500000  10.0000  20.1797



 SCF PARAMETERS         Density guess:                                    ATOMIC
                        --------------------------------------------------------
                        max_scf:                                             200
                        max_scf_history:                                       0
                        max_diis:                                              4
                        --------------------------------------------------------
                        eps_scf:                                        5.00E-07
                        eps_scf_history:                                0.00E+00
                        eps_diis:                                       0.00E+00
                        eps_eigval:                                     1.00E-05
                        --------------------------------------------------------
                        level_shift [a.u.]:                             0.000000
                        --------------------------------------------------------
                        Outer loop SCF in use 
                        No variables optimised in outer loop
                        eps_scf                                         5.00E-07
                        max_scf                                               20
                        No outer loop optimization
                        step_size                                       5.00E-01

 PW_GRID| Information for grid number                                          1
 PW_GRID| Cutoff [a.u.]                                                    320.0
 PW_GRID| spherical cutoff:                                                   NO
 PW_GRID|   Bounds   1           -192     191                Points:         384
 PW_GRID|   Bounds   2           -192     191                Points:         384
 PW_GRID|   Bounds   3           -192     191                Points:         384
 PW_GRID| Volume element (a.u.^3)  0.1862E-02     Volume (a.u.^3)    105442.7279
 PW_GRID| Grid span                                                    FULLSPACE

 PW_GRID| Information for grid number                                          2
 PW_GRID| Number of the reference grid                                         1
 PW_GRID| Cutoff [a.u.]                                                    106.7
 PW_GRID| spherical cutoff:                                                   NO
 PW_GRID|   Bounds   1           -112     112                Points:         225
 PW_GRID|   Bounds   2           -112     112                Points:         225
 PW_GRID|   Bounds   3           -112     112                Points:         225
 PW_GRID| Volume element (a.u.^3)  0.9257E-02     Volume (a.u.^3)    105442.7279
 PW_GRID| Grid span                                                    FULLSPACE

 PW_GRID| Information for grid number                                          3
 PW_GRID| Number of the reference grid                                         1
 PW_GRID| Cutoff [a.u.]                                                     35.6
 PW_GRID| spherical cutoff:                                                   NO
 PW_GRID|   Bounds   1            -64      63                Points:         128
 PW_GRID|   Bounds   2            -64      63                Points:         128
 PW_GRID|   Bounds   3            -64      63                Points:         128
 PW_GRID| Volume element (a.u.^3)  0.5028E-01     Volume (a.u.^3)    105442.7279
 PW_GRID| Grid span                                                    FULLSPACE

 PW_GRID| Information for grid number                                          4
 PW_GRID| Number of the reference grid                                         1
 PW_GRID| Cutoff [a.u.]                                                     11.9
 PW_GRID| spherical cutoff:                                                   NO
 PW_GRID|   Bounds   1            -37      37                Points:          75
 PW_GRID|   Bounds   2            -37      37                Points:          75
 PW_GRID|   Bounds   3            -37      37                Points:          75
 PW_GRID| Volume element (a.u.^3)  0.2499         Volume (a.u.^3)    105442.7279
 PW_GRID| Grid span                                                    FULLSPACE

 PW_GRID| Information for grid number                                          5
 PW_GRID| Number of the reference grid                                         1
 PW_GRID| Cutoff [a.u.]                                                      4.0
 PW_GRID| spherical cutoff:                                                   NO
 PW_GRID|   Bounds   1            -22      22                Points:          45
 PW_GRID|   Bounds   2            -22      22                Points:          45
 PW_GRID|   Bounds   3            -22      22                Points:          45
 PW_GRID| Volume element (a.u.^3)   1.157         Volume (a.u.^3)    105442.7279
 PW_GRID| Grid span                                                    FULLSPACE

 POISSON| Solver                                                        ANALYTIC
 POISSON| Periodicity                                                       NONE

 RS_GRID| Information for grid number                                          1
 RS_GRID|   Bounds   1           -192     191                Points:         384
 RS_GRID|   Bounds   2           -192     191                Points:         384
 RS_GRID|   Bounds   3           -192     191                Points:         384

 RS_GRID| Information for grid number                                          2
 RS_GRID|   Bounds   1           -112     112                Points:         225
 RS_GRID|   Bounds   2           -112     112                Points:         225
 RS_GRID|   Bounds   3           -112     112                Points:         225

 RS_GRID| Information for grid number                                          3
 RS_GRID|   Bounds   1            -64      63                Points:         128
 RS_GRID|   Bounds   2            -64      63                Points:         128
 RS_GRID|   Bounds   3            -64      63                Points:         128

 RS_GRID| Information for grid number                                          4
 RS_GRID|   Bounds   1            -37      37                Points:          75
 RS_GRID|   Bounds   2            -37      37                Points:          75
 RS_GRID|   Bounds   3            -37      37                Points:          75

 RS_GRID| Information for grid number                                          5
 RS_GRID|   Bounds   1            -22      22                Points:          45
 RS_GRID|   Bounds   2            -22      22                Points:          45
 RS_GRID|   Bounds   3            -22      22                Points:          45

 Extrapolation method: initial_guess

 Atomic guess: The first density matrix is obtained in terms of atomic orbitals
               and electronic configurations assigned to each atomic kind

 Guess for atomic kind: Ne

 Electronic structure
    Total number of core electrons                                          0.00
    Total number of valence electrons                                      10.00
    Total number of electrons                                              10.00
    Multiplicity                                                   not specified
    S      2.00  2.00
    P      6.00


 *******************************************************************************
                  Iteration          Convergence                     Energy [au]
 *******************************************************************************
                          1         1.70143                    -128.076357144589
                          2         1.39624                    -128.139978340888
                          3        0.143004                    -128.220683994542
                          4        0.196126E-02                -128.221809879679
                          5        0.199149E-04                -128.221810036525
                          6        0.100310E-05                -128.221810036555
                          7        0.397453E-06                -128.221810036555

 Energy components [Hartree]           Total Energy ::         -128.221810036555
                                        Band Energy ::          -66.174936634029
                                     Kinetic Energy ::          127.801261021572
                                   Potential Energy ::         -256.023071058127
                                      Virial (-V/T) ::            2.003290648399
                                        Core Energy ::         -182.294210036515
                                          XC Energy ::          -11.716366363488
                                     Coulomb Energy ::           65.788766363448

 Orbital energies  State     L     Occupation   Energy[a.u.]          Energy[eV]

                       1     0          2.000     -30.293875         -824.338254
                       2     0          2.000      -1.316973          -35.836645

                       1     1          6.000      -0.492207          -13.393634


 Total Electron Density at R=0:                                       603.617482
 Re-scaling the density matrix to get the right number of electrons
                  # Electrons              Trace(P)               Scaling factor
                           10                10.000                        1.000

 Number of electrons:                                                         10
 Number of occupied orbitals:                                                  5
 Number of molecular orbitals:                                                 5

 Number of orbital functions:                                                 31
 Number of independent orbital functions:                                     31


 SCF WAVEFUNCTION OPTIMIZATION

  ----------------------------------- OT ---------------------------------------
  Minimizer      : DIIS                : direct inversion
                                         in the iterative subspace
                                         using   7 DIIS vectors
                                         safer DIIS on
  Preconditioner : FULL_ALL            : diagonalization, state selective
  Precond_solver : DEFAULT
  stepsize       :    0.10000000                  energy_gap     :    0.00100000
  eps_taylor     :   0.10000E-15                  max_taylor     :             4
  ----------------------------------- OT ---------------------------------------

  Step     Update method      Time    Convergence         Total energy    Change
  ------------------------------------------------------------------------------
 SKALA_GPW| Atom-composite cross support/maxima   2.762835939863E+00   0.000000000000E+00   0.000000000000E+00   0.000000000000E+00
 SKALA_GPW| Active atom-composite XC energy  -1.2420286760316149E+01
 SKALA_GPW| Active atom-composite electrons   9.9999999410535256E+00
 SKALA_GPW| Active atom-composite density range  -5.1095804820013821E-11   3.0180874100077881E+02
 SKALA_GPW| Active atom-composite tau range  -5.8016852151678671E-10   1.8196119554264773E+04
 SKALA_GPW| Active atom-composite tau integral   1.2780126150275346E+02
 SKALA_GPW| Active atom-composite max gradient   6.3383521676252612E+03
     1 OT DIIS     0.10E+00   22.2     0.01456760      -128.9275414396 -1.29E+02
 SKALA_GPW| Atom-composite cross support/maxima   2.762835939863E+00   0.000000000000E+00   0.000000000000E+00   0.000000000000E+00
 SKALA_GPW| Active atom-composite XC energy  -1.2458664133767890E+01
 SKALA_GPW| Active atom-composite electrons   9.9999999405777107E+00
 SKALA_GPW| Active atom-composite density range  -5.1391287364420180E-11   3.0306733662375183E+02
 SKALA_GPW| Active atom-composite tau range  -5.9001631656927714E-10   1.8313158909960042E+04
 SKALA_GPW| Active atom-composite tau integral   1.2825117630976783E+02
 SKALA_GPW| Active atom-composite max gradient   6.3715634784796357E+03
     2 OT DIIS     0.10E+00   25.1     0.00677010      -128.9299128555 -2.37E-03
 SKALA_GPW| Atom-composite cross support/maxima   2.762835939863E+00   0.000000000000E+00   0.000000000000E+00   0.000000000000E+00
 SKALA_GPW| Active atom-composite XC energy  -1.2482267666758926E+01
 SKALA_GPW| Active atom-composite electrons   9.9999999402259370E+00
 SKALA_GPW| Active atom-composite density range  -5.1661767366858658E-11   3.0424414561709619E+02
 SKALA_GPW| Active atom-composite tau range  -5.9742591808195954E-10   1.8421829682714346E+04
 SKALA_GPW| Active atom-composite tau integral   1.2856761410126390E+02
 SKALA_GPW| Active atom-composite max gradient   6.4028170925515033E+03
     3 OT DIIS     0.10E+00   24.9     0.00185678      -128.9306344149 -7.22E-04
 SKALA_GPW| Atom-composite cross support/maxima   2.762835939863E+00   0.000000000000E+00   0.000000000000E+00   0.000000000000E+00
 SKALA_GPW| Active atom-composite XC energy  -1.2484201320042917E+01
 SKALA_GPW| Active atom-composite electrons   9.9999999401433364E+00
 SKALA_GPW| Active atom-composite density range  -5.1768764465109289E-11   3.0471386164401707E+02
 SKALA_GPW| Active atom-composite tau range  -5.9919104016019299E-10   1.8464691446138899E+04
 SKALA_GPW| Active atom-composite tau integral   1.2863024113707007E+02
 SKALA_GPW| Active atom-composite max gradient   6.4154085566378662E+03
     4 OT DIIS     0.10E+00   24.9     0.00010555      -128.9306970087 -6.26E-05
 SKALA_GPW| Atom-composite cross support/maxima   2.762835939863E+00   0.000000000000E+00   0.000000000000E+00   0.000000000000E+00
 SKALA_GPW| Active atom-composite XC energy  -1.2483666328788157E+01
 SKALA_GPW| Active atom-composite electrons   9.9999999401508575E+00
 SKALA_GPW| Active atom-composite density range  -5.1761743910800839E-11   3.0470682478066311E+02
 SKALA_GPW| Active atom-composite tau range  -5.9896214971420262E-10   1.8464041956626752E+04
 SKALA_GPW| Active atom-composite tau integral   1.2862609143243091E+02
 SKALA_GPW| Active atom-composite max gradient   6.4152260859366434E+03
     5 OT DIIS     0.10E+00   24.4     0.00005277      -128.9306970681 -5.94E-08
 SKALA_GPW| Atom-composite cross support/maxima   2.762835939863E+00   0.000000000000E+00   0.000000000000E+00   0.000000000000E+00
 SKALA_GPW| Active atom-composite XC energy  -1.2483873434114614E+01
 SKALA_GPW| Active atom-composite electrons   9.9999999401490864E+00
 SKALA_GPW| Active atom-composite density range  -5.1761125883065795E-11   3.0471417297327423E+02
 SKALA_GPW| Active atom-composite tau range  -5.9896650607788054E-10   1.8464737973197069E+04
 SKALA_GPW| Active atom-composite tau integral   1.2862903869255737E+02
 SKALA_GPW| Active atom-composite max gradient   6.4154197761995338E+03
     6 OT DIIS     0.10E+00   25.2     0.00000522      -128.9306971041 -3.61E-08
 SKALA_GPW| Atom-composite cross support/maxima   2.762835939863E+00   0.000000000000E+00   0.000000000000E+00   0.000000000000E+00
 SKALA_GPW| Active atom-composite XC energy  -1.2483893697909316E+01
 SKALA_GPW| Active atom-composite electrons   9.9999999401481627E+00
 SKALA_GPW| Active atom-composite density range  -5.1761394987424588E-11   3.0471403610778998E+02
 SKALA_GPW| Active atom-composite tau range  -5.9897482942241624E-10   1.8464723741387759E+04
 SKALA_GPW| Active atom-composite tau integral   1.2862912150598049E+02
 SKALA_GPW| Active atom-composite max gradient   6.4154157113986812E+03
     7 OT DIIS     0.10E+00   25.0     0.00000019      -128.9306971887 -8.45E-08

  *** SCF run converged in     7 steps ***


  Electronic density on regular grids:         -6.5526462019        3.4473537981
  Core density on regular grids:               10.0000000000        0.0000000000
  Hard and soft densities (Lebedev):          -10.0000000000       -6.5526462019
  Total Rho_soft + Rho1_hard - Rho1_soft      -10.0000000000
  Total charge density (r-space):               0.0000000000
  Total Rho_soft + Rho0_soft (g-space):        -0.0000000031

  Overlap energy of the core charge distribution:               0.00000000000000
  Self energy of the core charge distribution:               -148.47094303888323
  Core Hamiltonian energy:                                      0.72324877716987
  Hartree energy:                                              13.56796990756933
  Exchange-correlation energy:                                  0.00000000000000

  GAPW| Exc from hard and soft atomic rho1:                   -12.48389369790932
  GAPW| local Eh = 1 center integrals:                         17.73292086338281

  Total energy:                                              -128.93069718867054

  outer SCF iter =    1 RMS gradient =   0.19E-06 energy =       -128.9306971887
  outer SCF loop converged in   1 iterations or    7 steps


 !-----------------------------------------------------------------------------!
                     Mulliken Population Analysis

 #  Atom  Element  Kind  Atomic population                           Net charge
       1     Ne       1         10.000000                              0.000000
 # Total charge                             10.000000                  0.000000

 !-----------------------------------------------------------------------------!

 !-----------------------------------------------------------------------------!
                           Hirshfeld Charges

  #Atom  Element  Kind  Ref Charge     Population                    Net charge
      1       Ne     1      10.000         10.000                         0.000

  Total Charge                                                            0.000
 !-----------------------------------------------------------------------------!

 ENERGY| Total FORCE_EVAL ( QS ) energy [hartree]           -128.930697188670536

 -------------------------------------------------------------------------------
 -                                                                             -
 -                                DBCSR STATISTICS                             -
 -                                                                             -
 -------------------------------------------------------------------------------
 COUNTER                                    TOTAL       BLAS       SMM       ACC
 flops     5 x     5 x     5                16000     100.0%      0.0%      0.0%     
 flops     5 x     5 x    31                44950     100.0%      0.0%      0.0%     
 flops    31 x     5 x     5                55800     100.0%      0.0%      0.0%     
 flops    31 x    31 x     5                76880     100.0%      0.0%      0.0%     
 flops    31 x     5 x    31               374790     100.0%      0.0%      0.0%     
 flops inhomo. stacks                           0       0.0%      0.0%      0.0%
 flops total                       568.420000E+03     100.0%      0.0%      0.0%
 flops max/rank                    568.420000E+03     100.0%      0.0%      0.0%
 matmuls inhomo. stacks                         0       0.0%      0.0%      0.0%
 matmuls total                                176     100.0%      0.0%      0.0%
 number of processed stacks                   176     100.0%      0.0%      0.0%
 average stack size                                     1.0       0.0       0.0
 marketing flops                   569.970000E+03
 -------------------------------------------------------------------------------
 # multiplications                            177
 max memory usage/rank              58.441527E+09
 # max total images/rank                        1
 # max 3D layers                                1
 # MPI messages exchanged                       0
 -------------------------------------------------------------------------------

 -------------------------------------------------------------------------------
 -                                                                             -
 -                                GRID STATISTICS                              -
 -                                                                             -
 -------------------------------------------------------------------------------
 LP    KERNEL             BACKEND                              COUNT     PERCENT
 6     collocate ortho    CPU                                    120      24.14%
 6     integrate ortho    CPU                                    105      21.13%
 8     collocate ortho    CPU                                     72      14.49%
 8     integrate ortho    CPU                                     63      12.68%
 4     collocate ortho    CPU                                     56      11.27%
 4     integrate ortho    CPU                                     49       9.86%
 2     collocate ortho    CPU                                      8       1.61%
 2     integrate ortho    CPU                                      7       1.41%
 4     collocate general  CPU                                      7       1.41%
 4     integrate general  CPU                                      7       1.41%
 0     collocate general  CPU                                      2       0.40%
 0     integrate general  CPU                                      1       0.20%
 -------------------------------------------------------------------------------

 -------------------------------------------------------------------------------
 -                                                                             -
 -                          OFFLOAD MEMPOOL STATISTICS                         -
 -                                                                             -
 -------------------------------------------------------------------------------
 Memory consumption                Number of allocations  Used [MiB]  Size [MiB]
 Host                                                  8         971           0
 -------------------------------------------------------------------------------

 MEMORY| Estimated peak process memory [MiB]                               35171

 -------------------------------------------------------------------------------
 ----                             MULTIGRID INFO                            ----
 -------------------------------------------------------------------------------
 count for grid        1:           7807          cutoff [a.u.]          320.00
 count for grid        2:           1979          cutoff [a.u.]          106.67
 count for grid        3:           1003          cutoff [a.u.]           35.56
 count for grid        4:             40          cutoff [a.u.]           11.85
 count for grid        5:              0          cutoff [a.u.]            3.95
 total gridlevel count  :          10829

 -------------------------------------------------------------------------------
 -                                                                             -
 -                           R E F E R E N C E S                               -
 -                                                                             -
 -------------------------------------------------------------------------------
 
 CP2K version 2026.2 (Development Version), the CP2K developers group (2026).
 CP2K is freely available from https://www.cp2k.org/ .
 
 M. Iannuzzi, J. Wilhelm, F. Stein, A. Bussy, H. Elgabarty, D. Golze, A. Hehn, 
 M. Graml, S. Marek, B. Sertcan Gökmen, C. Schran, H. Forbert, R. Z. 
 Khaliullin, A. Kozhevnikov, M. Taillefumier, R. Meli, V. V. Rybkin, M. Brehm, 
 R. Schade, O. Schütt, J. V. Pototschnig, H. Mirhosseini, A. Knüpfer, D. Marx, 
 M. Krack, J. Hutter, T. D. Kühne.
 J. Phys. Chem. B 130, 1237-1310 (2026).
 The CP2K Program Package Made Simple.
 https://doi.org/10.1021/acs.jpcb.5c05851

 L. Wittmann, I. Gordiy, M. Friede, B. Helmich-Paris, S. Grimme, A. Hansen, M. 
 Bursch.
 Phys. Chem. Chem. Phys. 26, 21379-21394 (2024).
 Extension of the D3 and D4 London dispersion corrections to the full actinides 
 series.
 https://doi.org/10.1039/d4cp01514b

 T. D. Kühne, M. Iannuzzi, M. Del Ben, V. V. Rybkin, P. Seewald, F. Stein, T. 
 Laino, R. Z. Khaliullin, O. Schütt, F. Schiffmann, D. Golze, J. Wilhelm, S. 
 Chulkov, M. H. Bani-Hashemian, V. Weber, U. Borstnik, M. Taillefumier, A. S. 
 Jakobovits, A. Lazzaro, H. Pabst, T. Müller, R. Schade, M. Guidon, S. 
 Andermatt, N. Holmberg, G. K. Schenter, A. Hehn, A. Bussy, F. Belleflamme, G. 
 Tabacchi, A. Glöß, M. Lass, I. Bethune, C. J. Mundy, C. Plessl, M. Watkins, 
 J. VandeVondele, M. Krack, J. Hutter.
 J. Chem. Phys. 152, 194103 (2020).
 CP2K: An electronic structure and molecular dynamics software package - 
 Quickstep: Efficient and accurate electronic structure calculations.
 https://doi.org/10.1063/5.0007045

 L. Goerigk, A. Hansen, C. Bauer, S. Ehrlich, A. Najibi, S. Grimme.
 Phys. Chem. Chem. Phys. 19, 32184-32215 (2017).
 A look at the density functional theory zoo with the advanced GMTKN55 database 
 for general main group thermochemistry, kinetics and noncovalent interactions.
 https://doi.org/10.1039/C7CP04913G

 O. Schuett, P. Messmer, J. Hutter, J. VandeVondele.
 Electronic Structure Calculations on Graphics Processing Units, 173-190 (2016).
 GPU-Accelerated Sparse Matrix-Matrix Multiplication for Linear Scaling Density 
 Functional Theory.
 https://doi.org/10.1002/9781118670712.ch8

 U. Borstnik, J. VandeVondele, V. Weber, J. Hutter.
 Parallel Comput. 40, 47-58 (2014).
 Sparse matrix multiplication: The distributed block-compressed sparse row 
 library.
 https://doi.org/10.1016/j.parco.2014.03.012

 S. Grimme, S. Ehrlich, L. Goerigk.
 J. Comput. Chem. 32, 1456 (2011).
 Effect of the damping function in dispersion corrected density functional 
 theory.
 https://doi.org/10.1002/jcc.21759

 S. Grimme, J. Antony, S. Ehrlich, H. Krieg.
 J. Chem. Phys. 132, 154104 (2010).
 A consistent and accurate ab initio parametrization of density functional 
 dispersion correction (DFT-D) for the 94 elements H-Pu.
 https://doi.org/10.1063/1.3382344

 J. VandeVondele, J. Hutter.
 J. Chem. Phys. 127, 114105 (2007).
 Gaussian basis sets for accurate calculations on molecular systems in gas and 
 condensed phases.
 https://doi.org/10.1063/1.2770708

 M. Frigo, S. G. Johnson.
 Proc. IEEE 93, 216-231 (2005).
 The design and implementation of FFTW3.
 https://doi.org/10.1109/JPROC.2004.840301

 J. VandeVondele, J. Hutter.
 J. Chem. Phys. 118, 4365-4369 (2003).
 An efficient orbital transformation method for electronic structure 
 calculations.
 https://doi.org/10.1063/1.1543154

 M. Krack, M. Parrinello.
 Phys. Chem. Chem. Phys. 2, 2105-2112 (2000).
 All-electron ab-initio molecular dynamics.
 https://doi.org/10.1039/b001167n

 G. Lippert, J. Hutter, M. Parrinello.
 Theor. Chem. Acc. 103, 124-140 (1999).
 The Gaussian and augmented-plane-wave density functional method for ab initio 
 molecular dynamics simulations.
 https://doi.org/10.1007/s002140050523


 -------------------------------------------------------------------------------
 -                                                                             -
 -                                T I M I N G                                  -
 -                                                                             -
 -------------------------------------------------------------------------------
 SUBROUTINE                       CALLS  ASD         SELF TIME        TOTAL TIME
                                MAXIMUM       AVERAGE  MAXIMUM  AVERAGE  MAXIMUM
 CP2K                                 1  1.0    1.175    1.175  200.970  200.970
 qs_energies                          1  2.0    0.000    0.000  181.670  181.670
 scf_env_do_scf                       1  3.0    0.000    0.000  175.849  175.849
 scf_env_do_scf_inner_loop            7  4.0    0.001    0.001  153.654  153.654
 qs_ks_update_qs_env                  8  5.0    0.000    0.000  145.335  145.335
 rebuild_ks_matrix                    7  6.0    0.000    0.000  145.334  145.334
 qs_ks_build_kohn_sham_matrix         7  7.0    0.002    0.002  145.334  145.334
 calculate_vxc_atom                   7  8.0   48.888   48.888  115.641  115.641
 fft_wrap_pw1pw2                    229  9.5    0.004    0.004   75.613   75.613
 fft_wrap_pw1pw2_320                109 10.6   22.829   22.829   70.976   70.976
 qs_rho_update_rho_low                8  5.0    0.000    0.000   35.222   35.222
 calculate_rho_elec                  16  6.0    3.196    3.196   35.186   35.186
 xc_pw_derive                        42  9.5    0.001    0.001   28.544   28.544
 fft3d_s                            230 11.5   26.998   26.998   27.003   27.003
 density_rs2pw                       16  7.0    0.001    0.001   24.735   24.735
 init_scf_loop                        1  4.0    0.000    0.000   22.195   22.195
 pw_scatter_s                       107 12.1   19.408   19.408   19.408   19.408
 xc_pw_divergence                     7  9.0    0.000    0.000   19.028   19.028
 qs_init_subsys                       1  2.0    0.003    0.003   17.250   17.250
 qs_env_setup                         1  3.0    0.000    0.000   17.146   17.146
 qs_env_rebuild_pw_env                2  3.5    0.000    0.000   17.146   17.146
 pw_env_rebuild                       1  5.0    0.000    0.000   17.146   17.146
 pw_grid_setup                        5  6.0    0.000    0.000   17.143   17.143
 pw_grid_setup_internal               5  7.0    0.160    0.160   17.143   17.143
 pw_grid_sort                         5  8.0   12.124   12.124   15.390   15.390
 sum_up_and_integrate                 7  8.0    0.000    0.000   12.460   12.460
 integrate_v_rspace                  14  9.0    0.001    0.001   12.337   12.337
 potential_pw2rs                     14 10.0    0.218    0.218   12.286   12.286
 skala_atom_torch_backward            7  9.0    9.250    9.250    9.250    9.250
 calc_tau_atom                       21  9.0    7.649    7.649    7.649    7.649
 grid_collocate_task_list            16  7.0    7.255    7.255    7.255    7.255
 prepare_gapw_den                     7  8.0    0.000    0.000    6.744    6.744
 put_rho0_on_grid                     7  9.0    1.395    1.395    6.411    6.411
 gaVxcgb_GC                          14  9.0    5.772    5.772    5.772    5.772
 skala_atom_torch_forward             7  9.0    0.001    0.001    5.615    5.615
 torch_model_forward_mol_tensor       7 10.0    5.614    5.614    5.614    5.614
 pw_poisson_solve                     7  8.0    0.000    0.000    5.334    5.334
 init_scf_run                         1  3.0    0.000    0.000    4.915    4.915
 scf_env_initial_rho_setup            1  4.0    0.000    0.000    4.915    4.915
 -------------------------------------------------------------------------------

 The number of warnings for this run is : 0
 
 -------------------------------------------------------------------------------
  **** **** ******  **  PROGRAM ENDED AT                 2026-09-15 16:06:13.327
 ***** ** ***  *** **   PROGRAM RAN ON                                    cge003
 **    ****   ******    PROGRAM RAN BY                                  kuehne88
 ***** **    ** ** **   PROGRAM PROCESS ID                                952166
  **** **  *******  **  PROGRAM STOPPED IN /bigdata/casus/fwuk/shared/kuehne88-n
                                           ative-skala/diet-ae-basis-controls-20
                                           260915/runs/RG18-1/ne/tzvpp
