 DBCSR| CPU Multiplication driver                                           BLAS (U)
 DBCSR| Multrec recursion limit                                              512 (U)
 DBCSR| Multiplication stack size                                           1000 (D)
 DBCSR| Maximum elements for images                                    UNLIMITED (U)
 DBCSR| Multiplicative factor virtual images                                   1 (U)
 DBCSR| Use multiplication densification                                       T (D)
 DBCSR| Multiplication size stacks                                             3 (U)
 DBCSR| Use memory pool for CPU allocation                                     F (U)
 DBCSR| OMP: Current number of threads                                        24
 DBCSR| OMP: Max number of threads                                            24
 DBCSR| Split modifier for TAS multiplication algorithm                  1.0E+00 (U)


  **** **** ******  **  PROGRAM STARTED AT               2026-08-25 02:34:21.914
 ***** ** ***  *** **   PROGRAM STARTED ON                                cge057
 **    ****   ******    PROGRAM STARTED BY                              kuehne88
 ***** **    ** ** **   PROGRAM PROCESS ID                                821869
  **** **  *******  **  PROGRAM STARTED IN /data/home2/kuehne88/cp2k-native-skal
                                           a/validation-uzh/diet-production-p25/
                                           shared-gapw-ae/a4311fb749e9e7e31b39d1
                                           2c2a45961170a253a1

 CP2K| version string:                 CP2K version 2026.2 (Development Version)
 CP2K| source code revision number:                                   c1bff3eeb8
 CP2K| cp2kflags: omp fftw3 spglib openblas libtorch libtorch_cuda              
 CP2K| is freely available from                            https://www.cp2k.org/
 CP2K| Program compiled at                                   2026-08-23 23:01:13
 CP2K| Program compiled on                                                cge022
 CP2K| Program compiled for                                               x86_64
 CP2K| Data directory path            /home/kuehne88/cp2k-native-skala/cp2k/data
 CP2K| Input file name                                             input.cpu.inp

 GLOBAL| Force Environment number                                              1
 GLOBAL| Basis set file name                             BASIS_MOLOPT_UZH_2026.2
 GLOBAL| Potential file name                                POTENTIAL_UZH_2026.2
 GLOBAL| MM Potential file name                                     MM_POTENTIAL
 GLOBAL| Coordinate file name                                      __STD_INPUT__
 GLOBAL| Method name                                                        CP2K
 GLOBAL| Project name                                       a4311fb749e9_gapw_ae
 GLOBAL| Run type                                                         ENERGY
 GLOBAL| FFT library                                                       FFTW3
 GLOBAL| Diagonalization library                                       ScaLAPACK
 GLOBAL| Cholesky decomposition library                                ScaLAPACK
 GLOBAL| DGEMM library                                                      BLAS
 GLOBAL| Direct generalized diagonalization requested                          F
 GLOBAL| Orthonormality check for eigenvectors                          DISABLED
 GLOBAL| Matrix multiplication library                                 ScaLAPACK
 GLOBAL| All-to-all communication in single precision                          F
 GLOBAL| FFTs using library dependent lengths                                  F
 GLOBAL| Grid backend                                                       AUTO
 GLOBAL| Global print level                                               MEDIUM
 GLOBAL| MPI I/O enabled                                                       T
 GLOBAL| Total number of message passing processes                             1
 GLOBAL| Number of distributed systems (nodes)                                 1
 GLOBAL| Number of threads for this process                                   24
 GLOBAL| This output is from process                                           0
 GLOBAL| OpenMP stack size per thread (OMP_STACKSIZE)                       512M
 GLOBAL| CPU model name                          AMD EPYC 9654 96-Core Processor

 MEMORY| system memory details [Kb]
 MEMORY|                        rank 0           min           max       average
 MEMORY| MemTotal           1584835656    1584835656    1584835656    1584835656
 MEMORY| MemFree            1480695264    1480695264    1480695264    1480695264
 MEMORY| Buffers                     0             0             0             0
 MEMORY| Cached               11264992      11264992      11264992      11264992
 MEMORY| Slab                  2319872       2319872       2319872       2319872
 MEMORY| SReclaimable           583256        583256        583256        583256
 MEMORY| MemLikelyFree      1492543512    1492543512    1492543512    1492543512


 *** Fundamental physical constants (SI units) ***

 *** Literature: B. J. Mohr and B. N. Taylor,
 ***             CODATA recommended values of the fundamental physical
 ***             constants: 2006, Web Version 5.1
 ***             http://physics.nist.gov/constants

 Speed of light in vacuum [m/s]                             2.99792458000000E+08
 Magnetic constant or permeability of vacuum [N/A**2]       1.25663706143592E-06
 Electric constant or permittivity of vacuum [F/m]          8.85418781762039E-12
 Planck constant (h) [J*s]                                  6.62606896000000E-34
 Planck constant (h-bar) [J*s]                              1.05457162825177E-34
 Elementary charge [C]                                      1.60217648700000E-19
 Electron mass [kg]                                         9.10938215000000E-31
 Electron g factor [ ]                                     -2.00231930436220E+00
 Proton mass [kg]                                           1.67262163700000E-27
 Fine-structure constant                                    7.29735253760000E-03
 Rydberg constant [1/m]                                     1.09737315685270E+07
 Avogadro constant [1/mol]                                  6.02214179000000E+23
 Boltzmann constant [J/K]                                   1.38065040000000E-23
 Atomic mass unit [kg]                                      1.66053878200000E-27
 Bohr radius [m]                                            5.29177208590000E-11

 *** Conversion factors ***

 [u] -> [a.u.]                                              1.82288848426455E+03
 [Angstrom] -> [Bohr] = [a.u.]                              1.88972613288564E+00
 [a.u.] = [Bohr] -> [Angstrom]                              5.29177208590000E-01
 [a.u.] -> [s]                                              2.41888432650478E-17
 [a.u.] -> [fs]                                             2.41888432650478E-02
 [a.u.] -> [J]                                              4.35974393937059E-18
 [a.u.] -> [N]                                              8.23872205491840E-08
 [a.u.] -> [K]                                              3.15774647902944E+05
 [a.u.] -> [kJ/mol]                                         2.62549961709828E+03
 [a.u.] -> [kcal/mol]                                       6.27509468713739E+02
 [a.u.] -> [Pa]                                             2.94210107994716E+13
 [a.u.] -> [bar]                                            2.94210107994716E+08
 [a.u.] -> [atm]                                            2.90362800883016E+08
 [a.u.] -> [eV]                                             2.72113838565563E+01
 [a.u.] -> [Hz]                                             6.57968392072181E+15
 [a.u.] -> [1/cm] (wave numbers)                            2.19474631370540E+05
 [a.u./Bohr**2] -> [1/cm]                                   5.14048714338585E+03
 

 CELL| Volume [angstrom^3]:                                         15625.000000
 CELL| Vector a [angstrom]:      25.000     0.000     0.000   |a| =    25.000000
 CELL| Vector b [angstrom]:       0.000    25.000     0.000   |b| =    25.000000
 CELL| Vector c [angstrom]:       0.000     0.000    25.000   |c| =    25.000000
 CELL| Angle (b,c), alpha [degree]:                                    90.000000
 CELL| Angle (a,c), beta  [degree]:                                    90.000000
 CELL| Angle (a,b), gamma [degree]:                                    90.000000
 CELL| Numerically orthorhombic:                                             YES
 CELL| Periodicity                                                          NONE

 CELL_REF| Volume [angstrom^3]:                                     15625.000000
 CELL_REF| Vector a [angstrom    25.000     0.000     0.000   |a| =    25.000000
 CELL_REF| Vector b [angstrom     0.000    25.000     0.000   |b| =    25.000000
 CELL_REF| Vector c [angstrom     0.000     0.000    25.000   |c| =    25.000000
 CELL_REF| Angle (b,c), alpha [degree]:                                90.000000
 CELL_REF| Angle (a,c), beta  [degree]:                                90.000000
 CELL_REF| Angle (a,b), gamma [degree]:                                90.000000
 CELL_REF| Numerically orthorhombic:                                         YES
 CELL_REF| Periodicity                                                      NONE

 GENERATE|  Preliminary Number of Bonds generated:                             0
 GENERATE|  Achieved consistency in connectivity generation.

 *******************************************************************************
 *******************************************************************************
 **                                                                           **
 **     #####                         ##              ##                      **
 **    ##   ##            ##          ##              ##                      **
 **   ##     ##                       ##            ######                    **
 **   ##     ##  ##   ##  ##   #####  ##  ##   ####   ##    #####    #####    **
 **   ##     ##  ##   ##  ##  ##      ## ##   ##      ##   ##   ##  ##   ##   **
 **   ##  ## ##  ##   ##  ##  ##      ####     ###    ##   ######   ######    **
 **    ##  ###   ##   ##  ##  ##      ## ##      ##   ##   ##       ##        **
 **     #######   #####   ##   #####  ##  ##  ####    ##    #####   ##        **
 **           ##                                                    ##        **
 **                                                                           **
 **                                                ... make the atoms dance   **
 **                                                                           **
 **            Copyright (C) by CP2K developers group (2000-2026)             **
 **                      J. Chem. Phys. 152, 194103 (2020)                    **
 **                                                                           **
 *******************************************************************************

 DFT| Spin restricted Kohn-Sham (RKS) calculation                            RKS
 DFT| Multiplicity                                                             1
 DFT| Number of spin states                                                    1
 DFT| Charge                                                                  -1
 DFT| Self-interaction correction (SIC)                                       NO
 DFT| Cutoffs: density                                              1.000000E-10
 DFT|          gradient                                             1.000000E-10
 DFT|          tau                                                  1.000000E-10
 DFT|          cutoff_smoothing_range                               0.000000E+00
 DFT| XC density smoothing                                                  NONE
 DFT| XC derivatives                                                          PW

 FUNCTIONAL| GAUXC:
 FUNCTIONAL| Functional computed by GauXC Skala model SKALA                     

 vdW POTENTIAL|                                                   Pair Potential
 vdW POTENTIAL|          DFT-D3 (Version 3.1)
 vdW POTENTIAL|          Potential Form: S. Grimme et al, JCP 132: 154104 (2010)
 vdW POTENTIAL|          BJ Damping: S. Grimme et al, JCC 32: 1456 (2011)
 vdW POTENTIAL|          Cutoff Radius [Bohr]:                             37.79
 vdW POTENTIAL|          s6 Scaling Factor:                               1.0000
 vdW POTENTIAL|          a1 Damping Factor:                               0.3981
 vdW POTENTIAL|          s8 Scaling Factor:                               1.9889
 vdW POTENTIAL|          a2 Damping Factor:                               4.4211
 vdW POTENTIAL|          Cutoff for CN calculation:                   0.1000E-05

 QS| Method:                                                                GAPW
 QS| Density plane wave grid type                        NON-SPHERICAL FULLSPACE
 QS| Number of grid levels:                                                    5
 QS| Density cutoff [a.u.]:                                                320.0
 QS| Multi grid cutoff [a.u.]: 1) grid level                               320.0
 QS|                           2) grid level                               106.7
 QS|                           3) grid level                                35.6
 QS|                           4) grid level                                11.9
 QS|                           5) grid level                                 4.0
 QS| Grid level progression factor:                                          3.0
 QS| Relative density cutoff [a.u.]:                                        30.0
 QS| Interaction thresholds: eps_pgf_orb:                                1.0E-07
 QS|                         eps_filter_matrix:                          0.0E+00
 QS|                         eps_core_charge:                            1.0E-16
 QS|                         eps_rho_gspace:                             1.0E-14
 QS|                         eps_rho_rspace:                             1.0E-14
 QS|                         eps_gvg_rspace:                             1.0E-07
 QS|                         eps_ppl:                                    1.0E-02
 QS|                         eps_ppnl:                                   1.0E-09
 QS| GAPW|      XC integration using accurate scheme: Ref. exponent     6.000000
 QS| GAPW|      One center basis extended with primitives (small:s)
 QS| GAPW|                   eps_fit:                                    1.0E-04
 QS| GAPW|                   eps_iso:                                    1.0E-12
 QS| GAPW|                   eps_svd:                                    1.0E-08
 QS| GAPW|                   eps_cpc:                                    1.0E-14
 QS| GAPW|   atom-r-grid: quadrature:                                     GC_LOG
 QS| GAPW|      atom-s-grid:  max l :                                          6
 QS| GAPW|      max_l_rho0 :                                                   4


 ATOMIC KIND INFORMATION

  1. Atomic kind: F                                     Number of atoms:       1

     Orbital Basis Set                                       TZVPP-MOLOPT-PBE-ae

       Number of orbital shell sets:                                           2
       Number of orbital shells:                                              11
       Number of primitive Cartesian functions:                               12
       Number of Cartesian basis functions:                                   36
       Number of spherical basis functions:                                   31
       Norm type:                                                              2

       Normalised Cartesian orbitals:

                        Set   Shell   Orbital            Exponent    Coefficient

                          1       1    1s            35479.028788       0.923591
                                                      5318.563130       2.713095
                                                      1210.532078       3.723749
                                                       342.851437       7.109574
                                                       112.046988       6.223180
                                                        40.784918       7.926235

                          2       1    1s               79.879018       1.708555
                                                        16.196356       3.767666
                                                         5.778011       0.969853
                                                         1.800486       0.004609
                                                         0.613429      -0.067525
                                                         0.194582       0.001505

                          2       2    2s               79.879018      -0.276035
                                                        16.196356       0.068705
                                                         5.778011       0.020765
                                                         1.800486       0.940599
                                                         0.613429       0.049466
                                                         0.194582       0.022642

                          2       3    3s               79.879018      -0.336892
                                                        16.196356       0.704585
                                                         5.778011       0.100745
                                                         1.800486      -0.152255
                                                         0.613429       0.342883
                                                         0.194582       0.087007

                          2       4    4s               79.879018      -0.236970
                                                        16.196356      -0.931351
                                                         5.778011      -0.155756
                                                         1.800486      -0.091539
                                                         0.613429      -0.427486
                                                         0.194582       0.306214

                          2       5    2px              79.879018     -73.460224
                                                        16.196356      -4.237418
                                                         5.778011       4.328213
                                                         1.800486       2.305775
                                                         0.613429       0.001604
                                                         0.194582      -0.007867
                          2       5    2py              79.879018     -73.460224
                                                        16.196356      -4.237418
                                                         5.778011       4.328213
                                                         1.800486       2.305775
                                                         0.613429       0.001604
                                                         0.194582      -0.007867
                          2       5    2pz              79.879018     -73.460224
                                                        16.196356      -4.237418
                                                         5.778011       4.328213
                                                         1.800486       2.305775
                                                         0.613429       0.001604
                                                         0.194582      -0.007867

                          2       6    3px              79.879018      70.930414
                                                        16.196356       7.086453
                                                         5.778011       1.346635
                                                         1.800486       0.066297
                                                         0.613429       0.715705
                                                         0.194582      -0.017292
                          2       6    3py              79.879018      70.930414
                                                        16.196356       7.086453
                                                         5.778011       1.346635
                                                         1.800486       0.066297
                                                         0.613429       0.715705
                                                         0.194582      -0.017292
                          2       6    3pz              79.879018      70.930414
                                                        16.196356       7.086453
                                                         5.778011       1.346635
                                                         1.800486       0.066297
                                                         0.613429       0.715705
                                                         0.194582      -0.017292

                          2       7    4px              79.879018      20.085768
                                                        16.196356       2.450396
                                                         5.778011      -0.458038
                                                         1.800486       0.263451
                                                         0.613429       0.056449
                                                         0.194582       0.168868
                          2       7    4py              79.879018      20.085768
                                                        16.196356       2.450396
                                                         5.778011      -0.458038
                                                         1.800486       0.263451
                                                         0.613429       0.056449
                                                         0.194582       0.168868
                          2       7    4pz              79.879018      20.085768
                                                        16.196356       2.450396
                                                         5.778011      -0.458038
                                                         1.800486       0.263451
                                                         0.613429       0.056449
                                                         0.194582       0.168868

                          2       8    3dx2             79.879018     275.158203
                                                        16.196356       9.390358
                                                         5.778011      21.295254
                                                         1.800486       2.122427
                                                         0.613429       0.011610
                                                         0.194582       0.011281
                          2       8    3dxy             79.879018     476.587987
                                                        16.196356      16.264577
                                                         5.778011      36.884463
                                                         1.800486       3.676152
                                                         0.613429       0.020109
                                                         0.194582       0.019539
                          2       8    3dxz             79.879018     476.587987
                                                        16.196356      16.264577
                                                         5.778011      36.884463
                                                         1.800486       3.676152
                                                         0.613429       0.020109
                                                         0.194582       0.019539
                          2       8    3dy2             79.879018     275.158203
                                                        16.196356       9.390358
                                                         5.778011      21.295254
                                                         1.800486       2.122427
                                                         0.613429       0.011610
                                                         0.194582       0.011281
                          2       8    3dyz             79.879018     476.587987
                                                        16.196356      16.264577
                                                         5.778011      36.884463
                                                         1.800486       3.676152
                                                         0.613429       0.020109
                                                         0.194582       0.019539
                          2       8    3dz2             79.879018     275.158203
                                                        16.196356       9.390358
                                                         5.778011      21.295254
                                                         1.800486       2.122427
                                                         0.613429       0.011610
                                                         0.194582       0.011281

                          2       9    4dx2             79.879018    -118.871689
                                                        16.196356       0.945115
                                                         5.778011      -5.548204
                                                         1.800486       0.938577
                                                         0.613429       0.660644
                                                         0.194582      -0.010172
                          2       9    4dxy             79.879018    -205.891805
                                                        16.196356       1.636987
                                                         5.778011      -9.609772
                                                         1.800486       1.625663
                                                         0.613429       1.144268
                                                         0.194582      -0.017619
                          2       9    4dxz             79.879018    -205.891805
                                                        16.196356       1.636987
                                                         5.778011      -9.609772
                                                         1.800486       1.625663
                                                         0.613429       1.144268
                                                         0.194582      -0.017619
                          2       9    4dy2             79.879018    -118.871689
                                                        16.196356       0.945115
                                                         5.778011      -5.548204
                                                         1.800486       0.938577
                                                         0.613429       0.660644
                                                         0.194582      -0.010172
                          2       9    4dyz             79.879018    -205.891805
                                                        16.196356       1.636987
                                                         5.778011      -9.609772
                                                         1.800486       1.625663
                                                         0.613429       1.144268
                                                         0.194582      -0.017619
                          2       9    4dz2             79.879018    -118.871689
                                                        16.196356       0.945115
                                                         5.778011      -5.548204
                                                         1.800486       0.938577
                                                         0.613429       0.660644
                                                         0.194582      -0.010172

                          2      10    4fx3             79.879018    -329.447232
                                                        16.196356      72.836382
                                                         5.778011     -12.930167
                                                         1.800486       3.891850
                                                         0.613429       0.247380
                                                         0.194582      -0.002169
                          2      10    4fx2y            79.879018    -736.666407
                                                        16.196356     162.867101
                                                         5.778011     -28.912732
                                                         1.800486       8.702441
                                                         0.613429       0.553159
                                                         0.194582      -0.004851
                          2      10    4fx2z            79.879018    -736.666407
                                                        16.196356     162.867101
                                                         5.778011     -28.912732
                                                         1.800486       8.702441
                                                         0.613429       0.553159
                                                         0.194582      -0.004851
                          2      10    4fxy2            79.879018    -736.666407
                                                        16.196356     162.867101
                                                         5.778011     -28.912732
                                                         1.800486       8.702441
                                                         0.613429       0.553159
                                                         0.194582      -0.004851
                          2      10    4fxyz            79.879018   -1275.943645
                                                        16.196356     282.094094
                                                         5.778011     -50.078321
                                                         1.800486      15.073071
                                                         0.613429       0.958099
                                                         0.194582      -0.008402
                          2      10    4fxz2            79.879018    -736.666407
                                                        16.196356     162.867101
                                                         5.778011     -28.912732
                                                         1.800486       8.702441
                                                         0.613429       0.553159
                                                         0.194582      -0.004851
                          2      10    4fy3             79.879018    -329.447232
                                                        16.196356      72.836382
                                                         5.778011     -12.930167
                                                         1.800486       3.891850
                                                         0.613429       0.247380
                                                         0.194582      -0.002169
                          2      10    4fy2z            79.879018    -736.666407
                                                        16.196356     162.867101
                                                         5.778011     -28.912732
                                                         1.800486       8.702441
                                                         0.613429       0.553159
                                                         0.194582      -0.004851
                          2      10    4fyz2            79.879018    -736.666407
                                                        16.196356     162.867101
                                                         5.778011     -28.912732
                                                         1.800486       8.702441
                                                         0.613429       0.553159
                                                         0.194582      -0.004851
                          2      10    4fz3             79.879018    -329.447232
                                                        16.196356      72.836382
                                                         5.778011     -12.930167
                                                         1.800486       3.891850
                                                         0.613429       0.247380
                                                         0.194582      -0.002169

       Atomic covalent radius [Angstrom]:                                  0.720

       Atomic van der Waals radius [Angstrom]:                             1.470

     The atoms of this atomic kind are PAW atoms (GAPW):
       Hard Gaussian function radius:                                      1.300
       Rho0 radius:                                                        1.300
       Maximum GTO radius used for PAW projector construction:            24.566

     GAPW Soft Basis Set                                TZVPP-MOLOPT-PBE-ae_soft

       Number of orbital shell sets:                                           2
       Number of orbital shells:                                              11
       Number of primitive Cartesian functions:                                4
       Number of Cartesian basis functions:                                   36
       Number of spherical basis functions:                                   31
       Norm type:                                                              2

       Normalised Cartesian orbitals:

                        Set   Shell   Orbital            Exponent    Coefficient

                          1       1    1s         

                          2       1    1s                5.778011       0.000000
                                                         1.800486       0.004609
                                                         0.613429      -0.067525
                                                         0.194582       0.001505

                          2       2    2s                5.778011       0.000000
                                                         1.800486       0.940599
                                                         0.613429       0.049466
                                                         0.194582       0.022642

                          2       3    3s                5.778011       0.000000
                                                         1.800486      -0.152255
                                                         0.613429       0.342883
                                                         0.194582       0.087007

                          2       4    4s                5.778011       0.000000
                                                         1.800486      -0.091539
                                                         0.613429      -0.427486
                                                         0.194582       0.306214

                          2       5    2px               5.778011       0.000000
                                                         1.800486       2.305775
                                                         0.613429       0.001604
                                                         0.194582      -0.007867
                          2       5    2py               5.778011       0.000000
                                                         1.800486       2.305775
                                                         0.613429       0.001604
                                                         0.194582      -0.007867
                          2       5    2pz               5.778011       0.000000
                                                         1.800486       2.305775
                                                         0.613429       0.001604
                                                         0.194582      -0.007867

                          2       6    3px               5.778011       0.000000
                                                         1.800486       0.066297
                                                         0.613429       0.715705
                                                         0.194582      -0.017292
                          2       6    3py               5.778011       0.000000
                                                         1.800486       0.066297
                                                         0.613429       0.715705
                                                         0.194582      -0.017292
                          2       6    3pz               5.778011       0.000000
                                                         1.800486       0.066297
                                                         0.613429       0.715705
                                                         0.194582      -0.017292

                          2       7    4px               5.778011       0.000000
                                                         1.800486       0.263451
                                                         0.613429       0.056449
                                                         0.194582       0.168868
                          2       7    4py               5.778011       0.000000
                                                         1.800486       0.263451
                                                         0.613429       0.056449
                                                         0.194582       0.168868
                          2       7    4pz               5.778011       0.000000
                                                         1.800486       0.263451
                                                         0.613429       0.056449
                                                         0.194582       0.168868

                          2       8    3dx2              5.778011       0.000000
                                                         1.800486       2.122427
                                                         0.613429       0.011610
                                                         0.194582       0.011281
                          2       8    3dxy              5.778011       0.000000
                                                         1.800486       3.676152
                                                         0.613429       0.020109
                                                         0.194582       0.019539
                          2       8    3dxz              5.778011       0.000000
                                                         1.800486       3.676152
                                                         0.613429       0.020109
                                                         0.194582       0.019539
                          2       8    3dy2              5.778011       0.000000
                                                         1.800486       2.122427
                                                         0.613429       0.011610
                                                         0.194582       0.011281
                          2       8    3dyz              5.778011       0.000000
                                                         1.800486       3.676152
                                                         0.613429       0.020109
                                                         0.194582       0.019539
                          2       8    3dz2              5.778011       0.000000
                                                         1.800486       2.122427
                                                         0.613429       0.011610
                                                         0.194582       0.011281

                          2       9    4dx2              5.778011       0.000000
                                                         1.800486       0.938577
                                                         0.613429       0.660644
                                                         0.194582      -0.010172
                          2       9    4dxy              5.778011       0.000000
                                                         1.800486       1.625663
                                                         0.613429       1.144268
                                                         0.194582      -0.017619
                          2       9    4dxz              5.778011       0.000000
                                                         1.800486       1.625663
                                                         0.613429       1.144268
                                                         0.194582      -0.017619
                          2       9    4dy2              5.778011       0.000000
                                                         1.800486       0.938577
                                                         0.613429       0.660644
                                                         0.194582      -0.010172
                          2       9    4dyz              5.778011       0.000000
                                                         1.800486       1.625663
                                                         0.613429       1.144268
                                                         0.194582      -0.017619
                          2       9    4dz2              5.778011       0.000000
                                                         1.800486       0.938577
                                                         0.613429       0.660644
                                                         0.194582      -0.010172

                          2      10    4fx3              5.778011     -12.930167
                                                         1.800486       3.891850
                                                         0.613429       0.247380
                                                         0.194582      -0.002169
                          2      10    4fx2y             5.778011     -28.912732
                                                         1.800486       8.702441
                                                         0.613429       0.553159
                                                         0.194582      -0.004851
                          2      10    4fx2z             5.778011     -28.912732
                                                         1.800486       8.702441
                                                         0.613429       0.553159
                                                         0.194582      -0.004851
                          2      10    4fxy2             5.778011     -28.912732
                                                         1.800486       8.702441
                                                         0.613429       0.553159
                                                         0.194582      -0.004851
                          2      10    4fxyz             5.778011     -50.078321
                                                         1.800486      15.073071
                                                         0.613429       0.958099
                                                         0.194582      -0.008402
                          2      10    4fxz2             5.778011     -28.912732
                                                         1.800486       8.702441
                                                         0.613429       0.553159
                                                         0.194582      -0.004851
                          2      10    4fy3              5.778011     -12.930167
                                                         1.800486       3.891850
                                                         0.613429       0.247380
                                                         0.194582      -0.002169
                          2      10    4fy2z             5.778011     -28.912732
                                                         1.800486       8.702441
                                                         0.613429       0.553159
                                                         0.194582      -0.004851
                          2      10    4fyz2             5.778011     -28.912732
                                                         1.800486       8.702441
                                                         0.613429       0.553159
                                                         0.194582      -0.004851
                          2      10    4fz3              5.778011     -12.930167
                                                         1.800486       3.891850
                                                         0.613429       0.247380
                                                         0.194582      -0.002169

     AE Potential information for                                            ALL

       Description:                                       All-electron potential
                                          Krack, Parrinello, PCCP 2, 2105 (2000)

       Gaussian exponent of the core charge distribution:              10.470541
       Electronic configuration (s p d ...):                           4   5   0


 MOLECULE KIND INFORMATION


 All atoms are their own molecule, skipping detailed information


 TOTAL NUMBERS AND MAXIMUM NUMBERS

  Total number of            - Atomic kinds:                                   1
                             - Atoms:                                          1
                             - Shell sets:                                     2
                             - Shells:                                        11
                             - Primitive Cartesian functions:                 12
                             - Cartesian basis functions:                     36
                             - Spherical basis functions:                     31

  Maximum angular momentum of the orbital basis functions:                     3


 MODULE QUICKSTEP: ATOMIC COORDINATES IN ANGSTROM

   Atom Kind Element         X             Y             Z       Z(eff)     Mass
      1    1 F     9     12.500000     12.500000     12.500000   9.0000  18.9984



 SCF PARAMETERS         Density guess:                                    ATOMIC
                        --------------------------------------------------------
                        max_scf:                                             200
                        max_scf_history:                                       0
                        max_diis:                                              4
                        --------------------------------------------------------
                        eps_scf:                                        1.00E-07
                        eps_scf_history:                                0.00E+00
                        eps_diis:                                       0.00E+00
                        eps_eigval:                                     1.00E-05
                        --------------------------------------------------------
                        level_shift [a.u.]:                             0.000000
                        --------------------------------------------------------
                        Outer loop SCF in use 
                        No variables optimised in outer loop
                        eps_scf                                         1.00E-07
                        max_scf                                               20
                        No outer loop optimization
                        step_size                                       5.00E-01

 PW_GRID| Information for grid number                                          1
 PW_GRID| Cutoff [a.u.]                                                    320.0
 PW_GRID| spherical cutoff:                                                   NO
 PW_GRID|   Bounds   1           -192     191                Points:         384
 PW_GRID|   Bounds   2           -192     191                Points:         384
 PW_GRID|   Bounds   3           -192     191                Points:         384
 PW_GRID| Volume element (a.u.^3)  0.1862E-02     Volume (a.u.^3)    105442.7279
 PW_GRID| Grid span                                                    FULLSPACE

 PW_GRID| Information for grid number                                          2
 PW_GRID| Number of the reference grid                                         1
 PW_GRID| Cutoff [a.u.]                                                    106.7
 PW_GRID| spherical cutoff:                                                   NO
 PW_GRID|   Bounds   1           -112     112                Points:         225
 PW_GRID|   Bounds   2           -112     112                Points:         225
 PW_GRID|   Bounds   3           -112     112                Points:         225
 PW_GRID| Volume element (a.u.^3)  0.9257E-02     Volume (a.u.^3)    105442.7279
 PW_GRID| Grid span                                                    FULLSPACE

 PW_GRID| Information for grid number                                          3
 PW_GRID| Number of the reference grid                                         1
 PW_GRID| Cutoff [a.u.]                                                     35.6
 PW_GRID| spherical cutoff:                                                   NO
 PW_GRID|   Bounds   1            -64      63                Points:         128
 PW_GRID|   Bounds   2            -64      63                Points:         128
 PW_GRID|   Bounds   3            -64      63                Points:         128
 PW_GRID| Volume element (a.u.^3)  0.5028E-01     Volume (a.u.^3)    105442.7279
 PW_GRID| Grid span                                                    FULLSPACE

 PW_GRID| Information for grid number                                          4
 PW_GRID| Number of the reference grid                                         1
 PW_GRID| Cutoff [a.u.]                                                     11.9
 PW_GRID| spherical cutoff:                                                   NO
 PW_GRID|   Bounds   1            -37      37                Points:          75
 PW_GRID|   Bounds   2            -37      37                Points:          75
 PW_GRID|   Bounds   3            -37      37                Points:          75
 PW_GRID| Volume element (a.u.^3)  0.2499         Volume (a.u.^3)    105442.7279
 PW_GRID| Grid span                                                    FULLSPACE

 PW_GRID| Information for grid number                                          5
 PW_GRID| Number of the reference grid                                         1
 PW_GRID| Cutoff [a.u.]                                                      4.0
 PW_GRID| spherical cutoff:                                                   NO
 PW_GRID|   Bounds   1            -22      22                Points:          45
 PW_GRID|   Bounds   2            -22      22                Points:          45
 PW_GRID|   Bounds   3            -22      22                Points:          45
 PW_GRID| Volume element (a.u.^3)   1.157         Volume (a.u.^3)    105442.7279
 PW_GRID| Grid span                                                    FULLSPACE

 POISSON| Solver                                                        ANALYTIC
 POISSON| Periodicity                                                       NONE

 RS_GRID| Information for grid number                                          1
 RS_GRID|   Bounds   1           -192     191                Points:         384
 RS_GRID|   Bounds   2           -192     191                Points:         384
 RS_GRID|   Bounds   3           -192     191                Points:         384

 RS_GRID| Information for grid number                                          2
 RS_GRID|   Bounds   1           -112     112                Points:         225
 RS_GRID|   Bounds   2           -112     112                Points:         225
 RS_GRID|   Bounds   3           -112     112                Points:         225

 RS_GRID| Information for grid number                                          3
 RS_GRID|   Bounds   1            -64      63                Points:         128
 RS_GRID|   Bounds   2            -64      63                Points:         128
 RS_GRID|   Bounds   3            -64      63                Points:         128

 RS_GRID| Information for grid number                                          4
 RS_GRID|   Bounds   1            -37      37                Points:          75
 RS_GRID|   Bounds   2            -37      37                Points:          75
 RS_GRID|   Bounds   3            -37      37                Points:          75

 RS_GRID| Information for grid number                                          5
 RS_GRID|   Bounds   1            -22      22                Points:          45
 RS_GRID|   Bounds   2            -22      22                Points:          45
 RS_GRID|   Bounds   3            -22      22                Points:          45

 Extrapolation method: initial_guess

 Atomic guess: The first density matrix is obtained in terms of atomic orbitals
               and electronic configurations assigned to each atomic kind

 Guess for atomic kind: F

 Electronic structure
    Total number of core electrons                                          0.00
    Total number of valence electrons                                       9.00
    Total number of electrons                                               9.00
    Multiplicity                                                   not specified
    S      2.00  2.00
    P      5.00


 *******************************************************************************
                  Iteration          Convergence                     Energy [au]
 *******************************************************************************
                          1         1.31383                     -98.875960574438
                          2         1.08265                     -98.897617088366
                          3        0.119836E-01                 -99.047795573159
                          4        0.310318E-02                 -99.047822792060
                          5        0.281181E-03                 -99.047823769170
                          6        0.418420E-06                 -99.047823777702

 Energy components [Hartree]           Total Energy ::          -99.047823777702
                                        Band Energy ::          -52.639133330179
                                     Kinetic Energy ::           98.692524857866
                                   Potential Energy ::         -197.740348635568
                                      Virial (-V/T) ::            2.003600059076
                                        Core Energy ::         -138.907306527650
                                          XC Energy ::           -9.613754507165
                                     Coulomb Energy ::           49.473237257113

 Orbital energies  State     L     Occupation   Energy[a.u.]          Energy[eV]

                       1     0          2.000     -24.200515         -658.529492
                       2     0          2.000      -1.075663          -29.270282

                       1     1          5.000      -0.417356          -11.356823


 Total Electron Density at R=0:                                       423.926250
 Re-scaling the density matrix to get the right number of electrons
                  # Electrons              Trace(P)               Scaling factor
                           10                 9.000                        1.111

 Number of electrons:                                                         10
 Number of occupied orbitals:                                                  5
 Number of molecular orbitals:                                                 5

 Number of orbital functions:                                                 31
 Number of independent orbital functions:                                     31


 SCF WAVEFUNCTION OPTIMIZATION

  ----------------------------------- OT ---------------------------------------
  Minimizer      : DIIS                : direct inversion
                                         in the iterative subspace
                                         using   7 DIIS vectors
                                         safer DIIS on
  Preconditioner : FULL_ALL            : diagonalization, state selective
  Precond_solver : DEFAULT
  stepsize       :    0.10000000                  energy_gap     :    0.00100000
  eps_taylor     :   0.10000E-15                  max_taylor     :             4
  ----------------------------------- OT ---------------------------------------

  Step     Update method      Time    Convergence         Total energy    Change
  ------------------------------------------------------------------------------
 SKALA_GPW| Atom-composite cross support/maxima   2.607069088142E+00   0.000000000000E+00   0.000000000000E+00   0.000000000000E+00
 SKALA_GPW| Active atom-composite XC energy  -1.1100959351584928E+01
 SKALA_GPW| Active atom-composite electrons   9.9999999228226422E+00
 SKALA_GPW| Active atom-composite density range  -9.2828540196215315E-10   2.1196312502129203E+02
 SKALA_GPW| Active atom-composite tau range  -1.9422782857869773E-09   7.4259087199702308E+03
 SKALA_GPW| Active atom-composite tau integral   1.0203537573274365E+02
 SKALA_GPW| Active atom-composite max gradient   3.3724613501651907E+03
     1 OT DIIS     0.10E+00   24.2     0.13854077       -99.6791737245 -9.97E+01
 SKALA_GPW| Atom-composite cross support/maxima   2.607069088142E+00   0.000000000000E+00   0.000000000000E+00   0.000000000000E+00
 SKALA_GPW| Active atom-composite XC energy  -1.0539530076213357E+01
 SKALA_GPW| Active atom-composite electrons   9.9999998787037203E+00
 SKALA_GPW| Active atom-composite density range  -2.3424093920019247E-09   2.1199375623979901E+02
 SKALA_GPW| Active atom-composite tau range  -5.0700689804947616E-09   7.4325995468202855E+03
 SKALA_GPW| Active atom-composite tau integral   9.8326454837514135E+01
 SKALA_GPW| Active atom-composite max gradient   3.3794270302720383E+03
     2 OT DIIS     0.10E+00   29.8     0.04104517       -99.7944466145 -1.15E-01
 SKALA_GPW| Atom-composite cross support/maxima   2.607069088142E+00   0.000000000000E+00   0.000000000000E+00   0.000000000000E+00
 SKALA_GPW| Active atom-composite XC energy  -1.0674893843510215E+01
 SKALA_GPW| Active atom-composite electrons   9.9999998905934575E+00
 SKALA_GPW| Active atom-composite density range  -1.9688800569747633E-09   2.1264571900708944E+02
 SKALA_GPW| Active atom-composite tau range  -4.2473969136994517E-09   7.4699330424082764E+03
 SKALA_GPW| Active atom-composite tau integral   9.9351252357387096E+01
 SKALA_GPW| Active atom-composite max gradient   3.3917078270265220E+03
     3 OT DIIS     0.10E+00   30.8     0.00616727       -99.8033965708 -8.95E-03
 SKALA_GPW| Atom-composite cross support/maxima   2.607069088142E+00   0.000000000000E+00   0.000000000000E+00   0.000000000000E+00
 SKALA_GPW| Active atom-composite XC energy  -1.0647367984976880E+01
 SKALA_GPW| Active atom-composite electrons   9.9999998876553740E+00
 SKALA_GPW| Active atom-composite density range  -2.0685556766057342E-09   2.1351991874921131E+02
 SKALA_GPW| Active atom-composite tau range  -4.4672150796990814E-09   7.5204748468569524E+03
 SKALA_GPW| Active atom-composite tau integral   9.9356727352562814E+01
 SKALA_GPW| Active atom-composite max gradient   3.4103271710114582E+03
     4 OT DIIS     0.10E+00   32.7     0.00698766       -99.8035317778 -1.35E-04
 SKALA_GPW| Atom-composite cross support/maxima   2.607069088142E+00   0.000000000000E+00   0.000000000000E+00   0.000000000000E+00
 SKALA_GPW| Active atom-composite XC energy  -1.0668652742290426E+01
 SKALA_GPW| Active atom-composite electrons   9.9999998895045863E+00
 SKALA_GPW| Active atom-composite density range  -2.0101644722295407E-09   2.1356576887687737E+02
 SKALA_GPW| Active atom-composite tau range  -4.3385220145844025E-09   7.5230069214828090E+03
 SKALA_GPW| Active atom-composite tau integral   9.9506364782195320E+01
 SKALA_GPW| Active atom-composite max gradient   3.4110526893286901E+03
     5 OT DIIS     0.10E+00   32.3     0.00022208       -99.8037971069 -2.65E-04
 SKALA_GPW| Atom-composite cross support/maxima   2.607069088142E+00   0.000000000000E+00   0.000000000000E+00   0.000000000000E+00
 SKALA_GPW| Active atom-composite XC energy  -1.0668135054418055E+01
 SKALA_GPW| Active atom-composite electrons   9.9999998894502689E+00
 SKALA_GPW| Active atom-composite density range  -2.0121168306325103E-09   2.1356712899436914E+02
 SKALA_GPW| Active atom-composite tau range  -4.3428282593118801E-09   7.5230209383229485E+03
 SKALA_GPW| Active atom-composite tau integral   9.9503576580113773E+01
 SKALA_GPW| Active atom-composite max gradient   3.4110698381693642E+03
     6 OT DIIS     0.10E+00   31.5     0.00002765       -99.8037975424 -4.36E-07
 SKALA_GPW| Atom-composite cross support/maxima   2.607069088142E+00   0.000000000000E+00   0.000000000000E+00   0.000000000000E+00
 SKALA_GPW| Active atom-composite XC energy  -1.0668099002940542E+01
 SKALA_GPW| Active atom-composite electrons   9.9999998894485369E+00
 SKALA_GPW| Active atom-composite density range  -2.0122842279782838E-09   2.1356639609756760E+02
 SKALA_GPW| Active atom-composite tau range  -4.3431977477274964E-09   7.5229653593540543E+03
 SKALA_GPW| Active atom-composite tau integral   9.9503271896781172E+01
 SKALA_GPW| Active atom-composite max gradient   3.4110513408657775E+03
     7 OT DIIS     0.10E+00   30.8     0.00001466       -99.8037974075  1.35E-07
 SKALA_GPW| Atom-composite cross support/maxima   2.607069088142E+00   0.000000000000E+00   0.000000000000E+00   0.000000000000E+00
 SKALA_GPW| Active atom-composite XC energy  -1.0668057218280591E+01
 SKALA_GPW| Active atom-composite electrons   9.9999998894485849E+00
 SKALA_GPW| Active atom-composite density range  -2.0123860811337973E-09   2.1356643164506639E+02
 SKALA_GPW| Active atom-composite tau range  -4.3434222060090463E-09   7.5229689366320808E+03
 SKALA_GPW| Active atom-composite tau integral   9.9503014810975728E+01
 SKALA_GPW| Active atom-composite max gradient   3.4110528014862803E+03
     8 OT DIIS     0.10E+00   28.9     0.00000014       -99.8037973958  1.16E-08
 SKALA_GPW| Atom-composite cross support/maxima   2.607069088142E+00   0.000000000000E+00   0.000000000000E+00   0.000000000000E+00
 SKALA_GPW| Active atom-composite XC energy  -1.0668056784701763E+01
 SKALA_GPW| Active atom-composite electrons   9.9999998894519369E+00
 SKALA_GPW| Active atom-composite density range  -2.0123874622285062E-09   2.1356643282084036E+02
 SKALA_GPW| Active atom-composite tau range  -4.3434253176304063E-09   7.5229689655704315E+03
 SKALA_GPW| Active atom-composite tau integral   9.9503012403757737E+01
 SKALA_GPW| Active atom-composite max gradient   3.4110528243454582E+03
     9 OT DIIS     0.10E+00   29.3     9.9463E-09       -99.8037973881  7.73E-09

  *** SCF run converged in     9 steps ***


  Electronic density on regular grids:         -7.2882116861        2.7117883139
  Core density on regular grids:                9.0000000000        0.0000000000
  Hard and soft densities (Lebedev):          -10.0000000000       -7.2882116861
  Total Rho_soft + Rho1_hard - Rho1_soft      -10.0000000000
  Total charge density (r-space):              -1.0000000000
  Total Rho_soft + Rho0_soft (g-space):        -1.0000000011

  Overlap energy of the core charge distribution:               0.00000000000000
  Self energy of the core charge distribution:               -104.56338968479818
  Core Hamiltonian energy:                                     -4.50148454062685
  Hartree energy:                                              18.96715186968534
  Exchange-correlation energy:                                  0.00000000000000

  GAPW| Exc from hard and soft atomic rho1:                   -10.66805678470176
  GAPW| local Eh = 1 center integrals:                          0.96198175231778

  Total energy:                                               -99.80379738812367

  outer SCF iter =    1 RMS gradient =   0.99E-08 energy =        -99.8037973881
  outer SCF loop converged in   1 iterations or    9 steps


 !-----------------------------------------------------------------------------!
                     Mulliken Population Analysis

 #  Atom  Element  Kind  Atomic population                           Net charge
       1     F        1         10.000000                             -1.000000
 # Total charge                             10.000000                 -1.000000

 !-----------------------------------------------------------------------------!

 !-----------------------------------------------------------------------------!
                           Hirshfeld Charges

  #Atom  Element  Kind  Ref Charge     Population                    Net charge
      1       F      1       9.000         10.000                        -1.000

  Total Charge                                                           -1.000
 !-----------------------------------------------------------------------------!

 ENERGY| Total FORCE_EVAL ( QS ) energy [hartree]            -99.803797388123670

 -------------------------------------------------------------------------------
 -                                                                             -
 -                                DBCSR STATISTICS                             -
 -                                                                             -
 -------------------------------------------------------------------------------
 COUNTER                                    TOTAL       BLAS       SMM       ACC
 flops     5 x     5 x     5                31250     100.0%      0.0%      0.0%     
 flops     5 x     5 x    31                57350     100.0%      0.0%      0.0%     
 flops    31 x     5 x     5                71300     100.0%      0.0%      0.0%     
 flops    31 x    31 x     5                96100     100.0%      0.0%      0.0%     
 flops    31 x     5 x    31               451670     100.0%      0.0%      0.0%     
 flops inhomo. stacks                           0       0.0%      0.0%      0.0%
 flops total                       707.670000E+03     100.0%      0.0%      0.0%
 flops max/rank                    707.670000E+03     100.0%      0.0%      0.0%
 matmuls inhomo. stacks                         0       0.0%      0.0%      0.0%
 matmuls total                                265     100.0%      0.0%      0.0%
 number of processed stacks                   265     100.0%      0.0%      0.0%
 average stack size                                     1.0       0.0       0.0
 marketing flops                   709.220000E+03
 -------------------------------------------------------------------------------
 # multiplications                            266
 max memory usage/rank              57.260380E+09
 # max total images/rank                        1
 # max 3D layers                                1
 # MPI messages exchanged                       0
 -------------------------------------------------------------------------------

 -------------------------------------------------------------------------------
 -                                                                             -
 -                                GRID STATISTICS                              -
 -                                                                             -
 -------------------------------------------------------------------------------
 LP    KERNEL             BACKEND                              COUNT     PERCENT
 6     collocate ortho    CPU                                    160      25.44%
 8     collocate ortho    CPU                                    160      25.44%
 6     integrate ortho    CPU                                    144      22.89%
 8     integrate ortho    CPU                                    144      22.89%
 4     collocate general  CPU                                      9       1.43%
 4     integrate general  CPU                                      9       1.43%
 0     collocate general  CPU                                      2       0.32%
 0     integrate general  CPU                                      1       0.16%
 -------------------------------------------------------------------------------

 -------------------------------------------------------------------------------
 -                                                                             -
 -                          OFFLOAD MEMPOOL STATISTICS                         -
 -                                                                             -
 -------------------------------------------------------------------------------
 Memory consumption                Number of allocations  Used [MiB]  Size [MiB]
 Host                                                  8         971          58
 -------------------------------------------------------------------------------

 MEMORY| Estimated peak process memory [MiB]                               31642

 -------------------------------------------------------------------------------
 ----                             MULTIGRID INFO                            ----
 -------------------------------------------------------------------------------
 count for grid        1:          17971          cutoff [a.u.]          320.00
 count for grid        2:           2555          cutoff [a.u.]          106.67
 count for grid        3:           1052          cutoff [a.u.]           35.56
 count for grid        4:            551          cutoff [a.u.]           11.85
 count for grid        5:              0          cutoff [a.u.]            3.95
 total gridlevel count  :          22129

 -------------------------------------------------------------------------------
 -                                                                             -
 -                           R E F E R E N C E S                               -
 -                                                                             -
 -------------------------------------------------------------------------------
 
 CP2K version 2026.2 (Development Version), the CP2K developers group (2026).
 CP2K is freely available from https://www.cp2k.org/ .
 
 M. Iannuzzi, J. Wilhelm, F. Stein, A. Bussy, H. Elgabarty, D. Golze, A. Hehn, 
 M. Graml, S. Marek, B. Sertcan Gökmen, C. Schran, H. Forbert, R. Z. 
 Khaliullin, A. Kozhevnikov, M. Taillefumier, R. Meli, V. V. Rybkin, M. Brehm, 
 R. Schade, O. Schütt, J. V. Pototschnig, H. Mirhosseini, A. Knüpfer, D. Marx, 
 M. Krack, J. Hutter, T. D. Kühne.
 J. Phys. Chem. B 130, 1237-1310 (2026).
 The CP2K Program Package Made Simple.
 https://doi.org/10.1021/acs.jpcb.5c05851

 L. Wittmann, I. Gordiy, M. Friede, B. Helmich-Paris, S. Grimme, A. Hansen, M. 
 Bursch.
 Phys. Chem. Chem. Phys. 26, 21379-21394 (2024).
 Extension of the D3 and D4 London dispersion corrections to the full actinides 
 series.
 https://doi.org/10.1039/d4cp01514b

 T. D. Kühne, M. Iannuzzi, M. Del Ben, V. V. Rybkin, P. Seewald, F. Stein, T. 
 Laino, R. Z. Khaliullin, O. Schütt, F. Schiffmann, D. Golze, J. Wilhelm, S. 
 Chulkov, M. H. Bani-Hashemian, V. Weber, U. Borstnik, M. Taillefumier, A. S. 
 Jakobovits, A. Lazzaro, H. Pabst, T. Müller, R. Schade, M. Guidon, S. 
 Andermatt, N. Holmberg, G. K. Schenter, A. Hehn, A. Bussy, F. Belleflamme, G. 
 Tabacchi, A. Glöß, M. Lass, I. Bethune, C. J. Mundy, C. Plessl, M. Watkins, 
 J. VandeVondele, M. Krack, J. Hutter.
 J. Chem. Phys. 152, 194103 (2020).
 CP2K: An electronic structure and molecular dynamics software package - 
 Quickstep: Efficient and accurate electronic structure calculations.
 https://doi.org/10.1063/5.0007045

 L. Goerigk, A. Hansen, C. Bauer, S. Ehrlich, A. Najibi, S. Grimme.
 Phys. Chem. Chem. Phys. 19, 32184-32215 (2017).
 A look at the density functional theory zoo with the advanced GMTKN55 database 
 for general main group thermochemistry, kinetics and noncovalent interactions.
 https://doi.org/10.1039/C7CP04913G

 O. Schuett, P. Messmer, J. Hutter, J. VandeVondele.
 Electronic Structure Calculations on Graphics Processing Units, 173-190 (2016).
 GPU-Accelerated Sparse Matrix-Matrix Multiplication for Linear Scaling Density 
 Functional Theory.
 https://doi.org/10.1002/9781118670712.ch8

 U. Borstnik, J. VandeVondele, V. Weber, J. Hutter.
 Parallel Comput. 40, 47-58 (2014).
 Sparse matrix multiplication: The distributed block-compressed sparse row 
 library.
 https://doi.org/10.1016/j.parco.2014.03.012

 S. Grimme, S. Ehrlich, L. Goerigk.
 J. Comput. Chem. 32, 1456 (2011).
 Effect of the damping function in dispersion corrected density functional 
 theory.
 https://doi.org/10.1002/jcc.21759

 S. Grimme, J. Antony, S. Ehrlich, H. Krieg.
 J. Chem. Phys. 132, 154104 (2010).
 A consistent and accurate ab initio parametrization of density functional 
 dispersion correction (DFT-D) for the 94 elements H-Pu.
 https://doi.org/10.1063/1.3382344

 J. VandeVondele, J. Hutter.
 J. Chem. Phys. 127, 114105 (2007).
 Gaussian basis sets for accurate calculations on molecular systems in gas and 
 condensed phases.
 https://doi.org/10.1063/1.2770708

 M. Frigo, S. G. Johnson.
 Proc. IEEE 93, 216-231 (2005).
 The design and implementation of FFTW3.
 https://doi.org/10.1109/JPROC.2004.840301

 J. VandeVondele, J. Hutter.
 J. Chem. Phys. 118, 4365-4369 (2003).
 An efficient orbital transformation method for electronic structure 
 calculations.
 https://doi.org/10.1063/1.1543154

 M. Krack, M. Parrinello.
 Phys. Chem. Chem. Phys. 2, 2105-2112 (2000).
 All-electron ab-initio molecular dynamics.
 https://doi.org/10.1039/b001167n

 G. Lippert, J. Hutter, M. Parrinello.
 Theor. Chem. Acc. 103, 124-140 (1999).
 The Gaussian and augmented-plane-wave density functional method for ab initio 
 molecular dynamics simulations.
 https://doi.org/10.1007/s002140050523


 -------------------------------------------------------------------------------
 -                                                                             -
 -                                T I M I N G                                  -
 -                                                                             -
 -------------------------------------------------------------------------------
 SUBROUTINE                       CALLS  ASD         SELF TIME        TOTAL TIME
                                MAXIMUM       AVERAGE  MAXIMUM  AVERAGE  MAXIMUM
 CP2K                                 1  1.0    1.510    1.510  303.674  303.674
 qs_energies                          1  2.0    0.000    0.000  284.034  284.034
 scf_env_do_scf                       1  3.0    0.000    0.000  276.781  276.781
 scf_env_do_scf_inner_loop            9  4.0    0.007    0.007  252.581  252.581
 qs_ks_update_qs_env                 10  5.0    0.000    0.000  221.349  221.349
 rebuild_ks_matrix                    9  6.0    0.000    0.000  221.348  221.348
 qs_ks_build_kohn_sham_matrix         9  7.0    0.003    0.003  221.348  221.348
 calculate_vxc_atom                   9  8.0   67.387   67.387  169.952  169.952
 fft_wrap_pw1pw2                    291  9.5    0.007    0.007  123.109  123.109
 fft_wrap_pw1pw2_320                139 10.6   30.413   30.413  114.346  114.346
 qs_rho_update_rho_low               10  5.0    0.000    0.000   60.902   60.902
 calculate_rho_elec                  20  6.0    3.898    3.898   60.858   60.858
 fft3d_s                            292 11.5   50.821   50.821   50.909   50.909
 xc_pw_derive                        54  9.5    0.001    0.001   46.524   46.524
 density_rs2pw                       20  7.0    0.001    0.001   41.140   41.140
 xc_pw_divergence                     9  9.0    0.001    0.001   31.262   31.262
 pw_scatter_s                       137 12.1   27.202   27.202   27.202   27.202
 init_scf_loop                        1  4.0    0.000    0.000   24.199   24.199
 sum_up_and_integrate                 9  8.0    0.001    0.001   22.812   22.812
 integrate_v_rspace                  18  9.0    0.001    0.001   22.424   22.424
 potential_pw2rs                     18 10.0    0.291    0.291   22.316   22.316
 qs_init_subsys                       1  2.0    0.001    0.001   17.251   17.251
 qs_env_setup                         1  3.0    0.000    0.000   17.102   17.102
 qs_env_rebuild_pw_env                2  3.5    0.000    0.000   17.102   17.102
 pw_env_rebuild                       1  5.0    0.000    0.000   17.102   17.102
 pw_grid_setup                        5  6.0    0.000    0.000   17.099   17.099
 pw_grid_setup_internal               5  7.0    0.150    0.150   17.099   17.099
 grid_collocate_task_list            20  7.0   15.821   15.821   15.821   15.821
 pw_grid_sort                         5  8.0   12.069   12.069   15.344   15.344
 skala_atom_torch_backward            9  9.0   14.391   14.391   14.391   14.391
 calc_tau_atom                       27  9.0   11.024   11.024   11.024   11.024
 prepare_gapw_den                     9  8.0    0.000    0.000   10.979   10.979
 put_rho0_on_grid                     9  9.0    1.709    1.709   10.367   10.367
 pw_gather_s                        154 11.0    9.066    9.066    9.066    9.066
 skala_atom_torch_forward             9  9.0    0.001    0.001    8.847    8.847
 torch_model_forward_mol_tensor       9 10.0    8.846    8.846    8.846    8.846
 pw_poisson_solve                     9  8.0    0.000    0.000    8.647    8.647
 fft_wrap_pw1pw2_110                 38 10.4    1.828    1.828    6.379    6.379
 init_scf_run                         1  3.0    0.000    0.000    6.213    6.213
 scf_env_initial_rho_setup            1  4.0    0.000    0.000    6.213    6.213
 -------------------------------------------------------------------------------

 The number of warnings for this run is : 0
 
 -------------------------------------------------------------------------------
  **** **** ******  **  PROGRAM ENDED AT                 2026-08-25 02:39:25.714
 ***** ** ***  *** **   PROGRAM RAN ON                                    cge057
 **    ****   ******    PROGRAM RAN BY                                  kuehne88
 ***** **    ** ** **   PROGRAM PROCESS ID                                821869
  **** **  *******  **  PROGRAM STOPPED IN /data/home2/kuehne88/cp2k-native-skal
                                           a/validation-uzh/diet-production-p25/
                                           shared-gapw-ae/a4311fb749e9e7e31b39d1
                                           2c2a45961170a253a1
