 DBCSR| CPU Multiplication driver                                           BLAS (U)
 DBCSR| Multrec recursion limit                                              512 (U)
 DBCSR| Multiplication stack size                                          30000 (D)
 DBCSR| Maximum elements for images                                    UNLIMITED (U)
 DBCSR| Multiplicative factor virtual images                                   1 (U)
 DBCSR| Use multiplication densification                                       F (D)
 DBCSR| Multiplication size stacks                                             3 (U)
 DBCSR| Use memory pool for CPU allocation                                     F (U)
 DBCSR| Number of 3D layers                                               SINGLE (U)
 DBCSR| Use MPI memory allocation                                              F (U)
 DBCSR| Use RMA algorithm                                                      F (U)
 DBCSR| Use Communication thread                                               T (U)
 DBCSR| Communication thread load                                             45 (D)
 DBCSR| MPI: My process id                                                     0
 DBCSR| MPI: Number of processes                                               1
 DBCSR| OMP: Current number of threads                                        12
 DBCSR| OMP: Max number of threads                                            12
 DBCSR| ACC: Number of devices/node                                            1
 DBCSR| ACC: Number of stack-buffers per thread                                8 (U)
 DBCSR| ACC: Avoid driver after busy                                           F (U)
 DBCSR| ACC: Process inhomogeneous stacks                                      T (U)
 DBCSR| ACC: Min. flop for processing                                          0 (U)
 DBCSR| ACC: Use G2G algorithm                                                 F (D)
 DBCSR| ACC: Min. flop for sorting                                          4000 (U)
 DBCSR| ACC: Number of binning bins                                         4096 (U)
 DBCSR| ACC: Size of binning bins                                             16 (U)
 DBCSR| ACC: GPU backend is enabled                                            T (D)
 DBCSR| Split modifier for TAS multiplication algorithm                  1.0E+00 (U)


  **** **** ******  **  PROGRAM STARTED AT               2026-09-03 16:20:13.813
 ***** ** ***  *** **   PROGRAM STARTED ON                                 gb008
 **    ****   ******    PROGRAM STARTED BY                              kuehne88
 ***** **    ** ** **   PROGRAM PROCESS ID                               1479864
  **** **  *******  **  PROGRAM STARTED IN /data/home2/kuehne88/cp2k-native-skal
                                           a/goldzak12/runs/diagnostic-b200-hd-a
                                           lp-v02-from-v01-volume-continuation-2
                                           0260903/production/hybrid-direct/AlP/
                                           v02

 CP2K| version string:                 CP2K version 2026.2 (Development Version)
 CP2K| source code revision number:                                   246ece5193
 CP2K| cp2kflags: omp fftw3 parallel scalapack mpi_f08 dbcsr_acc spglib openblas
 CP2K|             libtorch libtorch_cuda offload_cuda
 CP2K| is freely available from                            https://www.cp2k.org/
 CP2K| Program compiled at                                   2026-09-03 12:17:13
 CP2K| Program compiled on                                                 gb008
 CP2K| Program compiled for                                               x86_64
 CP2K| Data directory path    /data/home2/kuehne88/cp2k-native-skala/install/cp2
 CP2K| Input file name                                          actual-input.inp

 GLOBAL| Force Environment number                                              1
 GLOBAL| Basis set file name                             BASIS_MOLOPT_UZH_2026.2
 GLOBAL| Potential file name                                POTENTIAL_UZH_2026.2
 GLOBAL| MM Potential file name                                     MM_POTENTIAL
 GLOBAL| Coordinate file name                                      __STD_INPUT__
 GLOBAL| Method name                                                        CP2K
 GLOBAL| Project name                   G12_AlP_hybrid-direct_v0p9222222222_k444
 GLOBAL| Run type                                                         ENERGY
 GLOBAL| FFT library                                                       FFTW3
 GLOBAL| Diagonalization library                                       ScaLAPACK
 GLOBAL| Cholesky decomposition library                                ScaLAPACK
 GLOBAL| DGEMM library                                                      BLAS
 GLOBAL| Direct generalized diagonalization requested                          F
 GLOBAL| Orthonormality check for eigenvectors                          DISABLED
 GLOBAL| Matrix multiplication library                                 ScaLAPACK
 GLOBAL| All-to-all communication in single precision                          F
 GLOBAL| FFTs using library dependent lengths                                  F
 GLOBAL| Grid backend                                                       AUTO
 GLOBAL| Global print level                                               MEDIUM
 GLOBAL| MPI I/O enabled                                                       T
 GLOBAL| Total number of message passing processes                             1
 GLOBAL| Number of distributed systems (nodes)                                 1
 GLOBAL| Number of threads for this process                                   12
 GLOBAL| This output is from process                                           0
 GLOBAL| OpenMP stack size per thread (OMP_STACKSIZE)                       256M
 GLOBAL| CPU model name                         AMD EPYC 9755 128-Core Processor

 MEMORY| system memory details [Kb]
 MEMORY|                        rank 0           min           max       average
 MEMORY| MemTotal           2377441636    2377441636    2377441636    2377441636
 MEMORY| MemFree            2205519912    2205519912    2205519912    2205519912
 MEMORY| Buffers                  7448          7448          7448          7448
 MEMORY| Cached               51023632      51023632      51023632      51023632
 MEMORY| Slab                  3584444       3584444       3584444       3584444
 MEMORY| SReclaimable           697156        697156        697156        697156
 MEMORY| MemLikelyFree      2257248148    2257248148    2257248148    2257248148


 *** Fundamental physical constants (SI units) ***

 *** Literature: B. J. Mohr and B. N. Taylor,
 ***             CODATA recommended values of the fundamental physical
 ***             constants: 2006, Web Version 5.1
 ***             http://physics.nist.gov/constants

 Speed of light in vacuum [m/s]                             2.99792458000000E+08
 Magnetic constant or permeability of vacuum [N/A**2]       1.25663706143592E-06
 Electric constant or permittivity of vacuum [F/m]          8.85418781762039E-12
 Planck constant (h) [J*s]                                  6.62606896000000E-34
 Planck constant (h-bar) [J*s]                              1.05457162825177E-34
 Elementary charge [C]                                      1.60217648700000E-19
 Electron mass [kg]                                         9.10938215000000E-31
 Electron g factor [ ]                                     -2.00231930436220E+00
 Proton mass [kg]                                           1.67262163700000E-27
 Fine-structure constant                                    7.29735253760000E-03
 Rydberg constant [1/m]                                     1.09737315685270E+07
 Avogadro constant [1/mol]                                  6.02214179000000E+23
 Boltzmann constant [J/K]                                   1.38065040000000E-23
 Atomic mass unit [kg]                                      1.66053878200000E-27
 Bohr radius [m]                                            5.29177208590000E-11

 *** Conversion factors ***

 [u] -> [a.u.]                                              1.82288848426455E+03
 [Angstrom] -> [Bohr] = [a.u.]                              1.88972613288564E+00
 [a.u.] = [Bohr] -> [Angstrom]                              5.29177208590000E-01
 [a.u.] -> [s]                                              2.41888432650478E-17
 [a.u.] -> [fs]                                             2.41888432650478E-02
 [a.u.] -> [J]                                              4.35974393937059E-18
 [a.u.] -> [N]                                              8.23872205491840E-08
 [a.u.] -> [K]                                              3.15774647902944E+05
 [a.u.] -> [kJ/mol]                                         2.62549961709828E+03
 [a.u.] -> [kcal/mol]                                       6.27509468713739E+02
 [a.u.] -> [Pa]                                             2.94210107994716E+13
 [a.u.] -> [bar]                                            2.94210107994716E+08
 [a.u.] -> [atm]                                            2.90362800883016E+08
 [a.u.] -> [eV]                                             2.72113838565563E+01
 [a.u.] -> [Hz]                                             6.57968392072181E+15
 [a.u.] -> [1/cm] (wave numbers)                            2.19474631370540E+05
 [a.u./Bohr**2] -> [1/cm]                                   5.14048714338585E+03
 

 CELL| Volume [angstrom^3]:                                           149.123772
 CELL| Vector a [angstrom]:       5.303     0.000     0.000   |a| =     5.302927
 CELL| Vector b [angstrom]:       0.000     5.303     0.000   |b| =     5.302927
 CELL| Vector c [angstrom]:       0.000     0.000     5.303   |c| =     5.302927
 CELL| Angle (b,c), alpha [degree]:                                    90.000000
 CELL| Angle (a,c), beta  [degree]:                                    90.000000
 CELL| Angle (a,b), gamma [degree]:                                    90.000000
 CELL| Numerically orthorhombic:                                             YES
 CELL| Periodicity                                                           XYZ

 CELL_REF| Volume [angstrom^3]:                                       149.123772
 CELL_REF| Vector a [angstrom     5.303     0.000     0.000   |a| =     5.302927
 CELL_REF| Vector b [angstrom     0.000     5.303     0.000   |b| =     5.302927
 CELL_REF| Vector c [angstrom     0.000     0.000     5.303   |c| =     5.302927
 CELL_REF| Angle (b,c), alpha [degree]:                                90.000000
 CELL_REF| Angle (a,c), beta  [degree]:                                90.000000
 CELL_REF| Angle (a,b), gamma [degree]:                                90.000000
 CELL_REF| Numerically orthorhombic:                                         YES
 CELL_REF| Periodicity                                                       XYZ

 GENERATE|  Preliminary Number of Bonds generated:                             0
 GENERATE|  Achieved consistency in connectivity generation.

 *******************************************************************************
 *******************************************************************************
 **                                                                           **
 **     #####                         ##              ##                      **
 **    ##   ##            ##          ##              ##                      **
 **   ##     ##                       ##            ######                    **
 **   ##     ##  ##   ##  ##   #####  ##  ##   ####   ##    #####    #####    **
 **   ##     ##  ##   ##  ##  ##      ## ##   ##      ##   ##   ##  ##   ##   **
 **   ##  ## ##  ##   ##  ##  ##      ####     ###    ##   ######   ######    **
 **    ##  ###   ##   ##  ##  ##      ## ##      ##   ##   ##       ##        **
 **     #######   #####   ##   #####  ##  ##  ####    ##    #####   ##        **
 **           ##                                                    ##        **
 **                                                                           **
 **                                                ... make the atoms dance   **
 **                                                                           **
 **            Copyright (C) by CP2K developers group (2000-2026)             **
 **                      J. Chem. Phys. 152, 194103 (2020)                    **
 **                                                                           **
 *******************************************************************************

 DFT| Spin restricted Kohn-Sham (RKS) calculation                            RKS
 DFT| Multiplicity                                                             1
 DFT| Number of spin states                                                    1
 DFT| Charge                                                                   0
 DFT| Self-interaction correction (SIC)                                       NO
 DFT| Cutoffs: density                                              1.000000E-10
 DFT|          gradient                                             1.000000E-10
 DFT|          tau                                                  1.000000E-10
 DFT|          cutoff_smoothing_range                               0.000000E+00
 DFT| XC density smoothing                                                  NONE
 DFT| XC derivatives                                                          PW

 FUNCTIONAL| GAUXC:
 FUNCTIONAL| Functional computed by GauXC Skala model SKALA                     

 vdW POTENTIAL|                                                   Pair Potential
 vdW POTENTIAL|          DFT-D3 (Version 3.1)
 vdW POTENTIAL|          Potential Form: S. Grimme et al, JCP 132: 154104 (2010)
 vdW POTENTIAL|          BJ Damping: S. Grimme et al, JCC 32: 1456 (2011)
 vdW POTENTIAL|          Cutoff Radius [Bohr]:                             37.79
 vdW POTENTIAL|          s6 Scaling Factor:                               1.0000
 vdW POTENTIAL|          a1 Damping Factor:                               0.3981
 vdW POTENTIAL|          s8 Scaling Factor:                               1.9889
 vdW POTENTIAL|          a2 Damping Factor:                               4.4211
 vdW POTENTIAL|          Cutoff for CN calculation:                   0.1000E-05

 QS| Method:                                                                GAPW
 QS| Density plane wave grid type                        NON-SPHERICAL FULLSPACE
 QS| Number of grid levels:                                                    5
 QS| Density cutoff [a.u.]:                                                400.0
 QS| Multi grid cutoff [a.u.]: 1) grid level                               400.0
 QS|                           2) grid level                               133.3
 QS|                           3) grid level                                44.4
 QS|                           4) grid level                                14.8
 QS|                           5) grid level                                 4.9
 QS| Grid level progression factor:                                          3.0
 QS| Relative density cutoff [a.u.]:                                        30.0
 QS| Interaction thresholds: eps_pgf_orb:                                1.0E-06
 QS|                         eps_filter_matrix:                          0.0E+00
 QS|                         eps_core_charge:                            1.0E-14
 QS|                         eps_rho_gspace:                             1.0E-12
 QS|                         eps_rho_rspace:                             1.0E-12
 QS|                         eps_gvg_rspace:                             1.0E-06
 QS|                         eps_ppl:                                    1.0E-02
 QS|                         eps_ppnl:                                   1.0E-08
 QS| GAPW|      XC integration using accurate scheme: Ref. exponent     6.000000
 QS| GAPW|      One center basis extended with primitives (small:s)
 QS| GAPW|                   eps_fit:                                    1.0E-04
 QS| GAPW|                   eps_iso:                                    1.0E-12
 QS| GAPW|                   eps_svd:                                    1.0E-08
 QS| GAPW|                   eps_cpc:                                    1.0E-12
 QS| GAPW|   atom-r-grid: quadrature:                                     GC_LOG
 QS| GAPW|      atom-s-grid:  max l :                                          6
 QS| GAPW|      max_l_rho0 :                                                   4
 QS| GAPW|      At least one kind is NOT PAW, i.e. it has only soft AO 
 QS| GAPW|      The NOT PAW atoms are treated fully GPW


 ATOMIC KIND INFORMATION

  1. Atomic kind: Al                                    Number of atoms:       4

     Orbital Basis Set                                   TZV2P-MOLOPT-PBE-GTH-q3

       Number of orbital shell sets:                                           1
       Number of orbital shells:                                               9
       Number of primitive Cartesian functions:                                4
       Number of Cartesian basis functions:                                   34
       Number of spherical basis functions:                                   29
       Norm type:                                                              2

       Normalised Cartesian orbitals:

                        Set   Shell   Orbital            Exponent    Coefficient

                          1       1    2s                0.932557       0.083073
                                                         0.319866       0.005280
                                                         0.138316      -0.124729
                                                         0.047186      -0.024582

                          1       2    3s                0.932557      -1.003094
                                                         0.319866       0.522344
                                                         0.138316       0.044175
                                                         0.047186      -0.076887

                          1       3    4s                0.932557      -0.514791
                                                         0.319866      -0.029539
                                                         0.138316      -0.075728
                                                         0.047186       0.056402

                          1       4    3px               0.932557       0.068696
                                                         0.319866      -0.093391
                                                         0.138316      -0.065498
                                                         0.047186      -0.010400
                          1       4    3py               0.932557       0.068696
                                                         0.319866      -0.093391
                                                         0.138316      -0.065498
                                                         0.047186      -0.010400
                          1       4    3pz               0.932557       0.068696
                                                         0.319866      -0.093391
                                                         0.138316      -0.065498
                                                         0.047186      -0.010400

                          1       5    4px               0.932557      -0.246289
                                                         0.319866       0.398702
                                                         0.138316      -0.014422
                                                         0.047186      -0.024688
                          1       5    4py               0.932557      -0.246289
                                                         0.319866       0.398702
                                                         0.138316      -0.014422
                                                         0.047186      -0.024688
                          1       5    4pz               0.932557      -0.246289
                                                         0.319866       0.398702
                                                         0.138316      -0.014422
                                                         0.047186      -0.024688

                          1       6    5px               0.932557      -1.119223
                                                         0.319866       0.162694
                                                         0.138316      -0.115503
                                                         0.047186       0.032978
                          1       6    5py               0.932557      -1.119223
                                                         0.319866       0.162694
                                                         0.138316      -0.115503
                                                         0.047186       0.032978
                          1       6    5pz               0.932557      -1.119223
                                                         0.319866       0.162694
                                                         0.138316      -0.115503
                                                         0.047186       0.032978

                          1       7    4dx2              0.932557       0.314587
                                                         0.319866       0.129094
                                                         0.138316       0.015385
                                                         0.047186       0.000911
                          1       7    4dxy              0.932557       0.544880
                                                         0.319866       0.223598
                                                         0.138316       0.026648
                                                         0.047186       0.001577
                          1       7    4dxz              0.932557       0.544880
                                                         0.319866       0.223598
                                                         0.138316       0.026648
                                                         0.047186       0.001577
                          1       7    4dy2              0.932557       0.314587
                                                         0.319866       0.129094
                                                         0.138316       0.015385
                                                         0.047186       0.000911
                          1       7    4dyz              0.932557       0.544880
                                                         0.319866       0.223598
                                                         0.138316       0.026648
                                                         0.047186       0.001577
                          1       7    4dz2              0.932557       0.314587
                                                         0.319866       0.129094
                                                         0.138316       0.015385
                                                         0.047186       0.000911

                          1       8    5dx2              0.932557      -1.719432
                                                         0.319866       0.207166
                                                         0.138316      -0.050169
                                                         0.047186       0.000753
                          1       8    5dxy              0.932557      -2.978144
                                                         0.319866       0.358822
                                                         0.138316      -0.086895
                                                         0.047186       0.001305
                          1       8    5dxz              0.932557      -2.978144
                                                         0.319866       0.358822
                                                         0.138316      -0.086895
                                                         0.047186       0.001305
                          1       8    5dy2              0.932557      -1.719432
                                                         0.319866       0.207166
                                                         0.138316      -0.050169
                                                         0.047186       0.000753
                          1       8    5dyz              0.932557      -2.978144
                                                         0.319866       0.358822
                                                         0.138316      -0.086895
                                                         0.047186       0.001305
                          1       8    5dz2              0.932557      -1.719432
                                                         0.319866       0.207166
                                                         0.138316      -0.050169
                                                         0.047186       0.000753

                          1       9    5fx3              0.932557       0.230253
                                                         0.319866       0.076507
                                                         0.138316       0.004727
                                                         0.047186       0.000082
                          1       9    5fx2y             0.932557       0.514860
                                                         0.319866       0.171074
                                                         0.138316       0.010571
                                                         0.047186       0.000183
                          1       9    5fx2z             0.932557       0.514860
                                                         0.319866       0.171074
                                                         0.138316       0.010571
                                                         0.047186       0.000183
                          1       9    5fxy2             0.932557       0.514860
                                                         0.319866       0.171074
                                                         0.138316       0.010571
                                                         0.047186       0.000183
                          1       9    5fxyz             0.932557       0.891765
                                                         0.319866       0.296309
                                                         0.138316       0.018310
                                                         0.047186       0.000318
                          1       9    5fxz2             0.932557       0.514860
                                                         0.319866       0.171074
                                                         0.138316       0.010571
                                                         0.047186       0.000183
                          1       9    5fy3              0.932557       0.230253
                                                         0.319866       0.076507
                                                         0.138316       0.004727
                                                         0.047186       0.000082
                          1       9    5fy2z             0.932557       0.514860
                                                         0.319866       0.171074
                                                         0.138316       0.010571
                                                         0.047186       0.000183
                          1       9    5fyz2             0.932557       0.514860
                                                         0.319866       0.171074
                                                         0.138316       0.010571
                                                         0.047186       0.000183
                          1       9    5fz3              0.932557       0.230253
                                                         0.319866       0.076507
                                                         0.138316       0.004727
                                                         0.047186       0.000082

       Atomic covalent radius [Angstrom]:                                  1.180

       Atomic van der Waals radius [Angstrom]:                             1.840

     GTH Potential information for                                    GTH-PBE-q3

       Description:                       Goedecker-Teter-Hutter pseudopotential
                                           Goedecker et al., PRB 54, 1703 (1996)
                                          Hartwigsen et al., PRB 58, 3641 (1998)
                                                      Krack, TCA 114, 145 (2005)

       Gaussian exponent of the core charge distribution:               2.469029
       Electronic configuration (s p d ...):                       2   1   0   0

       Parameters of the local part of the GTH pseudopotential:

                          rloc        C1          C2          C3          C4
                        0.450010   -7.556450

       Parameters of the non-local part of the GTH pseudopotential:

                   l      r(l)      h(i,j,l)

                   0    0.487441    6.960085   -1.888835
                                   -1.888835    2.438483
                   1    0.562274    1.865363

  2. Atomic kind: P                                     Number of atoms:       4

     Orbital Basis Set                                   TZV2P-MOLOPT-PBE-GTH-q5

       Number of orbital shell sets:                                           1
       Number of orbital shells:                                               9
       Number of primitive Cartesian functions:                                4
       Number of Cartesian basis functions:                                   34
       Number of spherical basis functions:                                   29
       Norm type:                                                              2

       Normalised Cartesian orbitals:

                        Set   Shell   Orbital            Exponent    Coefficient

                          1       1    2s                1.529974       0.330831
                                                         0.572156      -0.121865
                                                         0.221473      -0.178453
                                                         0.075885      -0.020408

                          1       2    3s                1.529974       0.353664
                                                         0.572156      -0.203423
                                                         0.221473       0.005821
                                                         0.075885       0.111796

                          1       3    4s                1.529974      -1.067157
                                                         0.572156       0.214068
                                                         0.221473      -0.177211
                                                         0.075885       0.057956

                          1       4    3px               1.529974       0.268378
                                                         0.572156      -0.381409
                                                         0.221473      -0.118831
                                                         0.075885      -0.003877
                          1       4    3py               1.529974       0.268378
                                                         0.572156      -0.381409
                                                         0.221473      -0.118831
                                                         0.075885      -0.003877
                          1       4    3pz               1.529974       0.268378
                                                         0.572156      -0.381409
                                                         0.221473      -0.118831
                                                         0.075885      -0.003877

                          1       5    4px               1.529974       0.260904
                                                         0.572156      -0.330883
                                                         0.221473       0.080611
                                                         0.075885       0.048633
                          1       5    4py               1.529974       0.260904
                                                         0.572156      -0.330883
                                                         0.221473       0.080611
                                                         0.075885       0.048633
                          1       5    4pz               1.529974       0.260904
                                                         0.572156      -0.330883
                                                         0.221473       0.080611
                                                         0.075885       0.048633

                          1       6    5px               1.529974       0.623329
                                                         0.572156       0.730611
                                                         0.221473      -0.234303
                                                         0.075885       0.056701
                          1       6    5py               1.529974       0.623329
                                                         0.572156       0.730611
                                                         0.221473      -0.234303
                                                         0.075885       0.056701
                          1       6    5pz               1.529974       0.623329
                                                         0.572156       0.730611
                                                         0.221473      -0.234303
                                                         0.075885       0.056701

                          1       7    4dx2              1.529974       0.641565
                                                         0.572156       0.349115
                                                         0.221473       0.047365
                                                         0.075885       0.000033
                          1       7    4dxy              1.529974       1.111223
                                                         0.572156       0.604685
                                                         0.221473       0.082039
                                                         0.075885       0.000058
                          1       7    4dxz              1.529974       1.111223
                                                         0.572156       0.604685
                                                         0.221473       0.082039
                                                         0.075885       0.000058
                          1       7    4dy2              1.529974       0.641565
                                                         0.572156       0.349115
                                                         0.221473       0.047365
                                                         0.075885       0.000033
                          1       7    4dyz              1.529974       1.111223
                                                         0.572156       0.604685
                                                         0.221473       0.082039
                                                         0.075885       0.000058
                          1       7    4dz2              1.529974       0.641565
                                                         0.572156       0.349115
                                                         0.221473       0.047365
                                                         0.075885       0.000033

                          1       8    5dx2              1.529974      -0.416790
                                                         0.572156       0.702038
                                                         0.221473      -0.180280
                                                         0.075885       0.002500
                          1       8    5dxy              1.529974      -0.721901
                                                         0.572156       1.215965
                                                         0.221473      -0.312254
                                                         0.075885       0.004331
                          1       8    5dxz              1.529974      -0.721901
                                                         0.572156       1.215965
                                                         0.221473      -0.312254
                                                         0.075885       0.004331
                          1       8    5dy2              1.529974      -0.416790
                                                         0.572156       0.702038
                                                         0.221473      -0.180280
                                                         0.075885       0.002500
                          1       8    5dyz              1.529974      -0.721901
                                                         0.572156       1.215965
                                                         0.221473      -0.312254
                                                         0.075885       0.004331
                          1       8    5dz2              1.529974      -0.416790
                                                         0.572156       0.702038
                                                         0.221473      -0.180280
                                                         0.075885       0.002500

                          1       9    5fx3              1.529974       0.452264
                                                         0.572156       0.259688
                                                         0.221473       0.022786
                                                         0.075885      -0.000501
                          1       9    5fx2y             1.529974       1.011293
                                                         0.572156       0.580680
                                                         0.221473       0.050951
                                                         0.075885      -0.001120
                          1       9    5fx2z             1.529974       1.011293
                                                         0.572156       0.580680
                                                         0.221473       0.050951
                                                         0.075885      -0.001120
                          1       9    5fxy2             1.529974       1.011293
                                                         0.572156       0.580680
                                                         0.221473       0.050951
                                                         0.075885      -0.001120
                          1       9    5fxyz             1.529974       1.751610
                                                         0.572156       1.005767
                                                         0.221473       0.088251
                                                         0.075885      -0.001939
                          1       9    5fxz2             1.529974       1.011293
                                                         0.572156       0.580680
                                                         0.221473       0.050951
                                                         0.075885      -0.001120
                          1       9    5fy3              1.529974       0.452264
                                                         0.572156       0.259688
                                                         0.221473       0.022786
                                                         0.075885      -0.000501
                          1       9    5fy2z             1.529974       1.011293
                                                         0.572156       0.580680
                                                         0.221473       0.050951
                                                         0.075885      -0.001120
                          1       9    5fyz2             1.529974       1.011293
                                                         0.572156       0.580680
                                                         0.221473       0.050951
                                                         0.075885      -0.001120
                          1       9    5fz3              1.529974       0.452264
                                                         0.572156       0.259688
                                                         0.221473       0.022786
                                                         0.075885      -0.000501

       Atomic covalent radius [Angstrom]:                                  1.060

       Atomic van der Waals radius [Angstrom]:                             1.800

     GTH Potential information for                                    GTH-PBE-q5

       Description:                       Goedecker-Teter-Hutter pseudopotential
                                           Goedecker et al., PRB 54, 1703 (1996)
                                          Hartwigsen et al., PRB 58, 3641 (1998)
                                                      Krack, TCA 114, 145 (2005)

       Gaussian exponent of the core charge distribution:               2.702572
       Electronic configuration (s p d ...):                       2   3   0   0

       Parameters of the local part of the GTH pseudopotential:

                          rloc        C1          C2          C3          C4
                        0.430127   -5.862875

       Parameters of the non-local part of the GTH pseudopotential:

                   l      r(l)      h(i,j,l)

                   0    0.396379   11.009068   -3.470357
                                   -3.470357    4.480230
                   1    0.448294    3.056058


 MOLECULE KIND INFORMATION


 All atoms are their own molecule, skipping detailed information


 TOTAL NUMBERS AND MAXIMUM NUMBERS

  Total number of            - Atomic kinds:                                   2
                             - Atoms:                                          8
                             - Shell sets:                                     8
                             - Shells:                                        72
                             - Primitive Cartesian functions:                 32
                             - Cartesian basis functions:                    272
                             - Spherical basis functions:                    232

  Maximum angular momentum of- Orbital basis functions:                        3
                             - Local part of the GTH pseudopotential:          0
                             - Non-local part of the GTH pseudopotential:      2


 MODULE QUICKSTEP: ATOMIC COORDINATES IN ANGSTROM

   Atom Kind Element         X             Y             Z       Z(eff)     Mass
      1    1 Al   13      0.000000      0.000000      0.000000   3.0000  26.9815
      2    1 Al   13      0.000000      2.651463      2.651463   3.0000  26.9815
      3    1 Al   13      2.651463      0.000000      2.651463   3.0000  26.9815
      4    1 Al   13      2.651463      2.651463      0.000000   3.0000  26.9815
      5    2 P    15      1.325732      1.325732      1.325732   5.0000  30.9738
      6    2 P    15      1.325732      3.977195      3.977195   5.0000  30.9738
      7    2 P    15      3.977195      1.325732      3.977195   5.0000  30.9738
      8    2 P    15      3.977195      3.977195      1.325732   5.0000  30.9738



 SCF PARAMETERS         Density guess:                                   RESTART
                        --------------------------------------------------------
                        max_scf:                                              50
                        max_scf_history:                                       0
                        max_diis:                                              4
                        --------------------------------------------------------
                        eps_scf:                                        5.00E-07
                        eps_scf_history:                                0.00E+00
                        eps_diis:                                       0.00E+00
                        eps_eigval:                                     1.00E-05
                        --------------------------------------------------------
                        level_shift [a.u.]:                             0.000000
                        --------------------------------------------------------
                        Outer loop SCF in use 
                        No variables optimised in outer loop
                        eps_scf                                         5.00E-07
                        max_scf                                                4
                        No outer loop optimization
                        step_size                                       5.00E-01

 PW_GRID| Information for grid number                                          1
 PW_GRID| Cutoff [a.u.]                                                    400.0
 PW_GRID| spherical cutoff:                                                   NO
 PW_GRID|   Bounds   1            -48      47                Points:          96
 PW_GRID|   Bounds   2            -48      47                Points:          96
 PW_GRID|   Bounds   3            -48      47                Points:          96
 PW_GRID| Volume element (a.u.^3)  0.1137E-02     Volume (a.u.^3)      1006.3371
 PW_GRID| Grid span                                                    FULLSPACE

 PW_GRID| Information for grid number                                          2
 PW_GRID| Number of the reference grid                                         1
 PW_GRID| Cutoff [a.u.]                                                    133.3
 PW_GRID| spherical cutoff:                                                   NO
 PW_GRID|   Bounds   1            -27      26                Points:          54
 PW_GRID|   Bounds   2            -27      26                Points:          54
 PW_GRID|   Bounds   3            -27      26                Points:          54
 PW_GRID| Volume element (a.u.^3)  0.6391E-02     Volume (a.u.^3)      1006.3371
 PW_GRID| Grid span                                                    FULLSPACE

 PW_GRID| Information for grid number                                          3
 PW_GRID| Number of the reference grid                                         1
 PW_GRID| Cutoff [a.u.]                                                     44.4
 PW_GRID| spherical cutoff:                                                   NO
 PW_GRID|   Bounds   1            -16      15                Points:          32
 PW_GRID|   Bounds   2            -16      15                Points:          32
 PW_GRID|   Bounds   3            -16      15                Points:          32
 PW_GRID| Volume element (a.u.^3)  0.3071E-01     Volume (a.u.^3)      1006.3371
 PW_GRID| Grid span                                                    FULLSPACE

 PW_GRID| Information for grid number                                          4
 PW_GRID| Number of the reference grid                                         1
 PW_GRID| Cutoff [a.u.]                                                     14.8
 PW_GRID| spherical cutoff:                                                   NO
 PW_GRID|   Bounds   1             -9       8                Points:          18
 PW_GRID|   Bounds   2             -9       8                Points:          18
 PW_GRID|   Bounds   3             -9       8                Points:          18
 PW_GRID| Volume element (a.u.^3)  0.1726         Volume (a.u.^3)      1006.3371
 PW_GRID| Grid span                                                    FULLSPACE

 PW_GRID| Information for grid number                                          5
 PW_GRID| Number of the reference grid                                         1
 PW_GRID| Cutoff [a.u.]                                                      4.9
 PW_GRID| spherical cutoff:                                                   NO
 PW_GRID|   Bounds   1             -6       5                Points:          12
 PW_GRID|   Bounds   2             -6       5                Points:          12
 PW_GRID|   Bounds   3             -6       5                Points:          12
 PW_GRID| Volume element (a.u.^3)  0.5824         Volume (a.u.^3)      1006.3371
 PW_GRID| Grid span                                                    FULLSPACE

 POISSON| Solver                                                        PERIODIC
 POISSON| Periodicity                                                        XYZ

 RS_GRID| Information for grid number                                          1
 RS_GRID|   Bounds   1            -48      47                Points:          96
 RS_GRID|   Bounds   2            -48      47                Points:          96
 RS_GRID|   Bounds   3            -48      47                Points:          96

 RS_GRID| Information for grid number                                          2
 RS_GRID|   Bounds   1            -27      26                Points:          54
 RS_GRID|   Bounds   2            -27      26                Points:          54
 RS_GRID|   Bounds   3            -27      26                Points:          54

 RS_GRID| Information for grid number                                          3
 RS_GRID|   Bounds   1            -16      15                Points:          32
 RS_GRID|   Bounds   2            -16      15                Points:          32
 RS_GRID|   Bounds   3            -16      15                Points:          32

 RS_GRID| Information for grid number                                          4
 RS_GRID|   Bounds   1             -9       8                Points:          18
 RS_GRID|   Bounds   2             -9       8                Points:          18
 RS_GRID|   Bounds   3             -9       8                Points:          18

 RS_GRID| Information for grid number                                          5
 RS_GRID|   Bounds   1             -6       5                Points:          12
 RS_GRID|   Bounds   2             -6       5                Points:          12
 RS_GRID|   Bounds   3             -6       5                Points:          12

 *******************************************************************************
                                    Kpoints
 *******************************************************************************
 BRILLOUIN| K-point scheme                                        Monkhorst-Pack
 BRILLOUIN| K-Point grid                                             4    4    4
 BRILLOUIN| Gamma-centered k-point mesh                                     ON
 BRILLOUIN| K-point symmetry accuracy                               0.100000E-07
 BRILLOUIN| K-Point point group symmetrization                                ON
 BRILLOUIN| Restrict symmetry to inversion                                    ON
 BRILLOUIN| Wavefunction type                                            COMPLEX
 BRILLOUIN| List of Kpoints [2 Pi/Bohr]                                       36
 BRILLOUIN| Number           Weight            X              Y              Z
 BRILLOUIN|     1           0.03125       -0.25000       -0.25000       -0.25000
 BRILLOUIN|     2           0.03125       -0.25000       -0.25000        0.00000
 BRILLOUIN|     3           0.03125       -0.25000       -0.25000        0.25000
 BRILLOUIN|     4           0.03125       -0.25000       -0.25000        0.50000
 BRILLOUIN|     5           0.03125       -0.25000        0.00000       -0.25000
 BRILLOUIN|     6           0.03125       -0.25000        0.00000        0.00000
 BRILLOUIN|     7           0.03125       -0.25000        0.00000        0.25000
 BRILLOUIN|     8           0.03125       -0.25000        0.00000        0.50000
 BRILLOUIN|     9           0.03125       -0.25000        0.25000       -0.25000
 BRILLOUIN|    10           0.03125       -0.25000        0.25000        0.00000
 BRILLOUIN|    11           0.03125       -0.25000        0.25000        0.25000
 BRILLOUIN|    12           0.03125       -0.25000        0.25000        0.50000
 BRILLOUIN|    13           0.03125       -0.25000        0.50000       -0.25000
 BRILLOUIN|    14           0.03125       -0.25000        0.50000        0.00000
 BRILLOUIN|    15           0.03125       -0.25000        0.50000        0.25000
 BRILLOUIN|    16           0.03125       -0.25000        0.50000        0.50000
 BRILLOUIN|    17           0.03125        0.00000       -0.25000       -0.25000
 BRILLOUIN|    18           0.03125        0.00000       -0.25000        0.00000
 BRILLOUIN|    19           0.03125        0.00000       -0.25000        0.25000
 BRILLOUIN|    20           0.03125        0.00000       -0.25000        0.50000
 BRILLOUIN|    21           0.03125        0.00000        0.00000       -0.25000
 BRILLOUIN|    22           0.01562        0.00000        0.00000        0.00000
 BRILLOUIN|    23           0.01562        0.00000        0.00000        0.50000
 BRILLOUIN|    24           0.03125        0.00000        0.50000       -0.25000
 BRILLOUIN|    25           0.01562        0.00000        0.50000        0.00000
 BRILLOUIN|    26           0.01562        0.00000        0.50000        0.50000
 BRILLOUIN|    27           0.03125        0.50000       -0.25000       -0.25000
 BRILLOUIN|    28           0.03125        0.50000       -0.25000        0.00000
 BRILLOUIN|    29           0.03125        0.50000       -0.25000        0.25000
 BRILLOUIN|    30           0.03125        0.50000       -0.25000        0.50000
 BRILLOUIN|    31           0.03125        0.50000        0.00000       -0.25000
 BRILLOUIN|    32           0.01562        0.50000        0.00000        0.00000
 BRILLOUIN|    33           0.01562        0.50000        0.00000        0.50000
 BRILLOUIN|    34           0.03125        0.50000        0.50000       -0.25000
 BRILLOUIN|    35           0.01562        0.50000        0.50000        0.00000
 BRILLOUIN|    36           0.01562        0.50000        0.50000        0.50000
 *******************************************************************************

 *** WARNING in qs_scf_initialization.F:718 :: MO derivative methods flag ***
 *** has been switched off for kpoint calculation                         ***


 Extrapolation method: initial_guess

 Number of electrons:                                                         32
 Number of occupied orbitals:                                                 16
 Number of molecular orbitals:                                                16

 Number of orbital functions:                                                232
 Number of independent orbital functions:                                    232


 SCF WAVEFUNCTION OPTIMIZATION

  ----------------------------------- OT ---------------------------------------
  Minimizer      : DIIS                : direct inversion
                                         in the iterative subspace
                                         using   7 DIIS vectors
                                         safer DIIS on
  Preconditioner : FULL_ALL            : diagonalization, state selective
  Precond_solver : DEFAULT
  stepsize       :    0.00500000                  energy_gap     :    0.00100000
  ortho_irac     : CHOL                           irac_degree    :             4
  max_irac       :            50                  eps_irac       :   0.10000E-09
  eps_irac_switch:   0.10000E-01                  eps_irac_quick_exit: 0.100E-04
  on_the_fly_loc : F
  ----------------------------------- OT ---------------------------------------

  Step     Update method      Time    Convergence         Total energy    Change
  ------------------------------------------------------------------------------
 SKALA_GPW| Atom-composite cross support/maxima   0.000000000000E+00   0.000000000000E+00   0.000000000000E+00   0.000000000000E+00

 SKALA_GPW| Native grid Torch CUDA device 0 of 1 requested -1
 SKALA_GPW| Native grid Torch CUDA rank devices 0:0
 SKALA_GPW| Active atom-composite XC energy  -1.0257855745704315E+01
 SKALA_GPW| Active atom-composite electrons   3.2039669056231240E+01
 SKALA_GPW| Active atom-composite density range   3.9240059314322236E-05   6.8899949946363587E-02
 SKALA_GPW| Active atom-composite tau range   8.3516325009209491E-04   7.5387870603058835E-02
 SKALA_GPW| Active atom-composite tau integral   1.4536838974030367E+01
 SKALA_GPW| Active atom-composite max gradient   8.3129223596888721E-02
     1 OT DIIS     0.50E-02   21.5     0.00117716       -34.9778348950 -3.50E+01
 SKALA_GPW| Atom-composite cross support/maxima   0.000000000000E+00   0.000000000000E+00   0.000000000000E+00   0.000000000000E+00
 SKALA_GPW| Active atom-composite XC energy  -1.0259322582522373E+01
 SKALA_GPW| Active atom-composite electrons   3.2039651494545232E+01
 SKALA_GPW| Active atom-composite density range   3.8502712714904765E-05   6.8920793876251454E-02
 SKALA_GPW| Active atom-composite tau range   8.3406423575965835E-04   7.5390295081414746E-02
 SKALA_GPW| Active atom-composite tau integral   1.4539462108147772E+01
 SKALA_GPW| Active atom-composite max gradient   8.3128728600228588E-02
     2 OT DIIS     0.50E-02   13.2     0.00094333       -34.9794210153 -1.59E-03
 SKALA_GPW| Atom-composite cross support/maxima   0.000000000000E+00   0.000000000000E+00   0.000000000000E+00   0.000000000000E+00
 SKALA_GPW| Active atom-composite XC energy  -1.0260189592378630E+01
 SKALA_GPW| Active atom-composite electrons   3.2039637060701033E+01
 SKALA_GPW| Active atom-composite density range   3.7790433454371993E-05   6.8938760181489075E-02
 SKALA_GPW| Active atom-composite tau range   8.3355897049478553E-04   7.5391502731958202E-02
 SKALA_GPW| Active atom-composite tau integral   1.4539921479116746E+01
 SKALA_GPW| Active atom-composite max gradient   8.3130264555059397E-02
     3 OT DIIS     0.50E-02   14.6     0.00091277       -34.9808873991 -1.47E-03
 SKALA_GPW| Atom-composite cross support/maxima   0.000000000000E+00   0.000000000000E+00   0.000000000000E+00   0.000000000000E+00
 SKALA_GPW| Active atom-composite XC energy  -1.0280074857411876E+01
 SKALA_GPW| Active atom-composite electrons   3.2039248425791577E+01
 SKALA_GPW| Active atom-composite density range   2.1803302467691025E-05   6.9420496771063725E-02
 SKALA_GPW| Active atom-composite tau range   8.2610548334464810E-04   7.5468467483745152E-02
 SKALA_GPW| Active atom-composite tau integral   1.4549148540341237E+01
 SKALA_GPW| Active atom-composite max gradient   8.3175564811537386E-02
     4 OT DIIS     0.50E-02   12.2     0.00090568       -35.0073466974 -2.65E-02
 SKALA_GPW| Atom-composite cross support/maxima   0.000000000000E+00   0.000000000000E+00   0.000000000000E+00   0.000000000000E+00
 SKALA_GPW| Active atom-composite XC energy  -1.0284148259989802E+01
 SKALA_GPW| Active atom-composite electrons   3.2039177697535024E+01
 SKALA_GPW| Active atom-composite density range   1.9234074235510049E-05   6.9499993880357921E-02
 SKALA_GPW| Active atom-composite tau range   8.2341971686115782E-04   7.5483782716985109E-02
 SKALA_GPW| Active atom-composite tau integral   1.4559453409517864E+01
 SKALA_GPW| Active atom-composite max gradient   8.3165797633135696E-02
     5 OT DIIS     0.50E-02   11.9     0.00047304       -35.0086251615 -1.28E-03
 SKALA_GPW| Atom-composite cross support/maxima   0.000000000000E+00   0.000000000000E+00   0.000000000000E+00   0.000000000000E+00
 SKALA_GPW| Active atom-composite XC energy  -1.0284406499386005E+01
 SKALA_GPW| Active atom-composite electrons   3.2039171812345508E+01
 SKALA_GPW| Active atom-composite density range   1.8934238461018681E-05   6.9505613029315988E-02
 SKALA_GPW| Active atom-composite tau range   8.2351482547820491E-04   7.5482030634997324E-02
 SKALA_GPW| Active atom-composite tau integral   1.4559285970819852E+01
 SKALA_GPW| Active atom-composite max gradient   8.3162613770872473E-02
     6 OT DIIS     0.50E-02   11.6     0.00031336       -35.0087387249 -1.14E-04
 SKALA_GPW| Atom-composite cross support/maxima   0.000000000000E+00   0.000000000000E+00   0.000000000000E+00   0.000000000000E+00
 SKALA_GPW| Active atom-composite XC energy  -1.0283699763189738E+01
 SKALA_GPW| Active atom-composite electrons   3.2039181690793320E+01
 SKALA_GPW| Active atom-composite density range   1.8380348506686034E-05   6.9485523714813702E-02
 SKALA_GPW| Active atom-composite tau range   8.2404473335736356E-04   7.5455802562142391E-02
 SKALA_GPW| Active atom-composite tau integral   1.4556405618959062E+01
 SKALA_GPW| Active atom-composite max gradient   8.3142296714616315E-02
     7 OT DIIS     0.50E-02   12.3     0.00015449       -35.0088128988 -7.42E-05
 SKALA_GPW| Atom-composite cross support/maxima   0.000000000000E+00   0.000000000000E+00   0.000000000000E+00   0.000000000000E+00
 SKALA_GPW| Active atom-composite XC energy  -1.0281512198324968E+01
 SKALA_GPW| Active atom-composite electrons   3.2039211920857170E+01
 SKALA_GPW| Active atom-composite density range   1.6544372683185852E-05   6.9420603980160880E-02
 SKALA_GPW| Active atom-composite tau range   8.2514053564297131E-04   7.5369661168865759E-02
 SKALA_GPW| Active atom-composite tau integral   1.4548998137000696E+01
 SKALA_GPW| Active atom-composite max gradient   8.3073385741621597E-02
     8 OT DIIS     0.50E-02   15.2     0.00013792       -35.0088750717 -6.22E-05
 SKALA_GPW| Atom-composite cross support/maxima   0.000000000000E+00   0.000000000000E+00   0.000000000000E+00   0.000000000000E+00
 SKALA_GPW| Active atom-composite XC energy  -1.0277794824970634E+01
 SKALA_GPW| Active atom-composite electrons   3.2039264261965066E+01
 SKALA_GPW| Active atom-composite density range   1.3485688514816335E-05   6.9304443907818036E-02
 SKALA_GPW| Active atom-composite tau range   8.2697390417674514E-04   7.5215504306030120E-02
 SKALA_GPW| Active atom-composite tau integral   1.4536258421309739E+01
 SKALA_GPW| Active atom-composite max gradient   8.2948414859631600E-02
     9 OT DIIS     0.50E-02   11.7     0.00008035       -35.0089576637 -8.26E-05
 SKALA_GPW| Atom-composite cross support/maxima   0.000000000000E+00   0.000000000000E+00   0.000000000000E+00   0.000000000000E+00
 SKALA_GPW| Active atom-composite XC energy  -1.0277096431098720E+01
 SKALA_GPW| Active atom-composite electrons   3.2039275704781716E+01
 SKALA_GPW| Active atom-composite density range   1.2253949318302346E-05   6.9271574040054837E-02
 SKALA_GPW| Active atom-composite tau range   8.2716509533591195E-04   7.5172183503657161E-02
 SKALA_GPW| Active atom-composite tau integral   1.4533716220997999E+01
 SKALA_GPW| Active atom-composite max gradient   8.2910312384934473E-02
    10 OT DIIS     0.50E-02   12.8     0.00009833       -35.0089655567 -7.89E-06
 SKALA_GPW| Atom-composite cross support/maxima   0.000000000000E+00   0.000000000000E+00   0.000000000000E+00   0.000000000000E+00
 SKALA_GPW| Active atom-composite XC energy  -1.0277175011094343E+01
 SKALA_GPW| Active atom-composite electrons   3.2039274575900635E+01
 SKALA_GPW| Active atom-composite density range   1.1981100178587188E-05   6.9272905049108435E-02
 SKALA_GPW| Active atom-composite tau range   8.2709257176340504E-04   7.5174192668212902E-02
 SKALA_GPW| Active atom-composite tau integral   1.4533866838079707E+01
 SKALA_GPW| Active atom-composite max gradient   8.2911457187318557E-02
    11 OT DIIS     0.50E-02   12.2     0.00010264       -35.0089733811 -7.82E-06
 SKALA_GPW| Atom-composite cross support/maxima   0.000000000000E+00   0.000000000000E+00   0.000000000000E+00   0.000000000000E+00
 SKALA_GPW| Active atom-composite XC energy  -1.0276618542654834E+01
 SKALA_GPW| Active atom-composite electrons   3.2039283607971107E+01
 SKALA_GPW| Active atom-composite density range   9.4796107071643640E-06   6.9243707990703646E-02
 SKALA_GPW| Active atom-composite tau range   8.2719889904261956E-04   7.5141155171755444E-02
 SKALA_GPW| Active atom-composite tau integral   1.4530788008785748E+01
 SKALA_GPW| Active atom-composite max gradient   8.2880845299195871E-02
    12 OT DIIS     0.50E-02   14.5     0.00005947       -35.0090125819 -3.92E-05
 SKALA_GPW| Atom-composite cross support/maxima   0.000000000000E+00   0.000000000000E+00   0.000000000000E+00   0.000000000000E+00
 SKALA_GPW| Active atom-composite XC energy  -1.0277157702746242E+01
 SKALA_GPW| Active atom-composite electrons   3.2039275953880562E+01
 SKALA_GPW| Active atom-composite density range   9.7322422324608567E-06   6.9265444712796345E-02
 SKALA_GPW| Active atom-composite tau range   8.2694219923499970E-04   7.5172361780327865E-02
 SKALA_GPW| Active atom-composite tau integral   1.4532690157671514E+01
 SKALA_GPW| Active atom-composite max gradient   8.2907891125037395E-02
    13 OT DIIS     0.50E-02   13.1     0.00003061       -35.0090168289 -4.25E-06
 SKALA_GPW| Atom-composite cross support/maxima   0.000000000000E+00   0.000000000000E+00   0.000000000000E+00   0.000000000000E+00
 SKALA_GPW| Active atom-composite XC energy  -1.0277018210285604E+01
 SKALA_GPW| Active atom-composite electrons   3.2039278450541531E+01
 SKALA_GPW| Active atom-composite density range   8.9295574860604792E-06   6.9254808389070277E-02
 SKALA_GPW| Active atom-composite tau range   8.2691194831777809E-04   7.5159283890918679E-02
 SKALA_GPW| Active atom-composite tau integral   1.4531788269744737E+01
 SKALA_GPW| Active atom-composite max gradient   8.2895262628527991E-02
    14 OT DIIS     0.50E-02   11.7     0.00001522       -35.0090253729 -8.54E-06
 SKALA_GPW| Atom-composite cross support/maxima   0.000000000000E+00   0.000000000000E+00   0.000000000000E+00   0.000000000000E+00
 SKALA_GPW| Active atom-composite XC energy  -1.0277465685733212E+01
 SKALA_GPW| Active atom-composite electrons   3.2039271426236034E+01
 SKALA_GPW| Active atom-composite density range   8.4852784925870771E-06   6.9266017600381896E-02
 SKALA_GPW| Active atom-composite tau range   8.2656837768867555E-04   7.5169602413094588E-02
 SKALA_GPW| Active atom-composite tau integral   1.4533001503329604E+01
 SKALA_GPW| Active atom-composite max gradient   8.2902170358310504E-02
    15 OT DIIS     0.50E-02   12.1     0.00003664       -35.0090282126 -2.84E-06
 SKALA_GPW| Atom-composite cross support/maxima   0.000000000000E+00   0.000000000000E+00   0.000000000000E+00   0.000000000000E+00
 SKALA_GPW| Active atom-composite XC energy  -1.0277677832541031E+01
 SKALA_GPW| Active atom-composite electrons   3.2039268011931206E+01
 SKALA_GPW| Active atom-composite density range   8.1191965842284215E-06   6.9271425573146639E-02
 SKALA_GPW| Active atom-composite tau range   8.2642270846173128E-04   7.5175771834570929E-02
 SKALA_GPW| Active atom-composite tau integral   1.4533354191994524E+01
 SKALA_GPW| Active atom-composite max gradient   8.2906217534633134E-02
    16 OT SD       0.50E-02   12.5     0.00000936       -35.0090308160 -2.60E-06
 SKALA_GPW| Atom-composite cross support/maxima   0.000000000000E+00   0.000000000000E+00   0.000000000000E+00   0.000000000000E+00
 SKALA_GPW| Active atom-composite XC energy  -1.0277668343904633E+01
 SKALA_GPW| Active atom-composite electrons   3.2039268071115885E+01
 SKALA_GPW| Active atom-composite density range   8.1163955323093282E-06   6.9271650228823214E-02
 SKALA_GPW| Active atom-composite tau range   8.2643333293914805E-04   7.5175784629155071E-02
 SKALA_GPW| Active atom-composite tau integral   1.4533316070357639E+01
 SKALA_GPW| Active atom-composite max gradient   8.2906169440830318E-02
    17 OT DIIS     0.50E-02   12.2     0.00000629       -35.0090309042 -8.82E-08
 SKALA_GPW| Atom-composite cross support/maxima   0.000000000000E+00   0.000000000000E+00   0.000000000000E+00   0.000000000000E+00
 SKALA_GPW| Active atom-composite XC energy  -1.0277689393550759E+01
 SKALA_GPW| Active atom-composite electrons   3.2039267442066667E+01
 SKALA_GPW| Active atom-composite density range   8.0886345241885506E-06   6.9275664693132885E-02
 SKALA_GPW| Active atom-composite tau range   8.2641939837316508E-04   7.5179052859485021E-02
 SKALA_GPW| Active atom-composite tau integral   1.4533439590955368E+01
 SKALA_GPW| Active atom-composite max gradient   8.2908377386238089E-02
    18 OT DIIS     0.50E-02   12.7     0.00000645       -35.0090311892 -2.85E-07
 SKALA_GPW| Atom-composite cross support/maxima   0.000000000000E+00   0.000000000000E+00   0.000000000000E+00   0.000000000000E+00
 SKALA_GPW| Active atom-composite XC energy  -1.0277711481508673E+01
 SKALA_GPW| Active atom-composite electrons   3.2039267052833594E+01
 SKALA_GPW| Active atom-composite density range   8.0469438294419348E-06   6.9276836490186608E-02
 SKALA_GPW| Active atom-composite tau range   8.2639904193931553E-04   7.5180205835751537E-02
 SKALA_GPW| Active atom-composite tau integral   1.4533503276536562E+01
 SKALA_GPW| Active atom-composite max gradient   8.2909093477610316E-02
    19 OT DIIS     0.50E-02   12.6     0.00000548       -35.0090313010 -1.12E-07
 SKALA_GPW| Atom-composite cross support/maxima   0.000000000000E+00   0.000000000000E+00   0.000000000000E+00   0.000000000000E+00
 SKALA_GPW| Active atom-composite XC energy  -1.0277726572475938E+01
 SKALA_GPW| Active atom-composite electrons   3.2039264162015698E+01
 SKALA_GPW| Active atom-composite density range   7.8921836762476378E-06   6.9289350601839661E-02
 SKALA_GPW| Active atom-composite tau range   8.2640274422993187E-04   7.5185407706464591E-02
 SKALA_GPW| Active atom-composite tau integral   1.4533666377289727E+01
 SKALA_GPW| Active atom-composite max gradient   8.2909637118993795E-02
    20 OT DIIS     0.50E-02   12.5     0.00000354       -35.0090321431 -8.42E-07
 SKALA_GPW| Atom-composite cross support/maxima   0.000000000000E+00   0.000000000000E+00   0.000000000000E+00   0.000000000000E+00
 SKALA_GPW| Active atom-composite XC energy  -1.0277723452274831E+01
 SKALA_GPW| Active atom-composite electrons   3.2039263848288719E+01
 SKALA_GPW| Active atom-composite density range   7.7698884885697682E-06   6.9290148352631017E-02
 SKALA_GPW| Active atom-composite tau range   8.2638830105243857E-04   7.5184960827572311E-02
 SKALA_GPW| Active atom-composite tau integral   1.4533599676507183E+01
 SKALA_GPW| Active atom-composite max gradient   8.2908241746205355E-02
    21 OT DIIS     0.50E-02   12.2     0.00000160       -35.0090323046 -1.62E-07
 SKALA_GPW| Atom-composite cross support/maxima   0.000000000000E+00   0.000000000000E+00   0.000000000000E+00   0.000000000000E+00
 SKALA_GPW| Active atom-composite XC energy  -1.0277718704403009E+01
 SKALA_GPW| Active atom-composite electrons   3.2039263864508790E+01
 SKALA_GPW| Active atom-composite density range   7.7374656957494672E-06   6.9289946762775084E-02
 SKALA_GPW| Active atom-composite tau range   8.2638567174806213E-04   7.5184569325269082E-02
 SKALA_GPW| Active atom-composite tau integral   1.4533571282441505E+01
 SKALA_GPW| Active atom-composite max gradient   8.2907542792863873E-02
    22 OT DIIS     0.50E-02   14.1     0.00000144       -35.0090323070 -2.34E-09
 SKALA_GPW| Atom-composite cross support/maxima   0.000000000000E+00   0.000000000000E+00   0.000000000000E+00   0.000000000000E+00
 SKALA_GPW| Active atom-composite XC energy  -1.0277658511697776E+01
 SKALA_GPW| Active atom-composite electrons   3.2039264757005668E+01
 SKALA_GPW| Active atom-composite density range   7.7205350738055864E-06   6.9287249682405058E-02
 SKALA_GPW| Active atom-composite tau range   8.2642246236734086E-04   7.5182003064852412E-02
 SKALA_GPW| Active atom-composite tau integral   1.4533393354951066E+01
 SKALA_GPW| Active atom-composite max gradient   8.2904095321272908E-02
    23 OT DIIS     0.50E-02   13.5     0.00000099       -35.0090323379 -3.10E-08
 SKALA_GPW| Atom-composite cross support/maxima   0.000000000000E+00   0.000000000000E+00   0.000000000000E+00   0.000000000000E+00
 SKALA_GPW| Active atom-composite XC energy  -1.0277621653456961E+01
 SKALA_GPW| Active atom-composite electrons   3.2039265323826783E+01
 SKALA_GPW| Active atom-composite density range   7.7164477773599639E-06   6.9285545717702388E-02
 SKALA_GPW| Active atom-composite tau range   8.2644664453651118E-04   7.5180448469444175E-02
 SKALA_GPW| Active atom-composite tau integral   1.4533286784494550E+01
 SKALA_GPW| Active atom-composite max gradient   8.2902094613339680E-02
    24 OT DIIS     0.50E-02   12.7     0.00000078       -35.0090323399 -1.97E-09
 SKALA_GPW| Atom-composite cross support/maxima   0.000000000000E+00   0.000000000000E+00   0.000000000000E+00   0.000000000000E+00
 SKALA_GPW| Active atom-composite XC energy  -1.0277607118173506E+01
 SKALA_GPW| Active atom-composite electrons   3.2039265551831839E+01
 SKALA_GPW| Active atom-composite density range   7.7154725621942368E-06   6.9284857102667491E-02
 SKALA_GPW| Active atom-composite tau range   8.2645702866763246E-04   7.5179831978917297E-02
 SKALA_GPW| Active atom-composite tau integral   1.4533246312468934E+01
 SKALA_GPW| Active atom-composite max gradient   8.2901351122658701E-02
    25 OT DIIS     0.50E-02   12.2     0.00000068       -35.0090323537 -1.39E-08
 SKALA_GPW| Atom-composite cross support/maxima   0.000000000000E+00   0.000000000000E+00   0.000000000000E+00   0.000000000000E+00
 SKALA_GPW| Active atom-composite XC energy  -1.0277587570599598E+01
 SKALA_GPW| Active atom-composite electrons   3.2039265888644785E+01
 SKALA_GPW| Active atom-composite density range   7.7030176020387881E-06   6.9283713516003723E-02
 SKALA_GPW| Active atom-composite tau range   8.2647033927115505E-04   7.5178859195906653E-02
 SKALA_GPW| Active atom-composite tau integral   1.4533186958663627E+01
 SKALA_GPW| Active atom-composite max gradient   8.2900289092253499E-02
    26 OT DIIS     0.50E-02   14.1     0.00000050       -35.0090323473  6.40E-09

  *** SCF run converged in    26 steps ***


  Electronic density on regular grids:        -32.0000000000       -0.0000000000
  Core density on regular grids:               31.9999999999       -0.0000000001
  Hard and soft densities (Lebedev):           -0.0000000000       -0.0000000000
  Total Rho_soft + Rho1_hard - Rho1_soft      -32.0000000000
  Total charge density (r-space):              -0.0000000001
  Total Rho_soft + Rho0_soft (g-space):        -0.0000000001

  Overlap energy of the core charge distribution:               0.00000000017457
  Self energy of the core charge distribution:                -88.15121238703466
  Core Hamiltonian energy:                                     19.58628697028141
  Hartree energy:                                              44.02098226815608
  Exchange-correlation energy:                                  0.00000000000000
  Dispersion energy:                                           -0.18750162832402

  GAPW| Exc from hard and soft atomic rho1:                   -10.27758757059960
  GAPW| local Eh = 1 center integrals:                          0.00000000000000

  Total energy:                                               -35.00903234734623

  outer SCF iter =    1 RMS gradient =   0.50E-06 energy =        -35.0090323473
  outer SCF loop converged in   1 iterations or   26 steps


 !-----------------------------------------------------------------------------!
                     Mulliken Population Analysis

 #  Atom  Element  Kind  Atomic population                           Net charge
       1     Al       1          2.425715                              0.574285
       2     Al       1          2.431302                              0.568698
       3     Al       1          2.431352                              0.568648
       4     Al       1          2.431351                              0.568649
       5     P        2          5.584052                             -0.584052
       6     P        2          5.563297                             -0.563297
       7     P        2          5.563308                             -0.563308
       8     P        2          5.569623                             -0.569623
 # Total charge                             32.000000                  0.000000

 !-----------------------------------------------------------------------------!

 !-----------------------------------------------------------------------------!
                           Hirshfeld Charges

  #Atom  Element  Kind  Ref Charge     Population                    Net charge
      1       Al     1       3.000          2.716                         0.284
      2       Al     1       3.000          2.717                         0.283
      3       Al     1       3.000          2.717                         0.283
      4       Al     1       3.000          2.717                         0.283
      5       P      2       5.000          5.289                        -0.289
      6       P      2       5.000          5.280                        -0.280
      7       P      2       5.000          5.280                        -0.280
      8       P      2       5.000          5.283                        -0.283

  Total Charge                                                           -0.000
 !-----------------------------------------------------------------------------!

 ENERGY| Total FORCE_EVAL ( QS ) energy [hartree]            -35.009032347346228

 -------------------------------------------------------------------------------
 -                                                                             -
 -                                DBCSR STATISTICS                             -
 -                                                                             -
 -------------------------------------------------------------------------------
 COUNTER                                    TOTAL       BLAS       SMM       ACC
 flops    16 x    16 x    16             31850496       0.0%      0.0%    100.0%     
 flops    16 x    16 x    29            906559488       0.0%      0.0%    100.0% (*) 
 flops    29 x    16 x    16           2240741376       0.0%      0.0%    100.0%     
 flops    29 x    16 x    29          20089700352       0.0%      0.0%    100.0% (*) 

 *** WARNING in dbcsr_mm_sched.F:613 :: (*) ACC Untuned kernels, consider ***
 *** to run the ACC tuning procedure for them                             ***

 flops inhomo. stacks                           0       0.0%      0.0%      0.0%
 flops total                        23.268852E+09       0.0%      0.0%    100.0%
 flops max/rank                     23.268852E+09       0.0%      0.0%    100.0%
 matmuls inhomo. stacks                         0       0.0%      0.0%      0.0%
 matmuls total                             962352       0.0%      0.0%    100.0%
 number of processed stacks                255744       0.0%      0.0%    100.0%
 average stack size                                     0.0       0.0       3.8
 marketing flops                    23.268852E+09
 -------------------------------------------------------------------------------
 # multiplications                          42048
 max memory usage/rank             463.291253E+09
 # max total images/rank                        1
 # max 3D layers                                1
 # MPI messages exchanged                       0
 -------------------------------------------------------------------------------
 -                                                                             -
 -                      DBCSR MESSAGE PASSING PERFORMANCE                      -
 -                                                                             -
 -------------------------------------------------------------------------------
 ROUTINE             CALLS      AVE VOLUME [Bytes]
 MP_Bcast                5                     12.
 MP_Allreduce       126171                      8.
 MP_Alltoall        294908                  26355.
 MP_ISend           168192                    271.
 MP_IRecv           168192                    271.
 -------------------------------------------------------------------------------

 -------------------------------------------------------------------------------
 -                                                                             -
 -                                GRID STATISTICS                              -
 -                                                                             -
 -------------------------------------------------------------------------------
 LP    KERNEL             BACKEND                              COUNT     PERCENT
 6     collocate ortho    GPU                                 575232      25.93%
 8     collocate ortho    GPU                                 575232      25.93%
 6     integrate ortho    GPU                                 534144      24.07%
 8     integrate ortho    GPU                                 534144      24.07%
 0     collocate general  CPU                                     16       0.00%
 0     integrate general  CPU                                      8       0.00%
 -------------------------------------------------------------------------------

 -------------------------------------------------------------------------------
 -                                                                             -
 -                          OFFLOAD MEMPOOL STATISTICS                         -
 -                                                                             -
 -------------------------------------------------------------------------------
 Memory consumption                Number of allocations  Used [MiB]  Size [MiB]
 Device                                                8          77          77
 Host                                                  8          77          60
 -------------------------------------------------------------------------------

 MEMORY| Estimated peak process memory [MiB]                                5027

 -------------------------------------------------------------------------------
 ----                             MULTIGRID INFO                            ----
 -------------------------------------------------------------------------------
 count for grid        1:              3          cutoff [a.u.]          400.00
 count for grid        2:           9055          cutoff [a.u.]          133.33
 count for grid        3:          14514          cutoff [a.u.]           44.44
 count for grid        4:          16652          cutoff [a.u.]           14.81
 count for grid        5:           6603          cutoff [a.u.]            4.94
 total gridlevel count  :          46827

 -------------------------------------------------------------------------------
 -                                                                             -
 -                         MESSAGE PASSING PERFORMANCE                         -
 -                                                                             -
 -------------------------------------------------------------------------------

 ROUTINE             CALLS      AVE VOLUME [Bytes]
 MP_Group                5
 MP_Bcast             4422                  32651.
 MP_Allreduce        47921                  38409.
 MP_Sync                 5
 MP_Wait              2160
 MP_ISend             3024                  61519.
 MP_IRecv             3024                  61519.
 -------------------------------------------------------------------------------


 -------------------------------------------------------------------------------
 -                                                                             -
 -                           R E F E R E N C E S                               -
 -                                                                             -
 -------------------------------------------------------------------------------
 
 CP2K version 2026.2 (Development Version), the CP2K developers group (2026).
 CP2K is freely available from https://www.cp2k.org/ .
 
 M. Iannuzzi, J. Wilhelm, F. Stein, A. Bussy, H. Elgabarty, D. Golze, A. Hehn, 
 M. Graml, S. Marek, B. Sertcan Gökmen, C. Schran, H. Forbert, R. Z. 
 Khaliullin, A. Kozhevnikov, M. Taillefumier, R. Meli, V. V. Rybkin, M. Brehm, 
 R. Schade, O. Schütt, J. V. Pototschnig, H. Mirhosseini, A. Knüpfer, D. Marx, 
 M. Krack, J. Hutter, T. D. Kühne.
 J. Phys. Chem. B 130, 1237-1310 (2026).
 The CP2K Program Package Made Simple.
 https://doi.org/10.1021/acs.jpcb.5c05851

 L. Wittmann, I. Gordiy, M. Friede, B. Helmich-Paris, S. Grimme, A. Hansen, M. 
 Bursch.
 Phys. Chem. Chem. Phys. 26, 21379-21394 (2024).
 Extension of the D3 and D4 London dispersion corrections to the full actinides 
 series.
 https://doi.org/10.1039/d4cp01514b

 T. D. Kühne, M. Iannuzzi, M. Del Ben, V. V. Rybkin, P. Seewald, F. Stein, T. 
 Laino, R. Z. Khaliullin, O. Schütt, F. Schiffmann, D. Golze, J. Wilhelm, S. 
 Chulkov, M. H. Bani-Hashemian, V. Weber, U. Borstnik, M. Taillefumier, A. S. 
 Jakobovits, A. Lazzaro, H. Pabst, T. Müller, R. Schade, M. Guidon, S. 
 Andermatt, N. Holmberg, G. K. Schenter, A. Hehn, A. Bussy, F. Belleflamme, G. 
 Tabacchi, A. Glöß, M. Lass, I. Bethune, C. J. Mundy, C. Plessl, M. Watkins, 
 J. VandeVondele, M. Krack, J. Hutter.
 J. Chem. Phys. 152, 194103 (2020).
 CP2K: An electronic structure and molecular dynamics software package - 
 Quickstep: Efficient and accurate electronic structure calculations.
 https://doi.org/10.1063/5.0007045

 A. Togo, I. Tanaka.
 arXiv, 1808.01590 (2018).
 Spglib : a software library for crystal symmetry search.

 L. Goerigk, A. Hansen, C. Bauer, S. Ehrlich, A. Najibi, S. Grimme.
 Phys. Chem. Chem. Phys. 19, 32184-32215 (2017).
 A look at the density functional theory zoo with the advanced GMTKN55 database 
 for general main group thermochemistry, kinetics and noncovalent interactions.
 https://doi.org/10.1039/C7CP04913G

 O. Schuett, P. Messmer, J. Hutter, J. VandeVondele.
 Electronic Structure Calculations on Graphics Processing Units, 173-190 (2016).
 GPU-Accelerated Sparse Matrix-Matrix Multiplication for Linear Scaling Density 
 Functional Theory.
 https://doi.org/10.1002/9781118670712.ch8

 U. Borstnik, J. VandeVondele, V. Weber, J. Hutter.
 Parallel Comput. 40, 47-58 (2014).
 Sparse matrix multiplication: The distributed block-compressed sparse row 
 library.
 https://doi.org/10.1016/j.parco.2014.03.012

 S. Grimme, S. Ehrlich, L. Goerigk.
 J. Comput. Chem. 32, 1456 (2011).
 Effect of the damping function in dispersion corrected density functional 
 theory.
 https://doi.org/10.1002/jcc.21759

 S. Grimme, J. Antony, S. Ehrlich, H. Krieg.
 J. Chem. Phys. 132, 154104 (2010).
 A consistent and accurate ab initio parametrization of density functional 
 dispersion correction (DFT-D) for the 94 elements H-Pu.
 https://doi.org/10.1063/1.3382344

 V. Weber, J. VandeVondele, J. Hutter, A. M. N. Niklasson.
 J. Chem. Phys. 128, 084113 (2008).
 Direct energy functional minimization under orthogonality constraints.
 https://doi.org/10.1063/1.2841077

 J. VandeVondele, J. Hutter.
 J. Chem. Phys. 127, 114105 (2007).
 Gaussian basis sets for accurate calculations on molecular systems in gas and 
 condensed phases.
 https://doi.org/10.1063/1.2770708

 M. Krack.
 Theor. Chem. Acc. 114, 145-152 (2005).
 Pseudopotentials for H to Kr optimized for gradient-corrected 
 exchange-correlation functionals.
 https://doi.org/10.1007/s00214-005-0655-y

 M. Frigo, S. G. Johnson.
 Proc. IEEE 93, 216-231 (2005).
 The design and implementation of FFTW3.
 https://doi.org/10.1109/JPROC.2004.840301

 J. VandeVondele, J. Hutter.
 J. Chem. Phys. 118, 4365-4369 (2003).
 An efficient orbital transformation method for electronic structure 
 calculations.
 https://doi.org/10.1063/1.1543154

 M. Krack, M. Parrinello.
 Phys. Chem. Chem. Phys. 2, 2105-2112 (2000).
 All-electron ab-initio molecular dynamics.
 https://doi.org/10.1039/b001167n

 G. Lippert, J. Hutter, M. Parrinello.
 Theor. Chem. Acc. 103, 124-140 (1999).
 The Gaussian and augmented-plane-wave density functional method for ab initio 
 molecular dynamics simulations.
 https://doi.org/10.1007/s002140050523

 C. Hartwigsen, S. Goedecker, J. Hutter.
 Phys. Rev. B 58, 3641-3662 (1998).
 Relativistic separable dual-space Gaussian pseudopotentials from H to Rn.
 https://doi.org/10.1103/PhysRevB.58.3641

 S. Goedecker, M. Teter, J. Hutter.
 Phys. Rev. B 54, 1703-1710 (1996).
 Separable dual-space Gaussian pseudopotentials.
 https://doi.org/10.1103/PhysRevB.54.1703

 C.-L. Fu, K.-M. Ho.
 Phys. Rev. B 28, 5480-5486 (1983).
 First-principles calculation of the equilibrium ground-state properties of 
 transition metals: Applications to Nb and Mo.
 https://doi.org/10.1103/PhysRevB.28.5480


 -------------------------------------------------------------------------------
 -                                                                             -
 -                                T I M I N G                                  -
 -                                                                             -
 -------------------------------------------------------------------------------
 SUBROUTINE                       CALLS  ASD         SELF TIME        TOTAL TIME
                                MAXIMUM       AVERAGE  MAXIMUM  AVERAGE  MAXIMUM
 CP2K                                 1  1.0    0.010    0.010  344.116  344.116
 qs_energies                          1  2.0    0.000    0.000  343.832  343.832
 scf_env_do_scf                       1  3.0    0.000    0.000  342.275  342.275
 scf_env_do_scf_inner_loop           26  4.0    0.003    0.003  322.716  322.716
 qs_ks_update_qs_env                 27  5.0    0.000    0.000  273.698  273.698
 rebuild_ks_matrix                   26  6.0    0.000    0.000  273.344  273.344
 qs_ks_build_kohn_sham_matrix        26  7.0    0.009    0.009  273.343  273.343
 calculate_vxc_atom                  26  8.0  242.194  242.194  250.553  250.553
 qs_scf_new_mos_kp                   26  5.0    0.000    0.000   56.942   56.942
 qs_scf_loop_do_ot_kp                26  6.0    0.038    0.038   56.942   56.942
 dbcsr_multiply_generic           42048  8.5    0.722    0.722   34.784   34.784
 multiply_cannon                  42048  9.5    2.280    2.280   21.264   21.264
 init_scf_loop                        1  4.0    0.004    0.004   19.559   19.559
 ot_mini                             26  7.0    0.001    0.001   17.436   17.436
 qs_ot_get_orbitals_ref_complex     972  7.0    0.027    0.027   17.070   17.070
 multiply_cannon_loop             42048 10.5    3.713    3.713   16.332   16.332
 qs_ot_get_derivative_ref_compl     936  8.0    0.018    0.018   15.252   15.252
 rskp_transform                    2196  6.9   15.070   15.070   15.070   15.070
 dbcsr_copy                      100953  9.2   12.555   12.555   12.762   12.762
 sum_up_and_integrate                26  8.0    0.001    0.001   11.594   11.594
 integrate_v_rspace                  52  9.0    0.193    0.193   11.479   11.479
 grid_integrate_task_list            52 10.0   10.826   10.826   10.826   10.826
 make_m2s                         84096  9.5    0.185    0.185    9.525    9.525
 make_images                      84096 10.5    2.774    2.774    8.566    8.566
 -------------------------------------------------------------------------------

 The number of warnings for this run is : 2
 
 -------------------------------------------------------------------------------
  **** **** ******  **  PROGRAM ENDED AT                 2026-09-03 16:25:59.390
 ***** ** ***  *** **   PROGRAM RAN ON                                     gb008
 **    ****   ******    PROGRAM RAN BY                                  kuehne88
 ***** **    ** ** **   PROGRAM PROCESS ID                               1479864
  **** **  *******  **  PROGRAM STOPPED IN /data/home2/kuehne88/cp2k-native-skal
                                           a/goldzak12/runs/diagnostic-b200-hd-a
                                           lp-v02-from-v01-volume-continuation-2
                                           0260903/production/hybrid-direct/AlP/
                                           v02
