 DBCSR| CPU Multiplication driver                                           BLAS (U)
 DBCSR| Multrec recursion limit                                              512 (U)
 DBCSR| Multiplication stack size                                           1000 (D)
 DBCSR| Maximum elements for images                                    UNLIMITED (U)
 DBCSR| Multiplicative factor virtual images                                   1 (U)
 DBCSR| Use multiplication densification                                       T (D)
 DBCSR| Multiplication size stacks                                             3 (U)
 DBCSR| Use memory pool for CPU allocation                                     F (U)
 DBCSR| Number of 3D layers                                               SINGLE (U)
 DBCSR| Use MPI memory allocation                                              F (U)
 DBCSR| Use RMA algorithm                                                      F (U)
 DBCSR| Use Communication thread                                               T (U)
 DBCSR| Communication thread load                                             45 (D)
 DBCSR| MPI: My process id                                                     0
 DBCSR| MPI: Number of processes                                               1
 DBCSR| OMP: Current number of threads                                        12
 DBCSR| OMP: Max number of threads                                            12
 DBCSR| Split modifier for TAS multiplication algorithm                  1.0E+00 (U)


  **** **** ******  **  PROGRAM STARTED AT               2026-08-25 04:22:30.572
 ***** ** ***  *** **   PROGRAM STARTED ON                                 terok
 **    ****   ******    PROGRAM STARTED BY                              kuehne88
 ***** **    ** ** **   PROGRAM PROCESS ID                               2870099
  **** **  *******  **  PROGRAM STARTED IN /home/kuehne88/work/native-skala-tero
                                           k/diet-production-p25/gapwxc-gth-one-
                                           center/d3bdfae074e1abf643535351c79e74
                                           139e0a4cd4

 CP2K| version string:                 CP2K version 2026.2 (Development Version)
 CP2K| source code revision number:                                   c1bff3eeb8
 CP2K| cp2kflags: omp fftw3 gauxc gauxc_mpi gauxc_onedft gauxc_host parallel sca
 CP2K|            lapack mpi_f08 openblas libtorch libtorch_cuda
 CP2K| is freely available from                            https://www.cp2k.org/
 CP2K| Program compiled at                                   2026-08-24 23:53:18
 CP2K| Program compiled on                                                 terok
 CP2K| Program compiled for                                               x86_64
 CP2K| Data directory path      /home/kuehne88/work/native-skala-terok/cp2k/data
 CP2K| Input file name                                             input.cpu.inp

 GLOBAL| Force Environment number                                              1
 GLOBAL| Basis set file name                             BASIS_MOLOPT_UZH_2026.2
 GLOBAL| Potential file name                                POTENTIAL_UZH_2026.2
 GLOBAL| MM Potential file name                                     MM_POTENTIAL
 GLOBAL| Coordinate file name                                      __STD_INPUT__
 GLOBAL| Method name                                                        CP2K
 GLOBAL| Project name                                d3bdfae074e1_gapwxc_gth_paw
 GLOBAL| Run type                                                         ENERGY
 GLOBAL| FFT library                                                       FFTW3
 GLOBAL| Diagonalization library                                       ScaLAPACK
 GLOBAL| Cholesky decomposition library                                ScaLAPACK
 GLOBAL| DGEMM library                                                      BLAS
 GLOBAL| Direct generalized diagonalization requested                          F
 GLOBAL| Orthonormality check for eigenvectors                          DISABLED
 GLOBAL| Matrix multiplication library                                 ScaLAPACK
 GLOBAL| All-to-all communication in single precision                          F
 GLOBAL| FFTs using library dependent lengths                                  F
 GLOBAL| Grid backend                                                       AUTO
 GLOBAL| Global print level                                               MEDIUM
 GLOBAL| MPI I/O enabled                                                       T
 GLOBAL| Total number of message passing processes                             1
 GLOBAL| Number of distributed systems (nodes)                                 1
 GLOBAL| Number of threads for this process                                   12
 GLOBAL| This output is from process                                           0
 GLOBAL| OpenMP stack size per thread (OMP_STACKSIZE)                       512M
 GLOBAL| CPU model name                                       AMD EPYC Processor

 MEMORY| system memory details [Kb]
 MEMORY|                        rank 0           min           max       average
 MEMORY| MemTotal            528104844     528104844     528104844     528104844
 MEMORY| MemFree             244820292     244820292     244820292     244820292
 MEMORY| Buffers                   672           672           672           672
 MEMORY| Cached              109960876     109960876     109960876     109960876
 MEMORY| Slab                  6867808       6867808       6867808       6867808
 MEMORY| SReclaimable          4890008       4890008       4890008       4890008
 MEMORY| MemLikelyFree       359671848     359671848     359671848     359671848


 *** Fundamental physical constants (SI units) ***

 *** Literature: B. J. Mohr and B. N. Taylor,
 ***             CODATA recommended values of the fundamental physical
 ***             constants: 2006, Web Version 5.1
 ***             http://physics.nist.gov/constants

 Speed of light in vacuum [m/s]                             2.99792458000000E+08
 Magnetic constant or permeability of vacuum [N/A**2]       1.25663706143592E-06
 Electric constant or permittivity of vacuum [F/m]          8.85418781762039E-12
 Planck constant (h) [J*s]                                  6.62606896000000E-34
 Planck constant (h-bar) [J*s]                              1.05457162825177E-34
 Elementary charge [C]                                      1.60217648700000E-19
 Electron mass [kg]                                         9.10938215000000E-31
 Electron g factor [ ]                                     -2.00231930436220E+00
 Proton mass [kg]                                           1.67262163700000E-27
 Fine-structure constant                                    7.29735253760000E-03
 Rydberg constant [1/m]                                     1.09737315685270E+07
 Avogadro constant [1/mol]                                  6.02214179000000E+23
 Boltzmann constant [J/K]                                   1.38065040000000E-23
 Atomic mass unit [kg]                                      1.66053878200000E-27
 Bohr radius [m]                                            5.29177208590000E-11

 *** Conversion factors ***

 [u] -> [a.u.]                                              1.82288848426455E+03
 [Angstrom] -> [Bohr] = [a.u.]                              1.88972613288564E+00
 [a.u.] = [Bohr] -> [Angstrom]                              5.29177208590000E-01
 [a.u.] -> [s]                                              2.41888432650478E-17
 [a.u.] -> [fs]                                             2.41888432650478E-02
 [a.u.] -> [J]                                              4.35974393937059E-18
 [a.u.] -> [N]                                              8.23872205491840E-08
 [a.u.] -> [K]                                              3.15774647902944E+05
 [a.u.] -> [kJ/mol]                                         2.62549961709828E+03
 [a.u.] -> [kcal/mol]                                       6.27509468713739E+02
 [a.u.] -> [Pa]                                             2.94210107994716E+13
 [a.u.] -> [bar]                                            2.94210107994716E+08
 [a.u.] -> [atm]                                            2.90362800883016E+08
 [a.u.] -> [eV]                                             2.72113838565563E+01
 [a.u.] -> [Hz]                                             6.57968392072181E+15
 [a.u.] -> [1/cm] (wave numbers)                            2.19474631370540E+05
 [a.u./Bohr**2] -> [1/cm]                                   5.14048714338585E+03
 

 CELL| Volume [angstrom^3]:                                         17550.000000
 CELL| Vector a [angstrom]:      27.000     0.000     0.000   |a| =    27.000000
 CELL| Vector b [angstrom]:       0.000    25.000     0.000   |b| =    25.000000
 CELL| Vector c [angstrom]:       0.000     0.000    26.000   |c| =    26.000000
 CELL| Angle (b,c), alpha [degree]:                                    90.000000
 CELL| Angle (a,c), beta  [degree]:                                    90.000000
 CELL| Angle (a,b), gamma [degree]:                                    90.000000
 CELL| Numerically orthorhombic:                                             YES
 CELL| Periodicity                                                          NONE

 CELL_REF| Volume [angstrom^3]:                                     17550.000000
 CELL_REF| Vector a [angstrom    27.000     0.000     0.000   |a| =    27.000000
 CELL_REF| Vector b [angstrom     0.000    25.000     0.000   |b| =    25.000000
 CELL_REF| Vector c [angstrom     0.000     0.000    26.000   |c| =    26.000000
 CELL_REF| Angle (b,c), alpha [degree]:                                90.000000
 CELL_REF| Angle (a,c), beta  [degree]:                                90.000000
 CELL_REF| Angle (a,b), gamma [degree]:                                90.000000
 CELL_REF| Numerically orthorhombic:                                         YES
 CELL_REF| Periodicity                                                      NONE

 GENERATE|  Preliminary Number of Bonds generated:                             0
 GENERATE|  Achieved consistency in connectivity generation.

 *******************************************************************************
 *******************************************************************************
 **                                                                           **
 **     #####                         ##              ##                      **
 **    ##   ##            ##          ##              ##                      **
 **   ##     ##                       ##            ######                    **
 **   ##     ##  ##   ##  ##   #####  ##  ##   ####   ##    #####    #####    **
 **   ##     ##  ##   ##  ##  ##      ## ##   ##      ##   ##   ##  ##   ##   **
 **   ##  ## ##  ##   ##  ##  ##      ####     ###    ##   ######   ######    **
 **    ##  ###   ##   ##  ##  ##      ## ##      ##   ##   ##       ##        **
 **     #######   #####   ##   #####  ##  ##  ####    ##    #####   ##        **
 **           ##                                                    ##        **
 **                                                                           **
 **                                                ... make the atoms dance   **
 **                                                                           **
 **            Copyright (C) by CP2K developers group (2000-2026)             **
 **                      J. Chem. Phys. 152, 194103 (2020)                    **
 **                                                                           **
 *******************************************************************************

 DFT| Spin restricted Kohn-Sham (RKS) calculation                            RKS
 DFT| Multiplicity                                                             1
 DFT| Number of spin states                                                    1
 DFT| Charge                                                                   0
 DFT| Self-interaction correction (SIC)                                       NO
 DFT| Cutoffs: density                                              1.000000E-10
 DFT|          gradient                                             1.000000E-10
 DFT|          tau                                                  1.000000E-10
 DFT|          cutoff_smoothing_range                               0.000000E+00
 DFT| XC density smoothing                                                  NONE
 DFT| XC derivatives                                                          PW

 FUNCTIONAL| GAUXC:
 FUNCTIONAL| Functional computed by GauXC Skala model SKALA                     

 vdW POTENTIAL|                                                   Pair Potential
 vdW POTENTIAL|          DFT-D3 (Version 3.1)
 vdW POTENTIAL|          Potential Form: S. Grimme et al, JCP 132: 154104 (2010)
 vdW POTENTIAL|          BJ Damping: S. Grimme et al, JCC 32: 1456 (2011)
 vdW POTENTIAL|          Cutoff Radius [Bohr]:                             37.79
 vdW POTENTIAL|          s6 Scaling Factor:                               1.0000
 vdW POTENTIAL|          a1 Damping Factor:                               0.3981
 vdW POTENTIAL|          s8 Scaling Factor:                               1.9889
 vdW POTENTIAL|          a2 Damping Factor:                               4.4211
 vdW POTENTIAL|          Cutoff for CN calculation:                   0.1000E-05

 QS| Method:                                                             GAPW_XC
 QS| Density plane wave grid type                        NON-SPHERICAL FULLSPACE
 QS| Number of grid levels:                                                    5
 QS| Density cutoff [a.u.]:                                                200.0
 QS| Multi grid cutoff [a.u.]: 1) grid level                               200.0
 QS|                           2) grid level                                66.7
 QS|                           3) grid level                                22.2
 QS|                           4) grid level                                 7.4
 QS|                           5) grid level                                 2.5
 QS| Grid level progression factor:                                          3.0
 QS| Relative density cutoff [a.u.]:                                        30.0
 QS| Interaction thresholds: eps_pgf_orb:                                1.0E-06
 QS|                         eps_filter_matrix:                          0.0E+00
 QS|                         eps_core_charge:                            1.0E-14
 QS|                         eps_rho_gspace:                             1.0E-12
 QS|                         eps_rho_rspace:                             1.0E-12
 QS|                         eps_gvg_rspace:                             1.0E-06
 QS|                         eps_ppl:                                    1.0E-02
 QS|                         eps_ppnl:                                   1.0E-08
 QS| GAPW_XC|      One center basis extended with primitives (small:s)
 QS| GAPW_XC|                eps_fit:                                    1.0E-04
 QS| GAPW_XC|                eps_iso:                                    1.0E-12
 QS| GAPW_XC|                eps_svd:                                    1.0E-08
 QS| GAPW_XC|atom-r-grid: quadrature:                 GC_LOG                        
 QS| GAPW_XC|   atom-s-grid:  max l :                                          6


 ATOMIC KIND INFORMATION

  1. Atomic kind: O                                     Number of atoms:       1

     Orbital Basis Set                                   TZV2P-MOLOPT-PBE-GTH-q6

       Number of orbital shell sets:                                           1
       Number of orbital shells:                                               9
       Number of primitive Cartesian functions:                                5
       Number of Cartesian basis functions:                                   34
       Number of spherical basis functions:                                   29
       Norm type:                                                              2

       Normalised Cartesian orbitals:

                        Set   Shell   Orbital            Exponent    Coefficient

                          1       1    2s               10.277042      -0.485504
                                                         3.564053      -0.220015
                                                         1.313636       0.373321
                                                         0.488903       0.264765
                                                         0.155332       0.020043

                          1       2    3s               10.277042       0.224066
                                                         3.564053       0.080746
                                                         1.313636      -0.123482
                                                         0.488903      -0.035459
                                                         0.155332       0.195554

                          1       3    4s               10.277042      -3.846583
                                                         3.564053      -0.604002
                                                         1.313636       0.878850
                                                         0.488903      -0.388670
                                                         0.155332       0.020403

                          1       4    3px              10.277042      -1.528218
                                                         3.564053      -1.277699
                                                         1.313636      -0.654740
                                                         0.488903      -0.229926
                                                         0.155332      -0.043447
                          1       4    3py              10.277042      -1.528218
                                                         3.564053      -1.277699
                                                         1.313636      -0.654740
                                                         0.488903      -0.229926
                                                         0.155332      -0.043447
                          1       4    3pz              10.277042      -1.528218
                                                         3.564053      -1.277699
                                                         1.313636      -0.654740
                                                         0.488903      -0.229926
                                                         0.155332      -0.043447

                          1       5    4px              10.277042       2.036465
                                                         3.564053       1.678955
                                                         1.313636       0.821025
                                                         0.488903       0.173956
                                                         0.155332      -0.133459
                          1       5    4py              10.277042       2.036465
                                                         3.564053       1.678955
                                                         1.313636       0.821025
                                                         0.488903       0.173956
                                                         0.155332      -0.133459
                          1       5    4pz              10.277042       2.036465
                                                         3.564053       1.678955
                                                         1.313636       0.821025
                                                         0.488903       0.173956
                                                         0.155332      -0.133459

                          1       6    5px              10.277042       4.160760
                                                         3.564053       3.839534
                                                         1.313636       1.365137
                                                         0.488903      -0.557232
                                                         0.155332       0.019989
                          1       6    5py              10.277042       4.160760
                                                         3.564053       3.839534
                                                         1.313636       1.365137
                                                         0.488903      -0.557232
                                                         0.155332       0.019989
                          1       6    5pz              10.277042       4.160760
                                                         3.564053       3.839534
                                                         1.313636       1.365137
                                                         0.488903      -0.557232
                                                         0.155332       0.019989

                          1       7    4dx2             10.277042      -5.653729
                                                         3.564053       2.384130
                                                         1.313636       0.763128
                                                         0.488903       0.368121
                                                         0.155332      -0.007951
                          1       7    4dxy             10.277042      -9.792547
                                                         3.564053       4.129435
                                                         1.313636       1.321776
                                                         0.488903       0.637605
                                                         0.155332      -0.013772
                          1       7    4dxz             10.277042      -9.792547
                                                         3.564053       4.129435
                                                         1.313636       1.321776
                                                         0.488903       0.637605
                                                         0.155332      -0.013772
                          1       7    4dy2             10.277042      -5.653729
                                                         3.564053       2.384130
                                                         1.313636       0.763128
                                                         0.488903       0.368121
                                                         0.155332      -0.007951
                          1       7    4dyz             10.277042      -9.792547
                                                         3.564053       4.129435
                                                         1.313636       1.321776
                                                         0.488903       0.637605
                                                         0.155332      -0.013772
                          1       7    4dz2             10.277042      -5.653729
                                                         3.564053       2.384130
                                                         1.313636       0.763128
                                                         0.488903       0.368121
                                                         0.155332      -0.007951

                          1       8    5dx2             10.277042      -1.240143
                                                         3.564053       0.370203
                                                         1.313636       0.144297
                                                         0.488903       0.056503
                                                         0.155332       0.057456
                          1       8    5dxy             10.277042      -2.147990
                                                         3.564053       0.641211
                                                         1.313636       0.249929
                                                         0.488903       0.097865
                                                         0.155332       0.099516
                          1       8    5dxz             10.277042      -2.147990
                                                         3.564053       0.641211
                                                         1.313636       0.249929
                                                         0.488903       0.097865
                                                         0.155332       0.099516
                          1       8    5dy2             10.277042      -1.240143
                                                         3.564053       0.370203
                                                         1.313636       0.144297
                                                         0.488903       0.056503
                                                         0.155332       0.057456
                          1       8    5dyz             10.277042      -2.147990
                                                         3.564053       0.641211
                                                         1.313636       0.249929
                                                         0.488903       0.097865
                                                         0.155332       0.099516
                          1       8    5dz2             10.277042      -1.240143
                                                         3.564053       0.370203
                                                         1.313636       0.144297
                                                         0.488903       0.056503
                                                         0.155332       0.057456

                          1       9    5fx3             10.277042      -6.690350
                                                         3.564053       0.340627
                                                         1.313636       0.043047
                                                         0.488903       0.291962
                                                         0.155332      -0.000154
                          1       9    5fx2y            10.277042     -14.960077
                                                         3.564053       0.761664
                                                         1.313636       0.096256
                                                         0.488903       0.652848
                                                         0.155332      -0.000345
                          1       9    5fx2z            10.277042     -14.960077
                                                         3.564053       0.761664
                                                         1.313636       0.096256
                                                         0.488903       0.652848
                                                         0.155332      -0.000345
                          1       9    5fxy2            10.277042     -14.960077
                                                         3.564053       0.761664
                                                         1.313636       0.096256
                                                         0.488903       0.652848
                                                         0.155332      -0.000345
                          1       9    5fxyz            10.277042     -25.911613
                                                         3.564053       1.319241
                                                         1.313636       0.166721
                                                         0.488903       1.130766
                                                         0.155332      -0.000597
                          1       9    5fxz2            10.277042     -14.960077
                                                         3.564053       0.761664
                                                         1.313636       0.096256
                                                         0.488903       0.652848
                                                         0.155332      -0.000345
                          1       9    5fy3             10.277042      -6.690350
                                                         3.564053       0.340627
                                                         1.313636       0.043047
                                                         0.488903       0.291962
                                                         0.155332      -0.000154
                          1       9    5fy2z            10.277042     -14.960077
                                                         3.564053       0.761664
                                                         1.313636       0.096256
                                                         0.488903       0.652848
                                                         0.155332      -0.000345
                          1       9    5fyz2            10.277042     -14.960077
                                                         3.564053       0.761664
                                                         1.313636       0.096256
                                                         0.488903       0.652848
                                                         0.155332      -0.000345
                          1       9    5fz3             10.277042      -6.690350
                                                         3.564053       0.340627
                                                         1.313636       0.043047
                                                         0.488903       0.291962
                                                         0.155332      -0.000154

       Atomic covalent radius [Angstrom]:                                  0.730

       Atomic van der Waals radius [Angstrom]:                             1.520

     The atoms of this atomic kind are PAW atoms (GAPW):
       Hard Gaussian function radius:                                      1.400
       Rho0 radius:                                                        1.400
       Maximum GTO radius used for PAW projector construction:            24.566

     GAPW Soft Basis Set                            TZV2P-MOLOPT-PBE-GTH-q6_soft

       Number of orbital shell sets:                                           1
       Number of orbital shells:                                               9
       Number of primitive Cartesian functions:                                4
       Number of Cartesian basis functions:                                   34
       Number of spherical basis functions:                                   29
       Norm type:                                                              2

       Normalised Cartesian orbitals:

                        Set   Shell   Orbital            Exponent    Coefficient

                          1       1    2s                3.564053      -0.220015
                                                         1.313636       0.373321
                                                         0.488903       0.264765
                                                         0.155332       0.020043

                          1       2    3s                3.564053       0.080746
                                                         1.313636      -0.123482
                                                         0.488903      -0.035459
                                                         0.155332       0.195554

                          1       3    4s                3.564053      -0.604002
                                                         1.313636       0.878850
                                                         0.488903      -0.388670
                                                         0.155332       0.020403

                          1       4    3px               3.564053      -1.277699
                                                         1.313636      -0.654740
                                                         0.488903      -0.229926
                                                         0.155332      -0.043447
                          1       4    3py               3.564053      -1.277699
                                                         1.313636      -0.654740
                                                         0.488903      -0.229926
                                                         0.155332      -0.043447
                          1       4    3pz               3.564053      -1.277699
                                                         1.313636      -0.654740
                                                         0.488903      -0.229926
                                                         0.155332      -0.043447

                          1       5    4px               3.564053       1.678955
                                                         1.313636       0.821025
                                                         0.488903       0.173956
                                                         0.155332      -0.133459
                          1       5    4py               3.564053       1.678955
                                                         1.313636       0.821025
                                                         0.488903       0.173956
                                                         0.155332      -0.133459
                          1       5    4pz               3.564053       1.678955
                                                         1.313636       0.821025
                                                         0.488903       0.173956
                                                         0.155332      -0.133459

                          1       6    5px               3.564053       3.839534
                                                         1.313636       1.365137
                                                         0.488903      -0.557232
                                                         0.155332       0.019989
                          1       6    5py               3.564053       3.839534
                                                         1.313636       1.365137
                                                         0.488903      -0.557232
                                                         0.155332       0.019989
                          1       6    5pz               3.564053       3.839534
                                                         1.313636       1.365137
                                                         0.488903      -0.557232
                                                         0.155332       0.019989

                          1       7    4dx2              3.564053       2.384130
                                                         1.313636       0.763128
                                                         0.488903       0.368121
                                                         0.155332      -0.007951
                          1       7    4dxy              3.564053       4.129435
                                                         1.313636       1.321776
                                                         0.488903       0.637605
                                                         0.155332      -0.013772
                          1       7    4dxz              3.564053       4.129435
                                                         1.313636       1.321776
                                                         0.488903       0.637605
                                                         0.155332      -0.013772
                          1       7    4dy2              3.564053       2.384130
                                                         1.313636       0.763128
                                                         0.488903       0.368121
                                                         0.155332      -0.007951
                          1       7    4dyz              3.564053       4.129435
                                                         1.313636       1.321776
                                                         0.488903       0.637605
                                                         0.155332      -0.013772
                          1       7    4dz2              3.564053       2.384130
                                                         1.313636       0.763128
                                                         0.488903       0.368121
                                                         0.155332      -0.007951

                          1       8    5dx2              3.564053       0.370203
                                                         1.313636       0.144297
                                                         0.488903       0.056503
                                                         0.155332       0.057456
                          1       8    5dxy              3.564053       0.641211
                                                         1.313636       0.249929
                                                         0.488903       0.097865
                                                         0.155332       0.099516
                          1       8    5dxz              3.564053       0.641211
                                                         1.313636       0.249929
                                                         0.488903       0.097865
                                                         0.155332       0.099516
                          1       8    5dy2              3.564053       0.370203
                                                         1.313636       0.144297
                                                         0.488903       0.056503
                                                         0.155332       0.057456
                          1       8    5dyz              3.564053       0.641211
                                                         1.313636       0.249929
                                                         0.488903       0.097865
                                                         0.155332       0.099516
                          1       8    5dz2              3.564053       0.370203
                                                         1.313636       0.144297
                                                         0.488903       0.056503
                                                         0.155332       0.057456

                          1       9    5fx3              3.564053       0.340627
                                                         1.313636       0.043047
                                                         0.488903       0.291962
                                                         0.155332      -0.000154
                          1       9    5fx2y             3.564053       0.761664
                                                         1.313636       0.096256
                                                         0.488903       0.652848
                                                         0.155332      -0.000345
                          1       9    5fx2z             3.564053       0.761664
                                                         1.313636       0.096256
                                                         0.488903       0.652848
                                                         0.155332      -0.000345
                          1       9    5fxy2             3.564053       0.761664
                                                         1.313636       0.096256
                                                         0.488903       0.652848
                                                         0.155332      -0.000345
                          1       9    5fxyz             3.564053       1.319241
                                                         1.313636       0.166721
                                                         0.488903       1.130766
                                                         0.155332      -0.000597
                          1       9    5fxz2             3.564053       0.761664
                                                         1.313636       0.096256
                                                         0.488903       0.652848
                                                         0.155332      -0.000345
                          1       9    5fy3              3.564053       0.340627
                                                         1.313636       0.043047
                                                         0.488903       0.291962
                                                         0.155332      -0.000154
                          1       9    5fy2z             3.564053       0.761664
                                                         1.313636       0.096256
                                                         0.488903       0.652848
                                                         0.155332      -0.000345
                          1       9    5fyz2             3.564053       0.761664
                                                         1.313636       0.096256
                                                         0.488903       0.652848
                                                         0.155332      -0.000345
                          1       9    5fz3              3.564053       0.340627
                                                         1.313636       0.043047
                                                         0.488903       0.291962
                                                         0.155332      -0.000154

     GTH Potential information for                                    GTH-PBE-q6

       Description:                       Goedecker-Teter-Hutter pseudopotential
                                           Goedecker et al., PRB 54, 1703 (1996)
                                          Hartwigsen et al., PRB 58, 3641 (1998)
                                                      Krack, TCA 114, 145 (2005)

       Gaussian exponent of the core charge distribution:               8.366479
       Electronic configuration (s p d ...):                       2   4   0   0

       Parameters of the local part of the GTH pseudopotential:

                          rloc        C1          C2          C3          C4
                        0.244463  -16.675482    2.489086

       Parameters of the non-local part of the GTH pseudopotential:

                   l      r(l)      h(i,j,l)

                   0    0.220971   18.334469

  2. Atomic kind: H                                     Number of atoms:       2

     Orbital Basis Set                                   TZV2P-MOLOPT-PBE-GTH-q1

       Number of orbital shell sets:                                           1
       Number of orbital shells:                                               6
       Number of primitive Cartesian functions:                                5
       Number of Cartesian basis functions:                                   15
       Number of spherical basis functions:                                   14
       Norm type:                                                              2

       Normalised Cartesian orbitals:

                        Set   Shell   Orbital            Exponent    Coefficient

                          1       1    2s                9.586642       0.069481
                                                         2.202360       0.112147
                                                         0.604094       0.130550
                                                         0.146498       0.088477
                                                         0.139526       0.035929

                          1       2    3s                9.586642      -0.087313
                                                         2.202360      -0.117928
                                                         0.604094      -0.099372
                                                         0.146498      -0.105375
                                                         0.139526       0.287433

                          1       3    4s                9.586642       0.882480
                                                         2.202360       0.096105
                                                         0.604094      -0.739894
                                                         0.146498       0.120904
                                                         0.139526       0.013904

                          1       4    3px               9.586642      -2.186125
                                                         2.202360       1.112625
                                                         0.604094       0.330981
                                                         0.146498       0.087385
                                                         0.139526      -0.016905
                          1       4    3py               9.586642      -2.186125
                                                         2.202360       1.112625
                                                         0.604094       0.330981
                                                         0.146498       0.087385
                                                         0.139526      -0.016905
                          1       4    3pz               9.586642      -2.186125
                                                         2.202360       1.112625
                                                         0.604094       0.330981
                                                         0.146498       0.087385
                                                         0.139526      -0.016905

                          1       5    4px               9.586642       1.866908
                                                         2.202360       0.174551
                                                         0.604094       0.060190
                                                         0.146498       0.014182
                                                         0.139526       0.100545
                          1       5    4py               9.586642       1.866908
                                                         2.202360       0.174551
                                                         0.604094       0.060190
                                                         0.146498       0.014182
                                                         0.139526       0.100545
                          1       5    4pz               9.586642       1.866908
                                                         2.202360       0.174551
                                                         0.604094       0.060190
                                                         0.146498       0.014182
                                                         0.139526       0.100545

                          1       6    4dx2              9.586642       0.111501
                                                         2.202360      -0.020603
                                                         0.604094      -0.012612
                                                         0.146498      -0.000171
                                                         0.139526       0.052995
                          1       6    4dxy              9.586642       0.193125
                                                         2.202360      -0.035686
                                                         0.604094      -0.021844
                                                         0.146498      -0.000296
                                                         0.139526       0.091790
                          1       6    4dxz              9.586642       0.193125
                                                         2.202360      -0.035686
                                                         0.604094      -0.021844
                                                         0.146498      -0.000296
                                                         0.139526       0.091790
                          1       6    4dy2              9.586642       0.111501
                                                         2.202360      -0.020603
                                                         0.604094      -0.012612
                                                         0.146498      -0.000171
                                                         0.139526       0.052995
                          1       6    4dyz              9.586642       0.193125
                                                         2.202360      -0.035686
                                                         0.604094      -0.021844
                                                         0.146498      -0.000296
                                                         0.139526       0.091790
                          1       6    4dz2              9.586642       0.111501
                                                         2.202360      -0.020603
                                                         0.604094      -0.012612
                                                         0.146498      -0.000171
                                                         0.139526       0.052995

       Atomic covalent radius [Angstrom]:                                  0.320

       Atomic van der Waals radius [Angstrom]:                             1.090

     The atoms of this atomic kind are PAW atoms (GAPW):
       Hard Gaussian function radius:                                      1.000
       Rho0 radius:                                                        1.000
       Maximum GTO radius used for PAW projector construction:            24.566

     GAPW Soft Basis Set                            TZV2P-MOLOPT-PBE-GTH-q1_soft

       Number of orbital shell sets:                                           1
       Number of orbital shells:                                               6
       Number of primitive Cartesian functions:                                4
       Number of Cartesian basis functions:                                   15
       Number of spherical basis functions:                                   14
       Norm type:                                                              2

       Normalised Cartesian orbitals:

                        Set   Shell   Orbital            Exponent    Coefficient

                          1       1    2s                2.202360       0.112147
                                                         0.604094       0.130550
                                                         0.146498       0.088477
                                                         0.139526       0.035929

                          1       2    3s                2.202360      -0.117928
                                                         0.604094      -0.099372
                                                         0.146498      -0.105375
                                                         0.139526       0.287433

                          1       3    4s                2.202360       0.096105
                                                         0.604094      -0.739894
                                                         0.146498       0.120904
                                                         0.139526       0.013904

                          1       4    3px               2.202360       1.112625
                                                         0.604094       0.330981
                                                         0.146498       0.087385
                                                         0.139526      -0.016905
                          1       4    3py               2.202360       1.112625
                                                         0.604094       0.330981
                                                         0.146498       0.087385
                                                         0.139526      -0.016905
                          1       4    3pz               2.202360       1.112625
                                                         0.604094       0.330981
                                                         0.146498       0.087385
                                                         0.139526      -0.016905

                          1       5    4px               2.202360       0.174551
                                                         0.604094       0.060190
                                                         0.146498       0.014182
                                                         0.139526       0.100545
                          1       5    4py               2.202360       0.174551
                                                         0.604094       0.060190
                                                         0.146498       0.014182
                                                         0.139526       0.100545
                          1       5    4pz               2.202360       0.174551
                                                         0.604094       0.060190
                                                         0.146498       0.014182
                                                         0.139526       0.100545

                          1       6    4dx2              2.202360      -0.020603
                                                         0.604094      -0.012612
                                                         0.146498      -0.000171
                                                         0.139526       0.052995
                          1       6    4dxy              2.202360      -0.035686
                                                         0.604094      -0.021844
                                                         0.146498      -0.000296
                                                         0.139526       0.091790
                          1       6    4dxz              2.202360      -0.035686
                                                         0.604094      -0.021844
                                                         0.146498      -0.000296
                                                         0.139526       0.091790
                          1       6    4dy2              2.202360      -0.020603
                                                         0.604094      -0.012612
                                                         0.146498      -0.000171
                                                         0.139526       0.052995
                          1       6    4dyz              2.202360      -0.035686
                                                         0.604094      -0.021844
                                                         0.146498      -0.000296
                                                         0.139526       0.091790
                          1       6    4dz2              2.202360      -0.020603
                                                         0.604094      -0.012612
                                                         0.146498      -0.000171
                                                         0.139526       0.052995

     GTH Potential information for                                    GTH-PBE-q1

       Description:                       Goedecker-Teter-Hutter pseudopotential
                                           Goedecker et al., PRB 54, 1703 (1996)
                                          Hartwigsen et al., PRB 58, 3641 (1998)
                                                      Krack, TCA 114, 145 (2005)

       Gaussian exponent of the core charge distribution:              12.426182
       Electronic configuration (s p d ...):                       1   0   0   0

       Parameters of the local part of the GTH pseudopotential:

                          rloc        C1          C2          C3          C4
                        0.200593   -4.178068    0.724409


 MOLECULE KIND INFORMATION


 All atoms are their own molecule, skipping detailed information


 TOTAL NUMBERS AND MAXIMUM NUMBERS

  Total number of            - Atomic kinds:                                   2
                             - Atoms:                                          3
                             - Shell sets:                                     3
                             - Shells:                                        21
                             - Primitive Cartesian functions:                 15
                             - Cartesian basis functions:                     64
                             - Spherical basis functions:                     57

  Maximum angular momentum of- Orbital basis functions:                        3
                             - Local part of the GTH pseudopotential:          2
                             - Non-local part of the GTH pseudopotential:      0


 MODULE QUICKSTEP: ATOMIC COORDINATES IN ANGSTROM

   Atom Kind Element         X             Y             Z       Z(eff)     Mass
      1    1 O     8     13.500000     12.500000     13.298430   6.0000  15.9994
      2    2 H     1     12.732900     12.500000     12.701570   1.0000   1.0079
      3    2 H     1     14.267100     12.500000     12.701570   1.0000   1.0079



 SCF PARAMETERS         Density guess:                                    ATOMIC
                        --------------------------------------------------------
                        max_scf:                                             200
                        max_scf_history:                                       0
                        max_diis:                                              4
                        --------------------------------------------------------
                        eps_scf:                                        1.00E-07
                        eps_scf_history:                                0.00E+00
                        eps_diis:                                       0.00E+00
                        eps_eigval:                                     1.00E-05
                        --------------------------------------------------------
                        level_shift [a.u.]:                             0.000000
                        --------------------------------------------------------
                        Outer loop SCF in use 
                        No variables optimised in outer loop
                        eps_scf                                         1.00E-07
                        max_scf                                               20
                        No outer loop optimization
                        step_size                                       5.00E-01

 PW_GRID| Information for grid number                                          1
 PW_GRID| Cutoff [a.u.]                                                    200.0
 PW_GRID| spherical cutoff:                                                   NO
 PW_GRID|   Bounds   1           -180     179                Points:         360
 PW_GRID|   Bounds   2           -160     159                Points:         320
 PW_GRID|   Bounds   3           -160     159                Points:         320
 PW_GRID| Volume element (a.u.^3)  0.3213E-02     Volume (a.u.^3)    118433.2719
 PW_GRID| Grid span                                                    FULLSPACE

 PW_GRID| Information for grid number                                          2
 PW_GRID| Number of the reference grid                                         1
 PW_GRID| Cutoff [a.u.]                                                     66.7
 PW_GRID| spherical cutoff:                                                   NO
 PW_GRID|   Bounds   1            -96      95                Points:         192
 PW_GRID|   Bounds   2            -90      89                Points:         180
 PW_GRID|   Bounds   3            -96      95                Points:         192
 PW_GRID| Volume element (a.u.^3)  0.1785E-01     Volume (a.u.^3)    118433.2719
 PW_GRID| Grid span                                                    FULLSPACE

 PW_GRID| Information for grid number                                          3
 PW_GRID| Number of the reference grid                                         1
 PW_GRID| Cutoff [a.u.]                                                     22.2
 PW_GRID| spherical cutoff:                                                   NO
 PW_GRID|   Bounds   1            -60      59                Points:         120
 PW_GRID|   Bounds   2            -54      53                Points:         108
 PW_GRID|   Bounds   3            -54      53                Points:         108
 PW_GRID| Volume element (a.u.^3)  0.8461E-01     Volume (a.u.^3)    118433.2719
 PW_GRID| Grid span                                                    FULLSPACE

 PW_GRID| Information for grid number                                          4
 PW_GRID| Number of the reference grid                                         1
 PW_GRID| Cutoff [a.u.]                                                      7.4
 PW_GRID| spherical cutoff:                                                   NO
 PW_GRID|   Bounds   1            -32      31                Points:          64
 PW_GRID|   Bounds   2            -30      29                Points:          60
 PW_GRID|   Bounds   3            -32      31                Points:          64
 PW_GRID| Volume element (a.u.^3)  0.4819         Volume (a.u.^3)    118433.2719
 PW_GRID| Grid span                                                    FULLSPACE

 PW_GRID| Information for grid number                                          5
 PW_GRID| Number of the reference grid                                         1
 PW_GRID| Cutoff [a.u.]                                                      2.5
 PW_GRID| spherical cutoff:                                                   NO
 PW_GRID|   Bounds   1            -20      19                Points:          40
 PW_GRID|   Bounds   2            -18      17                Points:          36
 PW_GRID|   Bounds   3            -18      17                Points:          36
 PW_GRID| Volume element (a.u.^3)   2.285         Volume (a.u.^3)    118433.2719
 PW_GRID| Grid span                                                    FULLSPACE

 POISSON| Solver                                                        ANALYTIC
 POISSON| Periodicity                                                       NONE

 RS_GRID| Information for grid number                                          1
 RS_GRID|   Bounds   1           -180     179                Points:         360
 RS_GRID|   Bounds   2           -160     159                Points:         320
 RS_GRID|   Bounds   3           -160     159                Points:         320

 RS_GRID| Information for grid number                                          2
 RS_GRID|   Bounds   1            -96      95                Points:         192
 RS_GRID|   Bounds   2            -90      89                Points:         180
 RS_GRID|   Bounds   3            -96      95                Points:         192

 RS_GRID| Information for grid number                                          3
 RS_GRID|   Bounds   1            -60      59                Points:         120
 RS_GRID|   Bounds   2            -54      53                Points:         108
 RS_GRID|   Bounds   3            -54      53                Points:         108

 RS_GRID| Information for grid number                                          4
 RS_GRID|   Bounds   1            -32      31                Points:          64
 RS_GRID|   Bounds   2            -30      29                Points:          60
 RS_GRID|   Bounds   3            -32      31                Points:          64

 RS_GRID| Information for grid number                                          5
 RS_GRID|   Bounds   1            -20      19                Points:          40
 RS_GRID|   Bounds   2            -18      17                Points:          36
 RS_GRID|   Bounds   3            -18      17                Points:          36

 Extrapolation method: initial_guess

 Atomic guess: The first density matrix is obtained in terms of atomic orbitals
               and electronic configurations assigned to each atomic kind

 Guess for atomic kind: O

 Electronic structure
    Total number of core electrons                                          2.00
    Total number of valence electrons                                       6.00
    Total number of electrons                                               8.00
    Multiplicity                                                   not specified
    S   [  2.00] 2.00
    P      4.00


 *******************************************************************************
                  Iteration          Convergence                     Energy [au]
 *******************************************************************************
                          1        0.796005                     -15.566061392878
                          2        0.774658                     -15.568438641124
                          3        0.351111E-01                 -15.654930076648
                          4        0.189172E-02                 -15.655143267357
                          5        0.220385E-04                 -15.655143728195
                          6        0.421750E-06                 -15.655143728266

 Energy components [Hartree]           Total Energy ::          -15.655143728266
                                        Band Energy ::           -3.002138986161
                                     Kinetic Energy ::           11.764067744793
                                   Potential Energy ::          -27.419211473059
                                      Virial (-V/T) ::            2.330759399545
                                        Core Energy ::          -26.135412074763
                                          XC Energy ::           -3.153998435018
                                     Coulomb Energy ::           13.634266781516
                       Total Pseudopotential Energy ::          -37.934831757086
                       Local Pseudopotential Energy ::          -39.243587898829
                    Nonlocal Pseudopotential Energy ::            1.308756141743
                                        Confinement ::            0.353519375302

 Orbital energies  State     L     Occupation   Energy[a.u.]          Energy[eV]

                       1     0          2.000      -0.864691          -23.529445

                       1     1          4.000      -0.318189           -8.658367


 Total Electron Density at R=0:                                         0.000131

 Guess for atomic kind: H

 Electronic structure
    Total number of core electrons                                          0.00
    Total number of valence electrons                                       1.00
    Total number of electrons                                               1.00
    Multiplicity                                                   not specified
    S      1.00


 *******************************************************************************
                  Iteration          Convergence                     Energy [au]
 *******************************************************************************
                          1        0.471942E-02                  -0.424095106469
                          2        0.464819E-03                  -0.424113671871
                          3        0.190364E-04                  -0.424114007136
                          4        0.633677E-08                  -0.424114007691

 Energy components [Hartree]           Total Energy ::           -0.424114007691
                                        Band Energy ::           -0.198799540676
                                     Kinetic Energy ::            0.462903625467
                                   Potential Energy ::           -0.887017633158
                                      Virial (-V/T) ::            1.916203685515
                                        Core Energy ::           -0.479182004469
                                          XC Energy ::           -0.244447840446
                                     Coulomb Energy ::            0.299515837225
                       Total Pseudopotential Energy ::           -0.960851778720
                       Local Pseudopotential Energy ::           -0.960851778720
                    Nonlocal Pseudopotential Energy ::            0.000000000000
                                        Confinement ::            0.187661487833

 Orbital energies  State     L     Occupation   Energy[a.u.]          Energy[eV]

                       1     0          1.000      -0.198800           -5.409611


 Total Electron Density at R=0:                                         0.230125
 Re-scaling the density matrix to get the right number of electrons
                  # Electrons              Trace(P)               Scaling factor
                            8                 8.000                        1.000

 Number of electrons:                                                          8
 Number of occupied orbitals:                                                  4
 Number of molecular orbitals:                                                 4

 Number of orbital functions:                                                 57
 Number of independent orbital functions:                                     57


 SCF WAVEFUNCTION OPTIMIZATION

  ----------------------------------- OT ---------------------------------------
  Minimizer      : DIIS                : direct inversion
                                         in the iterative subspace
                                         using   7 DIIS vectors
                                         safer DIIS on
  Preconditioner : FULL_ALL            : diagonalization, state selective
  Precond_solver : DEFAULT
  stepsize       :    0.10000000                  energy_gap     :    0.00100000
  eps_taylor     :   0.10000E-15                  max_taylor     :             4
  ----------------------------------- OT ---------------------------------------

  Step     Update method      Time    Convergence         Total energy    Change
  ------------------------------------------------------------------------------
 SKALA_GPW| Atom-composite cross support/maxima   1.926008776013E+00   2.283436795791E-01   1.118541713575E+00   5.542133849257E+00
 SKALA_GPW| Active atom-composite XC energy  -4.0957998461743390E+00
 SKALA_GPW| Active atom-composite electrons   7.9999980966560917E+00
 SKALA_GPW| Active atom-composite density range  -6.3305160022033051E-10   7.8014946553832731E-01
 SKALA_GPW| Active atom-composite tau range  -8.5287390956152754E-09   1.9049893104100146E+01
 SKALA_GPW| Active atom-composite tau integral   1.4148733300640815E+01
 SKALA_GPW| Active atom-composite max gradient   2.8357830677952336E+00
     1 OT DIIS     0.10E+00   49.8     0.17643810       -16.6274622950 -1.66E+01
 SKALA_GPW| Atom-composite cross support/maxima   1.926008776013E+00   1.492521779334E-01   1.000901953394E+00   4.789685649449E+00
 SKALA_GPW| Active atom-composite XC energy  -4.2453340456861017E+00
 SKALA_GPW| Active atom-composite electrons   7.9999982411522970E+00
 SKALA_GPW| Active atom-composite density range  -4.7289210789277631E-10   6.8678339567122848E-01
 SKALA_GPW| Active atom-composite tau range  -8.7902236958968266E-09   1.8314501877523842E+01
 SKALA_GPW| Active atom-composite tau integral   1.4081455998373139E+01
 SKALA_GPW| Active atom-composite max gradient   2.7382530914154217E+00
     2 OT DIIS     0.10E+00   57.9     0.07761537       -17.1128411161 -4.85E-01
 SKALA_GPW| Atom-composite cross support/maxima   1.926008776013E+00   9.341292782318E-02   9.945775387248E-01   4.319547180240E+00
 SKALA_GPW| Active atom-composite XC energy  -4.1775327624033984E+00
 SKALA_GPW| Active atom-composite electrons   7.9999985135154024E+00
 SKALA_GPW| Active atom-composite density range  -3.7317205301613533E-10   6.0874065144704670E-01
 SKALA_GPW| Active atom-composite tau range  -7.7430706660438103E-09   1.6259421566904081E+01
 SKALA_GPW| Active atom-composite tau integral   1.3311362309905352E+01
 SKALA_GPW| Active atom-composite max gradient   2.5319256224813880E+00
     3 OT DIIS     0.10E+00   58.1     0.02754886       -17.2167869250 -1.04E-01
 SKALA_GPW| Atom-composite cross support/maxima   1.926008776013E+00   8.724572279927E-02   1.022528992686E+00   4.373455171629E+00
 SKALA_GPW| Active atom-composite XC energy  -4.2290543289213840E+00
 SKALA_GPW| Active atom-composite electrons   7.9999984905108183E+00
 SKALA_GPW| Active atom-composite density range  -3.6720620666336888E-10   6.1398234915618122E-01
 SKALA_GPW| Active atom-composite tau range  -7.8354681256757845E-09   1.6561399888797336E+01
 SKALA_GPW| Active atom-composite tau integral   1.3569554386033168E+01
 SKALA_GPW| Active atom-composite max gradient   2.5604280810586113E+00
     4 OT DIIS     0.10E+00   53.6     0.01046792       -17.2296002168 -1.28E-02
 SKALA_GPW| Atom-composite cross support/maxima   1.926008776013E+00   8.286653513905E-02   1.023233974847E+00   4.349184757252E+00
 SKALA_GPW| Active atom-composite XC energy  -4.2343852965510571E+00
 SKALA_GPW| Active atom-composite electrons   7.9999984941116535E+00
 SKALA_GPW| Active atom-composite density range  -3.6236853974668526E-10   6.1161499790720708E-01
 SKALA_GPW| Active atom-composite tau range  -7.7859518655147151E-09   1.6493188707350207E+01
 SKALA_GPW| Active atom-composite tau integral   1.3580442738464669E+01
 SKALA_GPW| Active atom-composite max gradient   2.5466691964399750E+00
     5 OT DIIS     0.10E+00   58.8     0.00442179       -17.2321154443 -2.52E-03
 SKALA_GPW| Atom-composite cross support/maxima   1.926008776013E+00   8.121699051328E-02   1.022297269596E+00   4.335969510494E+00
 SKALA_GPW| Active atom-composite XC energy  -4.2369543282167168E+00
 SKALA_GPW| Active atom-composite electrons   7.9999984905860302E+00
 SKALA_GPW| Active atom-composite density range  -3.5847101181352965E-10   6.1055797222002250E-01
 SKALA_GPW| Active atom-composite tau range  -7.7353792070293159E-09   1.6474138685301302E+01
 SKALA_GPW| Active atom-composite tau integral   1.3590773186891898E+01
 SKALA_GPW| Active atom-composite max gradient   2.5386746938645492E+00
     6 OT DIIS     0.10E+00   48.8     0.00075278       -17.2326418675 -5.26E-04
 SKALA_GPW| Atom-composite cross support/maxima   1.926008776013E+00   8.079001636062E-02   1.020849085696E+00   4.331095711523E+00
 SKALA_GPW| Active atom-composite XC energy  -4.2353556852787992E+00
 SKALA_GPW| Active atom-composite electrons   7.9999984915821578E+00
 SKALA_GPW| Active atom-composite density range  -3.5924402526376756E-10   6.0979670340315240E-01
 SKALA_GPW| Active atom-composite tau range  -7.7266420050510762E-09   1.6453826235066586E+01
 SKALA_GPW| Active atom-composite tau integral   1.3581115220289998E+01
 SKALA_GPW| Active atom-composite max gradient   2.5352758873965628E+00
     7 OT DIIS     0.10E+00   50.7     0.00049735       -17.2326509636 -9.10E-06
 SKALA_GPW| Atom-composite cross support/maxima   1.926008776013E+00   8.083999651345E-02   1.021146948224E+00   4.333560352125E+00
 SKALA_GPW| Active atom-composite XC energy  -4.2361171158600204E+00
 SKALA_GPW| Active atom-composite electrons   7.9999984893487008E+00
 SKALA_GPW| Active atom-composite density range  -3.5912726741602799E-10   6.1000468868807811E-01
 SKALA_GPW| Active atom-composite tau range  -7.7264162080560720E-09   1.6469505243724907E+01
 SKALA_GPW| Active atom-composite tau integral   1.3587345154729586E+01
 SKALA_GPW| Active atom-composite max gradient   2.5362464895145713E+00
     8 OT DIIS     0.10E+00   52.9     0.00008983       -17.2326542554 -3.29E-06
 SKALA_GPW| Atom-composite cross support/maxima   1.926008776013E+00   8.079408361745E-02   1.021098733358E+00   4.333195389017E+00
 SKALA_GPW| Active atom-composite XC energy  -4.2360127215907113E+00
 SKALA_GPW| Active atom-composite electrons   7.9999984894259182E+00
 SKALA_GPW| Active atom-composite density range  -3.5919387758121232E-10   6.0997353908252150E-01
 SKALA_GPW| Active atom-composite tau range  -7.7266366290876096E-09   1.6467948185499171E+01
 SKALA_GPW| Active atom-composite tau integral   1.3586674113349112E+01
 SKALA_GPW| Active atom-composite max gradient   2.5360135553285108E+00
     9 OT DIIS     0.10E+00   54.7     0.00002814       -17.2326544066 -1.51E-07
 SKALA_GPW| Atom-composite cross support/maxima   1.926008776013E+00   8.080003745448E-02   1.021106850154E+00   4.333309840833E+00
 SKALA_GPW| Active atom-composite XC energy  -4.2360391191261009E+00
 SKALA_GPW| Active atom-composite electrons   7.9999984893589948E+00
 SKALA_GPW| Active atom-composite density range  -3.5918648448418106E-10   6.0998088843840270E-01
 SKALA_GPW| Active atom-composite tau range  -7.7269502903665381E-09   1.6468485785563718E+01
 SKALA_GPW| Active atom-composite tau integral   1.3586876197094918E+01
 SKALA_GPW| Active atom-composite max gradient   2.5360642278301695E+00
    10 OT DIIS     0.10E+00   57.3     0.00001065       -17.2326544216 -1.50E-08
 SKALA_GPW| Atom-composite cross support/maxima   1.926008776013E+00   8.079917890408E-02   1.021103122275E+00   4.333304738238E+00
 SKALA_GPW| Active atom-composite XC energy  -4.2360372225645664E+00
 SKALA_GPW| Active atom-composite electrons   7.9999984893637039E+00
 SKALA_GPW| Active atom-composite density range  -3.5918456650218622E-10   6.0998140218384500E-01
 SKALA_GPW| Active atom-composite tau range  -7.7271169080607853E-09   1.6468494328248152E+01
 SKALA_GPW| Active atom-composite tau integral   1.3586863809886394E+01
 SKALA_GPW| Active atom-composite max gradient   2.5360648977817837E+00
    11 OT DIIS     0.10E+00   59.1     0.00000407       -17.2326544243 -2.72E-09
 SKALA_GPW| Atom-composite cross support/maxima   1.926008776013E+00   8.079730595203E-02   1.021099910108E+00   4.333294760345E+00
 SKALA_GPW| Active atom-composite XC energy  -4.2360371183805752E+00
 SKALA_GPW| Active atom-composite electrons   7.9999984893712526E+00
 SKALA_GPW| Active atom-composite density range  -3.5918424839524325E-10   6.0998015072603806E-01
 SKALA_GPW| Active atom-composite tau range  -7.7272339648994746E-09   1.6468474395148458E+01
 SKALA_GPW| Active atom-composite tau integral   1.3586854663583129E+01
 SKALA_GPW| Active atom-composite max gradient   2.5360590912998915E+00
    12 OT DIIS     0.10E+00   52.8     0.00000113       -17.2326544239  4.06E-10
 SKALA_GPW| Atom-composite cross support/maxima   1.926008776013E+00   8.079687611225E-02   1.021099496303E+00   4.333290098253E+00
 SKALA_GPW| Active atom-composite XC energy  -4.2360374092625026E+00
 SKALA_GPW| Active atom-composite electrons   7.9999984893757370E+00
 SKALA_GPW| Active atom-composite density range  -3.5918554704776386E-10   6.0997980993540579E-01
 SKALA_GPW| Active atom-composite tau range  -7.7272670898081334E-09   1.6468454667597975E+01
 SKALA_GPW| Active atom-composite tau integral   1.3586850245415203E+01
 SKALA_GPW| Active atom-composite max gradient   2.5360568985965974E+00
    13 OT DIIS     0.10E+00   58.7     0.00000033       -17.2326544242 -2.94E-10
 SKALA_GPW| Atom-composite cross support/maxima   1.926008776013E+00   8.079691590238E-02   1.021099438808E+00   4.333289321250E+00
 SKALA_GPW| Active atom-composite XC energy  -4.2360375363133072E+00
 SKALA_GPW| Active atom-composite electrons   7.9999984893766269E+00
 SKALA_GPW| Active atom-composite density range  -3.5918621812517549E-10   6.0997983240730513E-01
 SKALA_GPW| Active atom-composite tau range  -7.7272776350331151E-09   1.6468452436370317E+01
 SKALA_GPW| Active atom-composite tau integral   1.3586849732366376E+01
 SKALA_GPW| Active atom-composite max gradient   2.5360569247292064E+00
    14 OT DIIS     0.10E+00   50.9     0.00000014       -17.2326544238  3.87E-10
 SKALA_GPW| Atom-composite cross support/maxima   1.926008776013E+00   8.079695131343E-02   1.021099363565E+00   4.333289195070E+00
 SKALA_GPW| Active atom-composite XC energy  -4.2360375308973595E+00
 SKALA_GPW| Active atom-composite electrons   7.9999984893767735E+00
 SKALA_GPW| Active atom-composite density range  -3.5918670164600583E-10   6.0997986760073808E-01
 SKALA_GPW| Active atom-composite tau range  -7.7272813365904889E-09   1.6468452659316952E+01
 SKALA_GPW| Active atom-composite tau integral   1.3586849504142018E+01
 SKALA_GPW| Active atom-composite max gradient   2.5360571252363240E+00
    15 OT DIIS     0.10E+00   58.5     0.00000003       -17.2326544246 -7.84E-10

  *** SCF run converged in    15 steps ***


  Electronic density on regular grids:         -7.9999999999        0.0000000001
  Core density on regular grids:                8.0000000000       -0.0000000000
  Total charge density on r-space grids:        0.0000000001
  Total charge density g-space grids:           0.0000000001

  Overlap energy of the core charge distribution:               0.00000004125442
  Self energy of the core charge distribution:                -44.35427365113802
  Core Hamiltonian energy:                                     12.84707812182079
  Hartree energy:                                              18.51115268596073
  Exchange-correlation energy:                                  0.00000000000000
  Dispersion energy:                                           -0.00057409158537

  GAPW_XC| Exc from hard and soft atomic rho1:                 -4.23603753089736

  Total energy:                                               -17.23265442458481

  outer SCF iter =    1 RMS gradient =   0.35E-07 energy =        -17.2326544246
  outer SCF loop converged in   1 iterations or   15 steps


 !-----------------------------------------------------------------------------!
                     Mulliken Population Analysis

 #  Atom  Element  Kind  Atomic population                           Net charge
       1     O        1          6.328440                             -0.328440
       2     H        2          0.835780                              0.164220
       3     H        2          0.835780                              0.164220
 # Total charge                              8.000000                  0.000000

 !-----------------------------------------------------------------------------!

 !-----------------------------------------------------------------------------!
                           Hirshfeld Charges

  #Atom  Element  Kind  Ref Charge     Population                    Net charge
      1       O      1       6.000          7.127                        -1.127
      2       H      2       1.000          0.435                         0.565
      3       H      2       1.000          0.435                         0.565

  Total Charge                                                            0.002
 !-----------------------------------------------------------------------------!

 ENERGY| Total FORCE_EVAL ( QS ) energy [hartree]            -17.232654424584808

 -------------------------------------------------------------------------------
 -                                                                             -
 -                                DBCSR STATISTICS                             -
 -                                                                             -
 -------------------------------------------------------------------------------
 COUNTER                                    TOTAL       BLAS       SMM       ACC
 flops     4 x     4 x     4                16512     100.0%      0.0%      0.0%     
 flops    29 x    14 x     4                51968     100.0%      0.0%      0.0%     
 flops    14 x    29 x     4                51968     100.0%      0.0%      0.0%     
 flops    14 x     4 x     4                68096     100.0%      0.0%      0.0%     
 flops    29 x     4 x     4                70528     100.0%      0.0%      0.0%     
 flops    14 x    14 x     4                75264     100.0%      0.0%      0.0%     
 flops    29 x    29 x     4               107648     100.0%      0.0%      0.0%     
 flops     4 x     4 x    57               111264     100.0%      0.0%      0.0%     
 flops    14 x     4 x    14               244608     100.0%      0.0%      0.0%     
 flops    29 x     4 x    14               253344     100.0%      0.0%      0.0%     
 flops    14 x     4 x    29               253344     100.0%      0.0%      0.0%     
 flops    29 x     4 x    29               262392     100.0%      0.0%      0.0%     
 flops    14 x     4 x    57               408576     100.0%      0.0%      0.0%     
 flops    29 x     4 x    57               423168     100.0%      0.0%      0.0%     
 flops inhomo. stacks                           0       0.0%      0.0%      0.0%
 flops total                         2.398680E+06     100.0%      0.0%      0.0%
 flops max/rank                      2.398680E+06     100.0%      0.0%      0.0%
 matmuls inhomo. stacks                         0       0.0%      0.0%      0.0%
 matmuls total                                961     100.0%      0.0%      0.0%
 number of processed stacks                   828     100.0%      0.0%      0.0%
 average stack size                                     1.2       0.0       0.0
 marketing flops                     2.529528E+06
 -------------------------------------------------------------------------------
 # multiplications                            354
 max memory usage/rank              34.920804E+09
 # max total images/rank                        1
 # max 3D layers                                1
 # MPI messages exchanged                       0
 -------------------------------------------------------------------------------
 -                                                                             -
 -                      DBCSR MESSAGE PASSING PERFORMANCE                      -
 -                                                                             -
 -------------------------------------------------------------------------------
 ROUTINE             CALLS      AVE VOLUME [Bytes]
 MP_Bcast               15                     12.
 MP_Allreduce         1738                      8.
 MP_Alltoall          1388                    579.
 MP_ISend             1412                     53.
 MP_IRecv             1412                     53.
 -------------------------------------------------------------------------------

 -------------------------------------------------------------------------------
 -                                                                             -
 -                                GRID STATISTICS                              -
 -                                                                             -
 -------------------------------------------------------------------------------
 LP    KERNEL             BACKEND                              COUNT     PERCENT
 4     collocate ortho    CPU                                   1952      18.44%
 4     integrate ortho    CPU                                   1830      17.29%
 6     collocate ortho    CPU                                   1424      13.46%
 6     integrate ortho    CPU                                   1335      12.61%
 5     collocate ortho    CPU                                   1312      12.40%
 5     integrate ortho    CPU                                   1230      11.62%
 7     collocate ortho    CPU                                    512       4.84%
 7     integrate ortho    CPU                                    480       4.54%
 8     collocate ortho    CPU                                    256       2.42%
 8     integrate ortho    CPU                                    240       2.27%
 0     collocate general  CPU                                      9       0.09%
 0     integrate general  CPU                                      3       0.03%
 -------------------------------------------------------------------------------

 -------------------------------------------------------------------------------
 -                                                                             -
 -                          OFFLOAD MEMPOOL STATISTICS                         -
 -                                                                             -
 -------------------------------------------------------------------------------
 Memory consumption                Number of allocations  Used [MiB]  Size [MiB]
 Host                                                  9         345    89922327
 -------------------------------------------------------------------------------

 MEMORY| Estimated peak process memory [MiB]                               20777

 -------------------------------------------------------------------------------
 ----                             MULTIGRID INFO                            ----
 -------------------------------------------------------------------------------
 count for grid        1:          18664          cutoff [a.u.]          200.00
 count for grid        2:           5760          cutoff [a.u.]           66.67
 count for grid        3:           4216          cutoff [a.u.]           22.22
 count for grid        4:            105          cutoff [a.u.]            7.41
 count for grid        5:              0          cutoff [a.u.]            2.47
 total gridlevel count  :          28745

 -------------------------------------------------------------------------------
 -                                                                             -
 -                         MESSAGE PASSING PERFORMANCE                         -
 -                                                                             -
 -------------------------------------------------------------------------------

 ROUTINE             CALLS      AVE VOLUME [Bytes]
 MP_Group               35
 MP_Bcast              264                  35272.
 MP_Allreduce         1595               27844686.
 MP_Sync                24
 MP_comm_split          19
 -------------------------------------------------------------------------------


 -------------------------------------------------------------------------------
 -                                                                             -
 -                           R E F E R E N C E S                               -
 -                                                                             -
 -------------------------------------------------------------------------------
 
 CP2K version 2026.2 (Development Version), the CP2K developers group (2026).
 CP2K is freely available from https://www.cp2k.org/ .
 
 M. Iannuzzi, J. Wilhelm, F. Stein, A. Bussy, H. Elgabarty, D. Golze, A. Hehn, 
 M. Graml, S. Marek, B. Sertcan Gökmen, C. Schran, H. Forbert, R. Z. 
 Khaliullin, A. Kozhevnikov, M. Taillefumier, R. Meli, V. V. Rybkin, M. Brehm, 
 R. Schade, O. Schütt, J. V. Pototschnig, H. Mirhosseini, A. Knüpfer, D. Marx, 
 M. Krack, J. Hutter, T. D. Kühne.
 J. Phys. Chem. B 130, 1237-1310 (2026).
 The CP2K Program Package Made Simple.
 https://doi.org/10.1021/acs.jpcb.5c05851

 L. Wittmann, I. Gordiy, M. Friede, B. Helmich-Paris, S. Grimme, A. Hansen, M. 
 Bursch.
 Phys. Chem. Chem. Phys. 26, 21379-21394 (2024).
 Extension of the D3 and D4 London dispersion corrections to the full actinides 
 series.
 https://doi.org/10.1039/d4cp01514b

 T. D. Kühne, M. Iannuzzi, M. Del Ben, V. V. Rybkin, P. Seewald, F. Stein, T. 
 Laino, R. Z. Khaliullin, O. Schütt, F. Schiffmann, D. Golze, J. Wilhelm, S. 
 Chulkov, M. H. Bani-Hashemian, V. Weber, U. Borstnik, M. Taillefumier, A. S. 
 Jakobovits, A. Lazzaro, H. Pabst, T. Müller, R. Schade, M. Guidon, S. 
 Andermatt, N. Holmberg, G. K. Schenter, A. Hehn, A. Bussy, F. Belleflamme, G. 
 Tabacchi, A. Glöß, M. Lass, I. Bethune, C. J. Mundy, C. Plessl, M. Watkins, 
 J. VandeVondele, M. Krack, J. Hutter.
 J. Chem. Phys. 152, 194103 (2020).
 CP2K: An electronic structure and molecular dynamics software package - 
 Quickstep: Efficient and accurate electronic structure calculations.
 https://doi.org/10.1063/5.0007045

 L. Goerigk, A. Hansen, C. Bauer, S. Ehrlich, A. Najibi, S. Grimme.
 Phys. Chem. Chem. Phys. 19, 32184-32215 (2017).
 A look at the density functional theory zoo with the advanced GMTKN55 database 
 for general main group thermochemistry, kinetics and noncovalent interactions.
 https://doi.org/10.1039/C7CP04913G

 O. Schuett, P. Messmer, J. Hutter, J. VandeVondele.
 Electronic Structure Calculations on Graphics Processing Units, 173-190 (2016).
 GPU-Accelerated Sparse Matrix-Matrix Multiplication for Linear Scaling Density 
 Functional Theory.
 https://doi.org/10.1002/9781118670712.ch8

 U. Borstnik, J. VandeVondele, V. Weber, J. Hutter.
 Parallel Comput. 40, 47-58 (2014).
 Sparse matrix multiplication: The distributed block-compressed sparse row 
 library.
 https://doi.org/10.1016/j.parco.2014.03.012

 S. Grimme, S. Ehrlich, L. Goerigk.
 J. Comput. Chem. 32, 1456 (2011).
 Effect of the damping function in dispersion corrected density functional 
 theory.
 https://doi.org/10.1002/jcc.21759

 S. Grimme, J. Antony, S. Ehrlich, H. Krieg.
 J. Chem. Phys. 132, 154104 (2010).
 A consistent and accurate ab initio parametrization of density functional 
 dispersion correction (DFT-D) for the 94 elements H-Pu.
 https://doi.org/10.1063/1.3382344

 J. VandeVondele, J. Hutter.
 J. Chem. Phys. 127, 114105 (2007).
 Gaussian basis sets for accurate calculations on molecular systems in gas and 
 condensed phases.
 https://doi.org/10.1063/1.2770708

 M. Krack.
 Theor. Chem. Acc. 114, 145-152 (2005).
 Pseudopotentials for H to Kr optimized for gradient-corrected 
 exchange-correlation functionals.
 https://doi.org/10.1007/s00214-005-0655-y

 M. Frigo, S. G. Johnson.
 Proc. IEEE 93, 216-231 (2005).
 The design and implementation of FFTW3.
 https://doi.org/10.1109/JPROC.2004.840301

 J. VandeVondele, J. Hutter.
 J. Chem. Phys. 118, 4365-4369 (2003).
 An efficient orbital transformation method for electronic structure 
 calculations.
 https://doi.org/10.1063/1.1543154

 C. Hartwigsen, S. Goedecker, J. Hutter.
 Phys. Rev. B 58, 3641-3662 (1998).
 Relativistic separable dual-space Gaussian pseudopotentials from H to Rn.
 https://doi.org/10.1103/PhysRevB.58.3641

 S. Goedecker, M. Teter, J. Hutter.
 Phys. Rev. B 54, 1703-1710 (1996).
 Separable dual-space Gaussian pseudopotentials.
 https://doi.org/10.1103/PhysRevB.54.1703


 -------------------------------------------------------------------------------
 -                                                                             -
 -                                T I M I N G                                  -
 -                                                                             -
 -------------------------------------------------------------------------------
 SUBROUTINE                       CALLS  ASD         SELF TIME        TOTAL TIME
                                MAXIMUM       AVERAGE  MAXIMUM  AVERAGE  MAXIMUM
 CP2K                                 1  1.0    0.110    0.110  852.595  852.595
 qs_energies                          1  2.0    0.000    0.000  843.720  843.720
 scf_env_do_scf                       1  3.0    0.000    0.000  833.754  833.754
 scf_env_do_scf_inner_loop           15  4.0    0.003    0.003  784.016  784.016
 qs_ks_update_qs_env                 16  5.0    0.000    0.000  699.648  699.648
 rebuild_ks_matrix                   15  6.0    0.000    0.000  699.646  699.646
 qs_ks_build_kohn_sham_matrix        15  7.0    0.007    0.007  699.646  699.646
 calculate_vxc_atom                  15  8.0  287.414  287.414  600.559  600.559
 fft_wrap_pw1pw2                    634  9.5    0.025    0.025  284.715  284.715
 fft_wrap_pw1pw2_200                262 10.5   28.347   28.347  263.982  263.982
 fft3d_s                            635 11.4  154.457  154.457  154.502  154.502
 qs_rho_update_rho_low               16  5.0    0.001    0.001  140.462  140.462
 calculate_rho_elec                  48  6.0    4.836    4.836  140.400  140.400
 density_rs2pw                       48  7.0    0.007    0.007  116.356  116.356
 xc_pw_derive                        90  9.5    0.002    0.002   95.714   95.714
 sum_up_and_integrate                15  8.0    0.001    0.001   72.091   72.091
 integrate_v_rspace                  45  9.0    0.005    0.005   71.323   71.323
 potential_pw2rs                     45 10.0    0.883    0.883   71.023   71.023
 skala_atom_torch_backward           15  9.0   69.352   69.352   69.352   69.352
 xc_pw_divergence                    15  9.0    0.001    0.001   68.916   68.916
 pw_gather_s                        331 10.8   51.677   51.677   51.677   51.677
 init_scf_loop                        1  4.0    0.000    0.000   49.738   49.738
 skala_atom_torch_forward            15  9.0    0.006    0.006   47.961   47.961
 torch_model_forward_mol_tensor      15 10.0   47.955   47.955   47.955   47.955
 calc_tau_atom                      135  9.0   39.640   39.640   39.640   39.640
 pw_scatter_s                       303 12.2   37.237   37.237   37.237   37.237
 dgaVtaudgb                          90  9.0   21.413   21.413   21.413   21.413
 gaVxcgb_GC                          90  9.0   19.709   19.709   19.709   19.709
 grid_collocate_task_list            48  7.0   19.209   19.209   19.209   19.209
 fft_wrap_pw1pw2_70                  93 10.5    1.899    1.899   17.895   17.895
 -------------------------------------------------------------------------------

 The number of warnings for this run is : 0
 
 -------------------------------------------------------------------------------
  **** **** ******  **  PROGRAM ENDED AT                 2026-08-25 04:36:44.858
 ***** ** ***  *** **   PROGRAM RAN ON                                     terok
 **    ****   ******    PROGRAM RAN BY                                  kuehne88
 ***** **    ** ** **   PROGRAM PROCESS ID                               2870099
  **** **  *******  **  PROGRAM STOPPED IN /home/kuehne88/work/native-skala-tero
                                           k/diet-production-p25/gapwxc-gth-one-
                                           center/d3bdfae074e1abf643535351c79e74
                                           139e0a4cd4
