 DBCSR| CPU Multiplication driver                                           BLAS (U)
 DBCSR| Multrec recursion limit                                              512 (U)
 DBCSR| Multiplication stack size                                           1000 (D)
 DBCSR| Maximum elements for images                                    UNLIMITED (U)
 DBCSR| Multiplicative factor virtual images                                   1 (U)
 DBCSR| Use multiplication densification                                       T (D)
 DBCSR| Multiplication size stacks                                             3 (U)
 DBCSR| Use memory pool for CPU allocation                                     F (U)
 DBCSR| Number of 3D layers                                               SINGLE (U)
 DBCSR| Use MPI memory allocation                                              F (U)
 DBCSR| Use RMA algorithm                                                      F (U)
 DBCSR| Use Communication thread                                               T (U)
 DBCSR| Communication thread load                                             60 (D)
 DBCSR| MPI: My process id                                                     0
 DBCSR| MPI: Number of processes                                               1
 DBCSR| OMP: Current number of threads                                         8
 DBCSR| OMP: Max number of threads                                             8
 DBCSR| Split modifier for TAS multiplication algorithm                  1.0E+00 (U)


  **** **** ******  **  PROGRAM STARTED AT               2026-09-09 11:57:56.060
 ***** ** ***  *** **   PROGRAM STARTED ON                                 terok
 **    ****   ******    PROGRAM STARTED BY                              kuehne88
 ***** **    ** ** **   PROGRAM PROCESS ID                               4071028
  **** **  *******  **  PROGRAM STARTED IN /home/kuehne88/work/native-skala-tero
                                           k/pccp-validation-20260909/derivative
                                           -checks/gpw-gth/force-minus-0.001

 CP2K| version string:                 CP2K version 2026.2 (Development Version)
 CP2K| source code revision number:                                   37aedacbb3
 CP2K| cp2kflags: omp fftw3 gauxc gauxc_mpi gauxc_onedft gauxc_host parallel sca
 CP2K|            lapack mpi_f08 openblas libtorch libtorch_cuda
 CP2K| is freely available from                            https://www.cp2k.org/
 CP2K| Program compiled at                                   2026-09-08 17:22:32
 CP2K| Program compiled on                                                 terok
 CP2K| Program compiled for                                               x86_64
 CP2K| Data directory path    /home/kuehne88/work/native-skala-terok/x23-mini/ru
 CP2K| Input file name                                                 input.inp

 GLOBAL| Force Environment number                                              1
 GLOBAL| Basis set file name                             BASIS_MOLOPT_UZH_2026.2
 GLOBAL| Potential file name                                POTENTIAL_UZH_2026.2
 GLOBAL| MM Potential file name                                     MM_POTENTIAL
 GLOBAL| Coordinate file name                                      __STD_INPUT__
 GLOBAL| Method name                                                        CP2K
 GLOBAL| Project name                                                 fd_gpw-gth
 GLOBAL| Run type                                                   ENERGY_FORCE
 GLOBAL| FFT library                                                       FFTW3
 GLOBAL| Diagonalization library                                       ScaLAPACK
 GLOBAL| Cholesky decomposition library                                ScaLAPACK
 GLOBAL| DGEMM library                                                      BLAS
 GLOBAL| Direct generalized diagonalization requested                          F
 GLOBAL| Orthonormality check for eigenvectors                          DISABLED
 GLOBAL| Matrix multiplication library                                 ScaLAPACK
 GLOBAL| All-to-all communication in single precision                          F
 GLOBAL| Grid backend                                                       AUTO
 GLOBAL| Global print level                                               MEDIUM
 GLOBAL| MPI I/O enabled                                                       T
 GLOBAL| Total number of message passing processes                             1
 GLOBAL| Number of distributed systems (nodes)                                 1
 GLOBAL| Number of threads for this process                                    8
 GLOBAL| This output is from process                                           0
 GLOBAL| OpenMP stack size per thread (OMP_STACKSIZE)                       256M
 GLOBAL| CPU model name                                       AMD EPYC Processor

 MEMORY| system memory details [Kb]
 MEMORY|                        rank 0           min           max       average
 MEMORY| MemTotal            528104844     528104844     528104844     528104844
 MEMORY| MemFree             235893360     235893360     235893360     235893360
 MEMORY| Buffers                   664           664           664           664
 MEMORY| Cached              243273092     243273092     243273092     243273092
 MEMORY| Slab                 36088452      36088452      36088452      36088452
 MEMORY| SReclaimable         29872172      29872172      29872172      29872172
 MEMORY| MemLikelyFree       509039288     509039288     509039288     509039288


 *** Fundamental physical constants (SI units) ***

 *** Literature: B. J. Mohr and B. N. Taylor,
 ***             CODATA recommended values of the fundamental physical
 ***             constants: 2006, Web Version 5.1
 ***             http://physics.nist.gov/constants

 Speed of light in vacuum [m/s]                             2.99792458000000E+08
 Magnetic constant or permeability of vacuum [N/A**2]       1.25663706143592E-06
 Electric constant or permittivity of vacuum [F/m]          8.85418781762039E-12
 Planck constant (h) [J*s]                                  6.62606896000000E-34
 Planck constant (h-bar) [J*s]                              1.05457162825177E-34
 Elementary charge [C]                                      1.60217648700000E-19
 Electron mass [kg]                                         9.10938215000000E-31
 Electron g factor [ ]                                     -2.00231930436220E+00
 Proton mass [kg]                                           1.67262163700000E-27
 Fine-structure constant                                    7.29735253760000E-03
 Rydberg constant [1/m]                                     1.09737315685270E+07
 Avogadro constant [1/mol]                                  6.02214179000000E+23
 Boltzmann constant [J/K]                                   1.38065040000000E-23
 Atomic mass unit [kg]                                      1.66053878200000E-27
 Bohr radius [m]                                            5.29177208590000E-11

 *** Conversion factors ***

 [u] -> [a.u.]                                              1.82288848426455E+03
 [Angstrom] -> [Bohr] = [a.u.]                              1.88972613288564E+00
 [a.u.] = [Bohr] -> [Angstrom]                              5.29177208590000E-01
 [a.u.] -> [s]                                              2.41888432650478E-17
 [a.u.] -> [fs]                                             2.41888432650478E-02
 [a.u.] -> [J]                                              4.35974393937059E-18
 [a.u.] -> [N]                                              8.23872205491840E-08
 [a.u.] -> [K]                                              3.15774647902944E+05
 [a.u.] -> [kJ/mol]                                         2.62549961709828E+03
 [a.u.] -> [kcal/mol]                                       6.27509468713739E+02
 [a.u.] -> [Pa]                                             2.94210107994716E+13
 [a.u.] -> [bar]                                            2.94210107994716E+08
 [a.u.] -> [atm]                                            2.90362800883016E+08
 [a.u.] -> [eV]                                             2.72113838565563E+01
 [a.u.] -> [Hz]                                             6.57968392072181E+15
 [a.u.] -> [1/cm] (wave numbers)                            2.19474631370540E+05
 [a.u./Bohr**2] -> [1/cm]                                   5.14048714338585E+03
 

 CELL| Volume [angstrom^3]:                                           512.000000
 CELL| Vector a [angstrom]:       8.000     0.000     0.000   |a| =     8.000000
 CELL| Vector b [angstrom]:       0.000     8.000     0.000   |b| =     8.000000
 CELL| Vector c [angstrom]:       0.000     0.000     8.000   |c| =     8.000000
 CELL| Angle (b,c), alpha [degree]:                                    90.000000
 CELL| Angle (a,c), beta  [degree]:                                    90.000000
 CELL| Angle (a,b), gamma [degree]:                                    90.000000
 CELL| Numerically orthorhombic:                                             YES
 CELL| Periodicity                                                           XYZ

 CELL_REF| Volume [angstrom^3]:                                       512.000000
 CELL_REF| Vector a [angstrom     8.000     0.000     0.000   |a| =     8.000000
 CELL_REF| Vector b [angstrom     0.000     8.000     0.000   |b| =     8.000000
 CELL_REF| Vector c [angstrom     0.000     0.000     8.000   |c| =     8.000000
 CELL_REF| Angle (b,c), alpha [degree]:                                90.000000
 CELL_REF| Angle (a,c), beta  [degree]:                                90.000000
 CELL_REF| Angle (a,b), gamma [degree]:                                90.000000
 CELL_REF| Numerically orthorhombic:                                         YES
 CELL_REF| Periodicity                                                       XYZ

 GENERATE|  Preliminary Number of Bonds generated:                             0
 GENERATE|  Achieved consistency in connectivity generation.

 *******************************************************************************
 *******************************************************************************
 **                                                                           **
 **     #####                         ##              ##                      **
 **    ##   ##            ##          ##              ##                      **
 **   ##     ##                       ##            ######                    **
 **   ##     ##  ##   ##  ##   #####  ##  ##   ####   ##    #####    #####    **
 **   ##     ##  ##   ##  ##  ##      ## ##   ##      ##   ##   ##  ##   ##   **
 **   ##  ## ##  ##   ##  ##  ##      ####     ###    ##   ######   ######    **
 **    ##  ###   ##   ##  ##  ##      ## ##      ##   ##   ##       ##        **
 **     #######   #####   ##   #####  ##  ##  ####    ##    #####   ##        **
 **           ##                                                    ##        **
 **                                                                           **
 **                                                ... make the atoms dance   **
 **                                                                           **
 **            Copyright (C) by CP2K developers group (2000-2026)             **
 **                      J. Chem. Phys. 152, 194103 (2020)                    **
 **                                                                           **
 *******************************************************************************

 DFT| Spin restricted Kohn-Sham (RKS) calculation                            RKS
 DFT| Multiplicity                                                             1
 DFT| Number of spin states                                                    1
 DFT| Charge                                                                   0
 DFT| Self-interaction correction (SIC)                                       NO
 DFT| Cutoffs: density                                              1.000000E-10
 DFT|          gradient                                             1.000000E-10
 DFT|          tau                                                  1.000000E-10
 DFT|          cutoff_smoothing_range                               0.000000E+00
 DFT| XC density smoothing                                                  NONE
 DFT| XC derivatives                                                          PW

 FUNCTIONAL| GAUXC:
 FUNCTIONAL| Functional computed by GauXC Skala model SKALA                     


 QS| Method:                                                                 GPW
 QS| Density plane wave grid type                        NON-SPHERICAL FULLSPACE
 QS| Number of grid levels:                                                    5
 QS| Density cutoff [a.u.]:                                                200.0
 QS| Multi grid cutoff [a.u.]: 1) grid level                               200.0
 QS|                           2) grid level                                66.7
 QS|                           3) grid level                                22.2
 QS|                           4) grid level                                 7.4
 QS|                           5) grid level                                 2.5
 QS| Grid level progression factor:                                          3.0
 QS| Relative density cutoff [a.u.]:                                        30.0
 QS| Interaction thresholds: eps_pgf_orb:                                1.0E-06
 QS|                         eps_filter_matrix:                          0.0E+00
 QS|                         eps_core_charge:                            1.0E-14
 QS|                         eps_rho_gspace:                             1.0E-12
 QS|                         eps_rho_rspace:                             1.0E-12
 QS|                         eps_gvg_rspace:                             1.0E-06
 QS|                         eps_ppl:                                    1.0E-02
 QS|                         eps_ppnl:                                   1.0E-08


 ATOMIC KIND INFORMATION

  1. Atomic kind: O                                     Number of atoms:       1

     Orbital Basis Set                                   TZV2P-MOLOPT-PBE-GTH-q6

       Number of orbital shell sets:                                           1
       Number of orbital shells:                                               9
       Number of primitive Cartesian functions:                                5
       Number of Cartesian basis functions:                                   34
       Number of spherical basis functions:                                   29
       Norm type:                                                              2

       Normalised Cartesian orbitals:

                        Set   Shell   Orbital            Exponent    Coefficient

                          1       1    2s               10.277042      -0.485504
                                                         3.564053      -0.220015
                                                         1.313636       0.373321
                                                         0.488903       0.264765
                                                         0.155332       0.020043

                          1       2    3s               10.277042       0.224066
                                                         3.564053       0.080746
                                                         1.313636      -0.123482
                                                         0.488903      -0.035459
                                                         0.155332       0.195554

                          1       3    4s               10.277042      -3.846583
                                                         3.564053      -0.604002
                                                         1.313636       0.878850
                                                         0.488903      -0.388670
                                                         0.155332       0.020403

                          1       4    3px              10.277042      -1.528218
                                                         3.564053      -1.277699
                                                         1.313636      -0.654740
                                                         0.488903      -0.229926
                                                         0.155332      -0.043447
                          1       4    3py              10.277042      -1.528218
                                                         3.564053      -1.277699
                                                         1.313636      -0.654740
                                                         0.488903      -0.229926
                                                         0.155332      -0.043447
                          1       4    3pz              10.277042      -1.528218
                                                         3.564053      -1.277699
                                                         1.313636      -0.654740
                                                         0.488903      -0.229926
                                                         0.155332      -0.043447

                          1       5    4px              10.277042       2.036465
                                                         3.564053       1.678955
                                                         1.313636       0.821025
                                                         0.488903       0.173956
                                                         0.155332      -0.133459
                          1       5    4py              10.277042       2.036465
                                                         3.564053       1.678955
                                                         1.313636       0.821025
                                                         0.488903       0.173956
                                                         0.155332      -0.133459
                          1       5    4pz              10.277042       2.036465
                                                         3.564053       1.678955
                                                         1.313636       0.821025
                                                         0.488903       0.173956
                                                         0.155332      -0.133459

                          1       6    5px              10.277042       4.160760
                                                         3.564053       3.839534
                                                         1.313636       1.365137
                                                         0.488903      -0.557232
                                                         0.155332       0.019989
                          1       6    5py              10.277042       4.160760
                                                         3.564053       3.839534
                                                         1.313636       1.365137
                                                         0.488903      -0.557232
                                                         0.155332       0.019989
                          1       6    5pz              10.277042       4.160760
                                                         3.564053       3.839534
                                                         1.313636       1.365137
                                                         0.488903      -0.557232
                                                         0.155332       0.019989

                          1       7    4dx2             10.277042      -5.653729
                                                         3.564053       2.384130
                                                         1.313636       0.763128
                                                         0.488903       0.368121
                                                         0.155332      -0.007951
                          1       7    4dxy             10.277042      -9.792547
                                                         3.564053       4.129435
                                                         1.313636       1.321776
                                                         0.488903       0.637605
                                                         0.155332      -0.013772
                          1       7    4dxz             10.277042      -9.792547
                                                         3.564053       4.129435
                                                         1.313636       1.321776
                                                         0.488903       0.637605
                                                         0.155332      -0.013772
                          1       7    4dy2             10.277042      -5.653729
                                                         3.564053       2.384130
                                                         1.313636       0.763128
                                                         0.488903       0.368121
                                                         0.155332      -0.007951
                          1       7    4dyz             10.277042      -9.792547
                                                         3.564053       4.129435
                                                         1.313636       1.321776
                                                         0.488903       0.637605
                                                         0.155332      -0.013772
                          1       7    4dz2             10.277042      -5.653729
                                                         3.564053       2.384130
                                                         1.313636       0.763128
                                                         0.488903       0.368121
                                                         0.155332      -0.007951

                          1       8    5dx2             10.277042      -1.240143
                                                         3.564053       0.370203
                                                         1.313636       0.144297
                                                         0.488903       0.056503
                                                         0.155332       0.057456
                          1       8    5dxy             10.277042      -2.147990
                                                         3.564053       0.641211
                                                         1.313636       0.249929
                                                         0.488903       0.097865
                                                         0.155332       0.099516
                          1       8    5dxz             10.277042      -2.147990
                                                         3.564053       0.641211
                                                         1.313636       0.249929
                                                         0.488903       0.097865
                                                         0.155332       0.099516
                          1       8    5dy2             10.277042      -1.240143
                                                         3.564053       0.370203
                                                         1.313636       0.144297
                                                         0.488903       0.056503
                                                         0.155332       0.057456
                          1       8    5dyz             10.277042      -2.147990
                                                         3.564053       0.641211
                                                         1.313636       0.249929
                                                         0.488903       0.097865
                                                         0.155332       0.099516
                          1       8    5dz2             10.277042      -1.240143
                                                         3.564053       0.370203
                                                         1.313636       0.144297
                                                         0.488903       0.056503
                                                         0.155332       0.057456

                          1       9    5fx3             10.277042      -6.690350
                                                         3.564053       0.340627
                                                         1.313636       0.043047
                                                         0.488903       0.291962
                                                         0.155332      -0.000154
                          1       9    5fx2y            10.277042     -14.960077
                                                         3.564053       0.761664
                                                         1.313636       0.096256
                                                         0.488903       0.652848
                                                         0.155332      -0.000345
                          1       9    5fx2z            10.277042     -14.960077
                                                         3.564053       0.761664
                                                         1.313636       0.096256
                                                         0.488903       0.652848
                                                         0.155332      -0.000345
                          1       9    5fxy2            10.277042     -14.960077
                                                         3.564053       0.761664
                                                         1.313636       0.096256
                                                         0.488903       0.652848
                                                         0.155332      -0.000345
                          1       9    5fxyz            10.277042     -25.911613
                                                         3.564053       1.319241
                                                         1.313636       0.166721
                                                         0.488903       1.130766
                                                         0.155332      -0.000597
                          1       9    5fxz2            10.277042     -14.960077
                                                         3.564053       0.761664
                                                         1.313636       0.096256
                                                         0.488903       0.652848
                                                         0.155332      -0.000345
                          1       9    5fy3             10.277042      -6.690350
                                                         3.564053       0.340627
                                                         1.313636       0.043047
                                                         0.488903       0.291962
                                                         0.155332      -0.000154
                          1       9    5fy2z            10.277042     -14.960077
                                                         3.564053       0.761664
                                                         1.313636       0.096256
                                                         0.488903       0.652848
                                                         0.155332      -0.000345
                          1       9    5fyz2            10.277042     -14.960077
                                                         3.564053       0.761664
                                                         1.313636       0.096256
                                                         0.488903       0.652848
                                                         0.155332      -0.000345
                          1       9    5fz3             10.277042      -6.690350
                                                         3.564053       0.340627
                                                         1.313636       0.043047
                                                         0.488903       0.291962
                                                         0.155332      -0.000154

       Atomic covalent radius [Angstrom]:                                  0.730

       Atomic van der Waals radius [Angstrom]:                             1.520

     GTH Potential information for                                    GTH-PBE-q6

       Description:                       Goedecker-Teter-Hutter pseudopotential
                                           Goedecker et al., PRB 54, 1703 (1996)
                                          Hartwigsen et al., PRB 58, 3641 (1998)
                                                      Krack, TCA 114, 145 (2005)

       Gaussian exponent of the core charge distribution:               8.366479
       Electronic configuration (s p d ...):                       2   4   0   0

       Parameters of the local part of the GTH pseudopotential:

                          rloc        C1          C2          C3          C4
                        0.244463  -16.675482    2.489086

       Parameters of the non-local part of the GTH pseudopotential:

                   l      r(l)      h(i,j,l)

                   0    0.220971   18.334469

  2. Atomic kind: H                                     Number of atoms:       2

     Orbital Basis Set                                   TZV2P-MOLOPT-PBE-GTH-q1

       Number of orbital shell sets:                                           1
       Number of orbital shells:                                               6
       Number of primitive Cartesian functions:                                5
       Number of Cartesian basis functions:                                   15
       Number of spherical basis functions:                                   14
       Norm type:                                                              2

       Normalised Cartesian orbitals:

                        Set   Shell   Orbital            Exponent    Coefficient

                          1       1    2s                9.586642       0.069481
                                                         2.202360       0.112147
                                                         0.604094       0.130550
                                                         0.146498       0.088477
                                                         0.139526       0.035929

                          1       2    3s                9.586642      -0.087313
                                                         2.202360      -0.117928
                                                         0.604094      -0.099372
                                                         0.146498      -0.105375
                                                         0.139526       0.287433

                          1       3    4s                9.586642       0.882480
                                                         2.202360       0.096105
                                                         0.604094      -0.739894
                                                         0.146498       0.120904
                                                         0.139526       0.013904

                          1       4    3px               9.586642      -2.186125
                                                         2.202360       1.112625
                                                         0.604094       0.330981
                                                         0.146498       0.087385
                                                         0.139526      -0.016905
                          1       4    3py               9.586642      -2.186125
                                                         2.202360       1.112625
                                                         0.604094       0.330981
                                                         0.146498       0.087385
                                                         0.139526      -0.016905
                          1       4    3pz               9.586642      -2.186125
                                                         2.202360       1.112625
                                                         0.604094       0.330981
                                                         0.146498       0.087385
                                                         0.139526      -0.016905

                          1       5    4px               9.586642       1.866908
                                                         2.202360       0.174551
                                                         0.604094       0.060190
                                                         0.146498       0.014182
                                                         0.139526       0.100545
                          1       5    4py               9.586642       1.866908
                                                         2.202360       0.174551
                                                         0.604094       0.060190
                                                         0.146498       0.014182
                                                         0.139526       0.100545
                          1       5    4pz               9.586642       1.866908
                                                         2.202360       0.174551
                                                         0.604094       0.060190
                                                         0.146498       0.014182
                                                         0.139526       0.100545

                          1       6    4dx2              9.586642       0.111501
                                                         2.202360      -0.020603
                                                         0.604094      -0.012612
                                                         0.146498      -0.000171
                                                         0.139526       0.052995
                          1       6    4dxy              9.586642       0.193125
                                                         2.202360      -0.035686
                                                         0.604094      -0.021844
                                                         0.146498      -0.000296
                                                         0.139526       0.091790
                          1       6    4dxz              9.586642       0.193125
                                                         2.202360      -0.035686
                                                         0.604094      -0.021844
                                                         0.146498      -0.000296
                                                         0.139526       0.091790
                          1       6    4dy2              9.586642       0.111501
                                                         2.202360      -0.020603
                                                         0.604094      -0.012612
                                                         0.146498      -0.000171
                                                         0.139526       0.052995
                          1       6    4dyz              9.586642       0.193125
                                                         2.202360      -0.035686
                                                         0.604094      -0.021844
                                                         0.146498      -0.000296
                                                         0.139526       0.091790
                          1       6    4dz2              9.586642       0.111501
                                                         2.202360      -0.020603
                                                         0.604094      -0.012612
                                                         0.146498      -0.000171
                                                         0.139526       0.052995

       Atomic covalent radius [Angstrom]:                                  0.320

       Atomic van der Waals radius [Angstrom]:                             1.090

     GTH Potential information for                                    GTH-PBE-q1

       Description:                       Goedecker-Teter-Hutter pseudopotential
                                           Goedecker et al., PRB 54, 1703 (1996)
                                          Hartwigsen et al., PRB 58, 3641 (1998)
                                                      Krack, TCA 114, 145 (2005)

       Gaussian exponent of the core charge distribution:              12.426182
       Electronic configuration (s p d ...):                       1   0   0   0

       Parameters of the local part of the GTH pseudopotential:

                          rloc        C1          C2          C3          C4
                        0.200593   -4.178068    0.724409


 MOLECULE KIND INFORMATION


 All atoms are their own molecule, skipping detailed information


 TOTAL NUMBERS AND MAXIMUM NUMBERS

  Total number of            - Atomic kinds:                                   2
                             - Atoms:                                          3
                             - Shell sets:                                     3
                             - Shells:                                        21
                             - Primitive Cartesian functions:                 15
                             - Cartesian basis functions:                     64
                             - Spherical basis functions:                     57

  Maximum angular momentum of- Orbital basis functions:                        3
                             - Local part of the GTH pseudopotential:          2
                             - Non-local part of the GTH pseudopotential:      0


 MODULE QUICKSTEP: ATOMIC COORDINATES IN ANGSTROM

   Atom Kind Element         X             Y             Z       Z(eff)     Mass
      1    1 O     8      4.000000      4.000000      4.000000   6.0000  15.9994
      2    2 H     1      4.759471      4.000000      4.590000   1.0000   1.0079
      3    2 H     1      3.760000      4.740000      4.590000   1.0000   1.0079



 SCF PARAMETERS         Density guess:                                   RESTART
                        --------------------------------------------------------
                        max_scf:                                             200
                        max_scf_history:                                       0
                        max_diis:                                              4
                        --------------------------------------------------------
                        eps_scf:                                        1.00E-09
                        eps_scf_history:                                0.00E+00
                        eps_diis:                                       0.00E+00
                        eps_eigval:                                     1.00E-05
                        --------------------------------------------------------
                        level_shift [a.u.]:                             0.000000
                        --------------------------------------------------------
                        Outer loop SCF in use 
                        No variables optimised in outer loop
                        eps_scf                                         1.00E-09
                        max_scf                                                2
                        No outer loop optimization
                        step_size                                       5.00E-01

 PW_GRID| Information for grid number                                          1
 PW_GRID| Cutoff [a.u.]                                                    200.0
 PW_GRID| spherical cutoff:                                                   NO
 PW_GRID|   Bounds   1            -50      49                Points:         100
 PW_GRID|   Bounds   2            -50      49                Points:         100
 PW_GRID|   Bounds   3            -50      49                Points:         100
 PW_GRID| Volume element (a.u.^3)  0.3455E-02     Volume (a.u.^3)      3455.1473
 PW_GRID| Grid span                                                    FULLSPACE

 PW_GRID| Information for grid number                                          2
 PW_GRID| Number of the reference grid                                         1
 PW_GRID| Cutoff [a.u.]                                                     66.7
 PW_GRID| spherical cutoff:                                                   NO
 PW_GRID|   Bounds   1            -30      29                Points:          60
 PW_GRID|   Bounds   2            -30      29                Points:          60
 PW_GRID|   Bounds   3            -30      29                Points:          60
 PW_GRID| Volume element (a.u.^3)  0.1600E-01     Volume (a.u.^3)      3455.1473
 PW_GRID| Grid span                                                    FULLSPACE

 PW_GRID| Information for grid number                                          3
 PW_GRID| Number of the reference grid                                         1
 PW_GRID| Cutoff [a.u.]                                                     22.2
 PW_GRID| spherical cutoff:                                                   NO
 PW_GRID|   Bounds   1            -18      17                Points:          36
 PW_GRID|   Bounds   2            -18      17                Points:          36
 PW_GRID|   Bounds   3            -18      17                Points:          36
 PW_GRID| Volume element (a.u.^3)  0.7406E-01     Volume (a.u.^3)      3455.1473
 PW_GRID| Grid span                                                    FULLSPACE

 PW_GRID| Information for grid number                                          4
 PW_GRID| Number of the reference grid                                         1
 PW_GRID| Cutoff [a.u.]                                                      7.4
 PW_GRID| spherical cutoff:                                                   NO
 PW_GRID|   Bounds   1            -10       9                Points:          20
 PW_GRID|   Bounds   2            -10       9                Points:          20
 PW_GRID|   Bounds   3            -10       9                Points:          20
 PW_GRID| Volume element (a.u.^3)  0.4319         Volume (a.u.^3)      3455.1473
 PW_GRID| Grid span                                                    FULLSPACE

 PW_GRID| Information for grid number                                          5
 PW_GRID| Number of the reference grid                                         1
 PW_GRID| Cutoff [a.u.]                                                      2.5
 PW_GRID| spherical cutoff:                                                   NO
 PW_GRID|   Bounds   1             -6       5                Points:          12
 PW_GRID|   Bounds   2             -6       5                Points:          12
 PW_GRID|   Bounds   3             -6       5                Points:          12
 PW_GRID| Volume element (a.u.^3)   2.000         Volume (a.u.^3)      3455.1473
 PW_GRID| Grid span                                                    FULLSPACE

 POISSON| Solver                                                        PERIODIC
 POISSON| Periodicity                                                        XYZ

 RS_GRID| Information for grid number                                          1
 RS_GRID|   Bounds   1            -50      49                Points:         100
 RS_GRID|   Bounds   2            -50      49                Points:         100
 RS_GRID|   Bounds   3            -50      49                Points:         100

 RS_GRID| Information for grid number                                          2
 RS_GRID|   Bounds   1            -30      29                Points:          60
 RS_GRID|   Bounds   2            -30      29                Points:          60
 RS_GRID|   Bounds   3            -30      29                Points:          60

 RS_GRID| Information for grid number                                          3
 RS_GRID|   Bounds   1            -18      17                Points:          36
 RS_GRID|   Bounds   2            -18      17                Points:          36
 RS_GRID|   Bounds   3            -18      17                Points:          36

 RS_GRID| Information for grid number                                          4
 RS_GRID|   Bounds   1            -10       9                Points:          20
 RS_GRID|   Bounds   2            -10       9                Points:          20
 RS_GRID|   Bounds   3            -10       9                Points:          20

 RS_GRID| Information for grid number                                          5
 RS_GRID|   Bounds   1             -6       5                Points:          12
 RS_GRID|   Bounds   2             -6       5                Points:          12
 RS_GRID|   Bounds   3             -6       5                Points:          12

 Extrapolation method: initial_guess

 Number of electrons:                                                          8
 Number of occupied orbitals:                                                  4
 Number of molecular orbitals:                                                 4

 Number of orbital functions:                                                 57
 Number of independent orbital functions:                                     57


 SCF WAVEFUNCTION OPTIMIZATION

  ----------------------------------- OT ---------------------------------------
  Minimizer      : DIIS                : direct inversion
                                         in the iterative subspace
                                         using   7 DIIS vectors
                                         safer DIIS on
  Preconditioner : FULL_ALL            : diagonalization, state selective
  Precond_solver : DEFAULT
  stepsize       :    0.05000000                  energy_gap     :    0.08000000
  eps_taylor     :   0.10000E-15                  max_taylor     :             4
  ----------------------------------- OT ---------------------------------------

  Step     Update method      Time    Convergence         Total energy    Change
  ------------------------------------------------------------------------------
 SKALA_GPW| Atom-composite cross support/maxima   0.000000000000E+00   0.000000000000E+00   0.000000000000E+00   0.000000000000E+00
 SKALA_GPW| Active atom-composite XC energy  -4.2413817421099154E+00
 SKALA_GPW| Active atom-composite electrons   7.9999972404156132E+00
 SKALA_GPW| Active atom-composite density range  -4.7392340613230005E-18   6.1139851681571289E-01
 SKALA_GPW| Active atom-composite tau range  -2.0118814829046405E-17   1.6317196318048683E+01
 SKALA_GPW| Active atom-composite tau integral   1.3576968835403294E+01
 SKALA_GPW| Active atom-composite max gradient   2.3374284087502946E+00
     1 OT DIIS     0.50E-01   10.4     0.00005071       -17.2170646239 -1.72E+01
 SKALA_GPW| Atom-composite cross support/maxima   0.000000000000E+00   0.000000000000E+00   0.000000000000E+00   0.000000000000E+00
 SKALA_GPW| Active atom-composite XC energy  -4.2414205220390855E+00
 SKALA_GPW| Active atom-composite electrons   7.9999972402374437E+00
 SKALA_GPW| Active atom-composite density range  -2.4181409360091594E-18   6.1140513187215451E-01
 SKALA_GPW| Active atom-composite tau range  -5.0790660741045348E-18   1.6317648698660857E+01
 SKALA_GPW| Active atom-composite tau integral   1.3577222565700053E+01
 SKALA_GPW| Active atom-composite max gradient   2.3374765633285333E+00
     2 OT DIIS     0.50E-01    8.1     0.00003772       -17.2170646504 -2.65E-08
 SKALA_GPW| Atom-composite cross support/maxima   0.000000000000E+00   0.000000000000E+00   0.000000000000E+00   0.000000000000E+00
 SKALA_GPW| Active atom-composite XC energy  -4.2414791056621715E+00
 SKALA_GPW| Active atom-composite electrons   7.9999972399906643E+00
 SKALA_GPW| Active atom-composite density range  -6.4252629059259539E-18   6.1140972858824749E-01
 SKALA_GPW| Active atom-composite tau range  -1.8073114382217236E-17   1.6318315626893963E+01
 SKALA_GPW| Active atom-composite tau integral   1.3577615044355140E+01
 SKALA_GPW| Active atom-composite max gradient   2.3375419305986114E+00
     3 OT DIIS     0.50E-01    8.0     0.00001486       -17.2170646823 -3.19E-08
 SKALA_GPW| Atom-composite cross support/maxima   0.000000000000E+00   0.000000000000E+00   0.000000000000E+00   0.000000000000E+00
 SKALA_GPW| Active atom-composite XC energy  -4.2414672444496553E+00
 SKALA_GPW| Active atom-composite electrons   7.9999972400879358E+00
 SKALA_GPW| Active atom-composite density range  -2.8767298708273496E-18   6.1139754018587567E-01
 SKALA_GPW| Active atom-composite tau range  -2.0709962532544687E-18   1.6318163272032887E+01
 SKALA_GPW| Active atom-composite tau integral   1.3577557591551489E+01
 SKALA_GPW| Active atom-composite max gradient   2.3375160985735679E+00
     4 OT DIIS     0.50E-01    7.9     0.00000280       -17.2170646898 -7.52E-09
 SKALA_GPW| Atom-composite cross support/maxima   0.000000000000E+00   0.000000000000E+00   0.000000000000E+00   0.000000000000E+00
 SKALA_GPW| Active atom-composite XC energy  -4.2414647683390507E+00
 SKALA_GPW| Active atom-composite electrons   7.9999972401085442E+00
 SKALA_GPW| Active atom-composite density range  -6.7901508175127886E-18   6.1139561011019405E-01
 SKALA_GPW| Active atom-composite tau range  -8.7673538345136893E-18   1.6318174370469698E+01
 SKALA_GPW| Active atom-composite tau integral   1.3577551598566515E+01
 SKALA_GPW| Active atom-composite max gradient   2.3375182996973893E+00
     5 OT DIIS     0.50E-01    7.9     0.00000041       -17.2170646873  2.57E-09
 SKALA_GPW| Atom-composite cross support/maxima   0.000000000000E+00   0.000000000000E+00   0.000000000000E+00   0.000000000000E+00
 SKALA_GPW| Active atom-composite XC energy  -4.2414648211772157E+00
 SKALA_GPW| Active atom-composite electrons   7.9999972401073522E+00
 SKALA_GPW| Active atom-composite density range  -1.8044014002373572E-18   6.1139527197768240E-01
 SKALA_GPW| Active atom-composite tau range  -2.7225629172563650E-17   1.6318180222860242E+01
 SKALA_GPW| Active atom-composite tau integral   1.3577553511337733E+01
 SKALA_GPW| Active atom-composite max gradient   2.3375191229627768E+00
     6 OT DIIS     0.50E-01    7.6     0.00000005       -17.2170646896 -2.36E-09
 SKALA_GPW| Atom-composite cross support/maxima   0.000000000000E+00   0.000000000000E+00   0.000000000000E+00   0.000000000000E+00
 SKALA_GPW| Active atom-composite XC energy  -4.2414647872605906E+00
 SKALA_GPW| Active atom-composite electrons   7.9999972401075423E+00
 SKALA_GPW| Active atom-composite density range  -4.0944723779934439E-18   6.1139523777811156E-01
 SKALA_GPW| Active atom-composite tau range  -1.0494128067773434E-17   1.6318179686932815E+01
 SKALA_GPW| Active atom-composite tau integral   1.3577553270636981E+01
 SKALA_GPW| Active atom-composite max gradient   2.3375190559890573E+00
     7 OT DIIS     0.50E-01    8.1     0.00000003       -17.2170646907 -1.05E-09
 SKALA_GPW| Atom-composite cross support/maxima   0.000000000000E+00   0.000000000000E+00   0.000000000000E+00   0.000000000000E+00
 SKALA_GPW| Active atom-composite XC energy  -4.2414647973250386E+00
 SKALA_GPW| Active atom-composite electrons   7.9999972401075370E+00
 SKALA_GPW| Active atom-composite density range  -4.1377528087053006E-18   6.1139517991971781E-01
 SKALA_GPW| Active atom-composite tau range  -1.7943033769486578E-17   1.6318179536126760E+01
 SKALA_GPW| Active atom-composite tau integral   1.3577553282366214E+01
 SKALA_GPW| Active atom-composite max gradient   2.3375190169807731E+00
     8 OT DIIS     0.50E-01    7.7     7.8234E-09       -17.2170646904  2.50E-10
 SKALA_GPW| Atom-composite cross support/maxima   0.000000000000E+00   0.000000000000E+00   0.000000000000E+00   0.000000000000E+00
 SKALA_GPW| Active atom-composite XC energy  -4.2414647921868829E+00
 SKALA_GPW| Active atom-composite electrons   7.9999972401075921E+00
 SKALA_GPW| Active atom-composite density range  -2.7014023395450598E-18   6.1139517131679411E-01
 SKALA_GPW| Active atom-composite tau range  -1.1452549475630917E-17   1.6318179429378553E+01
 SKALA_GPW| Active atom-composite tau integral   1.3577553241574925E+01
 SKALA_GPW| Active atom-composite max gradient   2.3375190038790108E+00
     9 OT DIIS     0.50E-01    7.6     3.8456E-09       -17.2170646895  9.08E-10
 SKALA_GPW| Atom-composite cross support/maxima   0.000000000000E+00   0.000000000000E+00   0.000000000000E+00   0.000000000000E+00
 SKALA_GPW| Active atom-composite XC energy  -4.2414647921753579E+00
 SKALA_GPW| Active atom-composite electrons   7.9999972401076525E+00
 SKALA_GPW| Active atom-composite density range  -4.0047353814571580E-18   6.1139516609724875E-01
 SKALA_GPW| Active atom-composite tau range  -1.5615745013445429E-17   1.6318179408991938E+01
 SKALA_GPW| Active atom-composite tau integral   1.3577553234596826E+01
 SKALA_GPW| Active atom-composite max gradient   2.3375190031482624E+00
    10 OT DIIS     0.50E-01    7.8     8.3460E-10       -17.2170646897 -2.13E-10

  *** SCF run converged in    10 steps ***


  Electronic density on regular grids:         -7.9999999992        0.0000000008
  Core density on regular grids:                8.0000000000       -0.0000000000
  Total charge density on r-space grids:        0.0000000008
  Total charge density g-space grids:           0.0000000008

  Overlap energy of the core charge distribution:               0.00000004751094
  Self energy of the core charge distribution:                -44.35427365113802
  Core Hamiltonian energy:                                     12.86422868132690
  Hartree energy:                                              18.51444502474400
  Exchange-correlation energy:                                  0.00000000000000

  Total energy:                                               -17.21706468973154

  outer SCF iter =    1 RMS gradient =   0.83E-09 energy =        -17.2170646897
  outer SCF loop converged in   1 iterations or   10 steps


 !-----------------------------------------------------------------------------!
                     Mulliken Population Analysis

 #  Atom  Element  Kind  Atomic population                           Net charge
       1     O        1          6.316930                             -0.316930
       2     H        2          0.846232                              0.153768
       3     H        2          0.836838                              0.163162
 # Total charge                              8.000000                 -0.000000

 !-----------------------------------------------------------------------------!

 !-----------------------------------------------------------------------------!
                           Hirshfeld Charges

  #Atom  Element  Kind  Ref Charge     Population                    Net charge
      1       O      1       6.000          7.104                        -1.104
      2       H      2       1.000          0.448                         0.552
      3       H      2       1.000          0.445                         0.555

  Total Charge                                                            0.002
 !-----------------------------------------------------------------------------!
 SKALA_GPW| Composite-direction one-center VXC contraction     0.0000000000E+00
 SKALA_GPW| Composite-direction one-center rho contraction     0.0000000000E+00
 SKALA_GPW| Composite-direction one-center tau contraction     0.0000000000E+00
 SKALA_GPW| Native atom force 1   0.000000000000E+00   0.000000000000E+00   0.000000000000E+00
 SKALA_GPW| Native atom force 2   0.000000000000E+00   0.000000000000E+00   0.000000000000E+00
 SKALA_GPW| Native atom force 3   0.000000000000E+00   0.000000000000E+00   0.000000000000E+00
 SKALA_GPW| Atom-composite cross support/maxima   0.000000000000E+00   0.000000000000E+00   0.000000000000E+00   0.000000000000E+00
 SKALA_GPW| Atom-composite model-atom force 1   7.869530512296E-03   1.157342993569E-02   1.836085972162E-02
 SKALA_GPW| Atom-composite grid-coordinate force 1  -7.869530512296E-03  -1.157342993569E-02  -1.836085972162E-02
 SKALA_GPW| Atom-composite moving-smooth force 1  -4.228558591229E-01  -5.558073466182E-01  -9.114131253440E-01
 SKALA_GPW| Atom-composite cross-region force 1   0.000000000000E+00   0.000000000000E+00   0.000000000000E+00
 SKALA_GPW| Atom-composite NLCC-center force 1   0.000000000000E+00   0.000000000000E+00   0.000000000000E+00
 SKALA_GPW| Atom-composite NLCC-target force 1   0.000000000000E+00   0.000000000000E+00   0.000000000000E+00
 SKALA_GPW| Atom-composite partition force 1   4.308796876978E-01   5.674102930124E-01   9.301094528377E-01
 SKALA_GPW| Atom-composite explicit force 1   8.023828574951E-03   1.160294639422E-02   1.869632749368E-02
 SKALA_GPW| Atom-composite model-atom force 2   5.300333199477E-04   2.839416613871E-04   6.636389997654E-04
 SKALA_GPW| Atom-composite grid-coordinate force 2  -5.300333199478E-04  -2.839416613871E-04  -6.636389997654E-04
 SKALA_GPW| Atom-composite moving-smooth force 2   7.468373015000E-01  -9.676805199673E-02   4.786779183526E-01
 SKALA_GPW| Atom-composite cross-region force 2   0.000000000000E+00   0.000000000000E+00   0.000000000000E+00
 SKALA_GPW| Atom-composite NLCC-center force 2   0.000000000000E+00   0.000000000000E+00   0.000000000000E+00
 SKALA_GPW| Atom-composite NLCC-target force 2   0.000000000000E+00   0.000000000000E+00   0.000000000000E+00
 SKALA_GPW| Atom-composite partition force 2  -7.465623706904E-01   9.702042530190E-02  -4.781287607981E-01
 SKALA_GPW| Atom-composite explicit force 2   2.749308095469E-04   2.523733051692E-04   5.491575545022E-04
 SKALA_GPW| Atom-composite model-atom force 3   1.102719228191E-04   5.432657985849E-04   7.052998416387E-04
 SKALA_GPW| Atom-composite grid-coordinate force 3  -1.102719228191E-04  -5.432657985849E-04  -7.052998416387E-04
 SKALA_GPW| Atom-composite moving-smooth force 3  -3.156676014718E-01   6.647454345912E-01   4.524257736767E-01
 SKALA_GPW| Atom-composite cross-region force 3   0.000000000000E+00   0.000000000000E+00   0.000000000000E+00
 SKALA_GPW| Atom-composite NLCC-center force 3   0.000000000000E+00   0.000000000000E+00   0.000000000000E+00
 SKALA_GPW| Atom-composite NLCC-target force 3   0.000000000000E+00   0.000000000000E+00   0.000000000000E+00
 SKALA_GPW| Atom-composite partition force 3   3.156826829926E-01  -6.644307183143E-01  -4.519806920396E-01
 SKALA_GPW| Atom-composite explicit force 3   1.508152081109E-05   3.147162768501E-04   4.450816371189E-04
 SKALA_GPW| Atom-composite explicit virial
 SKALA_GPW|     1.2146344045E+00   -4.4144965550E-01    4.8040429591E-01
 SKALA_GPW|    -4.4058490210E-01    9.2913963725E-01    6.3262750760E-01
 SKALA_GPW|     4.8121778230E-01    6.3204858589E-01    1.0370156738E+00
 SKALA_GPW| Atom-composite cross-image virial
 SKALA_GPW|     0.0000000000E+00    0.0000000000E+00    0.0000000000E+00
 SKALA_GPW|     0.0000000000E+00    0.0000000000E+00    0.0000000000E+00
 SKALA_GPW|     0.0000000000E+00    0.0000000000E+00    0.0000000000E+00
 SKALA_GPW| Atom-composite feature virial
 SKALA_GPW|     1.3617627861E-01    1.9150860301E-02   -1.3321272012E-02
 SKALA_GPW|     1.9150860301E-02    1.4776266360E-01   -1.7428915296E-02
 SKALA_GPW|    -1.3321272012E-02   -1.7428915296E-02    1.5016665429E-01
 SKALA_GPW| Atom-composite interpolation virial
 SKALA_GPW|     3.0378943035E+00    4.4844667243E-01   -4.8382061708E-01
 SKALA_GPW|     4.4739868832E-01    3.3268956036E+00   -6.3783942368E-01
 SKALA_GPW|    -4.8501690569E-01   -6.3725691043E-01    3.2209124811E+00
 SKALA_GPW| Active atom-composite XC energy  -4.2414647914756554E+00
 SKALA_GPW| Active atom-composite electrons   7.9999972401075539E+00
 SKALA_GPW| Active atom-composite density range  -3.8510722091867630E-18   6.1139516536605887E-01
 SKALA_GPW| Active atom-composite tau range  -1.6840662003674046E-17   1.6318179396371541E+01
 SKALA_GPW| Active atom-composite tau integral   1.3577553229303849E+01
 SKALA_GPW| Active atom-composite max gradient   2.3375190012025642E+00

 ENERGY| Total FORCE_EVAL ( QS ) energy [hartree]            -17.217064689731544

 FORCES| Atomic forces [hartree/bohr]
 FORCES|   Atom     x               y               z               |f|
 FORCES|      1  5.63687277E-03  2.48118696E-02  3.05084014E-02   3.97261345E-02
 FORCES|      2  3.26524146E-02 -3.42216439E-02 -1.06346280E-02   4.84808870E-02
 FORCES|      3 -3.80855094E-02  9.70496214E-03 -1.95263271E-02   4.38858721E-02
 FORCES| Sum     2.03777985E-04  2.95187864E-04  3.47446206E-04
 FORCES| Total atomic force                                       4.99379824E-04

 STRESS| Analytical stress tensor [bar]
 STRESS|                        x                   y                   z
 STRESS|      x        5.45420623663E+03  -4.54117814104E+03  -5.14427758917E+02
 STRESS|      y       -4.54117814104E+03   1.11322248078E+03  -2.30432539679E+03
 STRESS|      z       -5.14427758917E+02  -2.30432539679E+03  -2.94999818327E+03
 STRESS| 1/3 Trace                                             1.20581017805E+03
 STRESS| Determinant                                           2.90182810515E+09

 STRESS| Eigenvectors and eigenvalues of the analytical stress tensor [bar]
 STRESS|                        1                   2                   3
 STRESS| Eigenvalues  -4.68365675154E+03  -7.39772968958E+01   8.37506458258E+03
 STRESS|      x           0.280607074353      0.473289500486      0.835018992929
 STRESS|      y           0.536259315737      0.644217823736     -0.545352493225
 STRESS|      z           0.796043727511     -0.600816481390      0.073033824912

 -------------------------------------------------------------------------------
 -                                                                             -
 -                                DBCSR STATISTICS                             -
 -                                                                             -
 -------------------------------------------------------------------------------
 COUNTER                                    TOTAL       BLAS       SMM       ACC
 flops     4 x     4 x     4                 1280     100.0%      0.0%      0.0%     
 flops    29 x    14 x     4                38976     100.0%      0.0%      0.0%     
 flops    14 x    29 x     4                38976     100.0%      0.0%      0.0%     
 flops    14 x     4 x     4                45696     100.0%      0.0%      0.0%     
 flops    29 x     4 x     4                47328     100.0%      0.0%      0.0%     
 flops    14 x    14 x     4                56448     100.0%      0.0%      0.0%     
 flops     4 x     4 x    57                74784     100.0%      0.0%      0.0%     
 flops    29 x    29 x     4                80736     100.0%      0.0%      0.0%     
 flops    14 x     4 x    14               175616     100.0%      0.0%      0.0%     
 flops    29 x     4 x    14               181888     100.0%      0.0%      0.0%     
 flops    14 x     4 x    29               181888     100.0%      0.0%      0.0%     
 flops    29 x     4 x    29               188384     100.0%      0.0%      0.0%     
 flops    14 x     4 x    57               280896     100.0%      0.0%      0.0%     
 flops    29 x     4 x    57               290928     100.0%      0.0%      0.0%     
 flops inhomo. stacks                           0       0.0%      0.0%      0.0%
 flops total                         1.683824E+06     100.0%      0.0%      0.0%
 flops max/rank                      1.683824E+06     100.0%      0.0%      0.0%
 matmuls inhomo. stacks                         0       0.0%      0.0%      0.0%
 matmuls total                                594     100.0%      0.0%      0.0%
 number of processed stacks                   498     100.0%      0.0%      0.0%
 average stack size                                     1.2       0.0       0.0
 marketing flops                     1.782416E+06
 -------------------------------------------------------------------------------
 # multiplications                            165
 max memory usage/rank               8.168616E+09
 # max total images/rank                        1
 # max 3D layers                                1
 # MPI messages exchanged                       0
 -------------------------------------------------------------------------------
 -                                                                             -
 -                      DBCSR MESSAGE PASSING PERFORMANCE                      -
 -                                                                             -
 -------------------------------------------------------------------------------
 ROUTINE             CALLS      AVE VOLUME [Bytes]
 MP_Bcast               15                     12.
 MP_Allreduce          815                      9.
 MP_Alltoall           741                   1023.
 MP_ISend              656                     70.
 MP_IRecv              656                     70.
 -------------------------------------------------------------------------------

 -------------------------------------------------------------------------------
 -                                                                             -
 -                                GRID STATISTICS                              -
 -                                                                             -
 -------------------------------------------------------------------------------
 LP    KERNEL             BACKEND                              COUNT     PERCENT
 6     collocate ortho    CPU                                   2915      17.42%
 6     integrate ortho    CPU                                   2650      15.84%
 4     collocate ortho    CPU                                   2442      14.59%
 4     integrate ortho    CPU                                   2220      13.27%
 7     integrate ortho    CPU                                   1372       8.20%
 5     collocate ortho    CPU                                   1265       7.56%
 7     collocate ortho    CPU                                   1265       7.56%
 5     integrate ortho    CPU                                   1150       6.87%
 8     integrate ortho    CPU                                    545       3.26%
 8     collocate ortho    CPU                                    473       2.83%
 9     integrate ortho    CPU                                    265       1.58%
 10    integrate ortho    CPU                                    115       0.69%
 11    integrate ortho    CPU                                     43       0.26%
 0     collocate general  CPU                                      6       0.04%
 0     integrate general  CPU                                      3       0.02%
 3     integrate general  CPU                                      3       0.02%
 -------------------------------------------------------------------------------

 -------------------------------------------------------------------------------
 -                                                                             -
 -                          OFFLOAD MEMPOOL STATISTICS                         -
 -                                                                             -
 -------------------------------------------------------------------------------
 Memory consumption                Number of allocations  Used [MiB]  Size [MiB]
 Host                                                  7          10    89906748
 -------------------------------------------------------------------------------

 MEMORY| Estimated peak process memory [MiB]                                1323

 -------------------------------------------------------------------------------
 ----                             MULTIGRID INFO                            ----
 -------------------------------------------------------------------------------
 count for grid        1:          18624          cutoff [a.u.]          200.00
 count for grid        2:           5775          cutoff [a.u.]           66.67
 count for grid        3:           4376          cutoff [a.u.]           22.22
 count for grid        4:            105          cutoff [a.u.]            7.41
 count for grid        5:              0          cutoff [a.u.]            2.47
 total gridlevel count  :          28880

 -------------------------------------------------------------------------------
 -                                                                             -
 -                         MESSAGE PASSING PERFORMANCE                         -
 -                                                                             -
 -------------------------------------------------------------------------------

 ROUTINE             CALLS      AVE VOLUME [Bytes]
 MP_Group                5
 MP_Bcast               62                   1562.
 MP_Allreduce          659                1335370.
 MP_Sync                 9
 MP_comm_split           4
 -------------------------------------------------------------------------------


 -------------------------------------------------------------------------------
 -                                                                             -
 -                           R E F E R E N C E S                               -
 -                                                                             -
 -------------------------------------------------------------------------------
 
 CP2K version 2026.2 (Development Version), the CP2K developers group (2026).
 CP2K is freely available from https://www.cp2k.org/ .
 
 M. Iannuzzi, J. Wilhelm, F. Stein, A. Bussy, H. Elgabarty, D. Golze, A. Hehn, 
 M. Graml, S. Marek, B. Sertcan Gökmen, C. Schran, H. Forbert, R. Z. 
 Khaliullin, A. Kozhevnikov, M. Taillefumier, R. Meli, V. V. Rybkin, M. Brehm, 
 R. Schade, O. Schütt, J. V. Pototschnig, H. Mirhosseini, A. Knüpfer, D. Marx, 
 M. Krack, J. Hutter, T. D. Kühne.
 J. Phys. Chem. B 130, 1237-1310 (2026).
 The CP2K Program Package Made Simple.
 https://doi.org/10.1021/acs.jpcb.5c05851

 T. D. Kühne, M. Iannuzzi, M. Del Ben, V. V. Rybkin, P. Seewald, F. Stein, T. 
 Laino, R. Z. Khaliullin, O. Schütt, F. Schiffmann, D. Golze, J. Wilhelm, S. 
 Chulkov, M. H. Bani-Hashemian, V. Weber, U. Borstnik, M. Taillefumier, A. S. 
 Jakobovits, A. Lazzaro, H. Pabst, T. Müller, R. Schade, M. Guidon, S. 
 Andermatt, N. Holmberg, G. K. Schenter, A. Hehn, A. Bussy, F. Belleflamme, G. 
 Tabacchi, A. Glöß, M. Lass, I. Bethune, C. J. Mundy, C. Plessl, M. Watkins, 
 J. VandeVondele, M. Krack, J. Hutter.
 J. Chem. Phys. 152, 194103 (2020).
 CP2K: An electronic structure and molecular dynamics software package - 
 Quickstep: Efficient and accurate electronic structure calculations.
 https://doi.org/10.1063/5.0007045

 O. Schuett, P. Messmer, J. Hutter, J. VandeVondele.
 Electronic Structure Calculations on Graphics Processing Units, 173-190 (2016).
 GPU-Accelerated Sparse Matrix-Matrix Multiplication for Linear Scaling Density 
 Functional Theory.
 https://doi.org/10.1002/9781118670712.ch8

 U. Borstnik, J. VandeVondele, V. Weber, J. Hutter.
 Parallel Comput. 40, 47-58 (2014).
 Sparse matrix multiplication: The distributed block-compressed sparse row 
 library.
 https://doi.org/10.1016/j.parco.2014.03.012

 J. VandeVondele, J. Hutter.
 J. Chem. Phys. 127, 114105 (2007).
 Gaussian basis sets for accurate calculations on molecular systems in gas and 
 condensed phases.
 https://doi.org/10.1063/1.2770708

 J. VandeVondele, M. Krack, F. Mohamed, M. Parrinello, T. Chassaing, J. Hutter.
 Comput. Phys. Commun. 167, 103-128 (2005).
 QUICKSTEP: Fast and accurate density functional calculations using a mixed 
 Gaussian and plane waves approach.
 https://doi.org/10.1016/j.cpc.2004.12.014

 M. Krack.
 Theor. Chem. Acc. 114, 145-152 (2005).
 Pseudopotentials for H to Kr optimized for gradient-corrected 
 exchange-correlation functionals.
 https://doi.org/10.1007/s00214-005-0655-y

 M. Frigo, S. G. Johnson.
 Proc. IEEE 93, 216-231 (2005).
 The design and implementation of FFTW3.
 https://doi.org/10.1109/JPROC.2004.840301

 J. VandeVondele, J. Hutter.
 J. Chem. Phys. 118, 4365-4369 (2003).
 An efficient orbital transformation method for electronic structure 
 calculations.
 https://doi.org/10.1063/1.1543154

 C. Hartwigsen, S. Goedecker, J. Hutter.
 Phys. Rev. B 58, 3641-3662 (1998).
 Relativistic separable dual-space Gaussian pseudopotentials from H to Rn.
 https://doi.org/10.1103/PhysRevB.58.3641

 G. Lippert, J. Hutter, M. Parrinello.
 Mol. Phys. 92, 477-487 (1997).
 A hybrid Gaussian and plane wave density functional scheme.
 https://doi.org/10.1080/002689797170220

 S. Goedecker, M. Teter, J. Hutter.
 Phys. Rev. B 54, 1703-1710 (1996).
 Separable dual-space Gaussian pseudopotentials.
 https://doi.org/10.1103/PhysRevB.54.1703


 -------------------------------------------------------------------------------
 -                                                                             -
 -                                T I M I N G                                  -
 -                                                                             -
 -------------------------------------------------------------------------------
 SUBROUTINE                       CALLS  ASD         SELF TIME        TOTAL TIME
                                MAXIMUM       AVERAGE  MAXIMUM  AVERAGE  MAXIMUM
 CP2K                                 1  1.0    0.006    0.006   96.981   96.981
 qs_forces                            1  2.0    0.000    0.000   96.741   96.741
 rebuild_ks_matrix                   11  6.7    0.000    0.000   95.591   95.591
 qs_ks_build_kohn_sham_matrix        11  7.7    0.002    0.002   95.591   95.591
 calculate_vxc_atom                  11  8.7   39.408   39.408   94.598   94.598
 qs_energies                          1  3.0    0.000    0.000   81.340   81.340
 scf_env_do_scf                       1  4.0    0.000    0.000   81.189   81.189
 qs_ks_update_qs_env                 11  6.0    0.000    0.000   80.201   80.201
 scf_env_do_scf_inner_loop           10  5.0    0.001    0.001   70.805   70.805
 skala_atom_torch_backward           11  9.7   31.325   31.325   31.325   31.325
 skala_atom_torch_forward            11  9.7    0.002    0.002   22.605   22.605
 torch_model_forward_mol_tensor      11 10.7   22.604   22.604   22.604   22.604
 qs_ks_update_qs_env_forces           1  3.0    0.000    0.000   15.391   15.391
 init_scf_loop                        1  5.0    0.000    0.000   10.384   10.384
 -------------------------------------------------------------------------------

 The number of warnings for this run is : 0
 
 -------------------------------------------------------------------------------
  **** **** ******  **  PROGRAM ENDED AT                 2026-09-09 11:59:34.616
 ***** ** ***  *** **   PROGRAM RAN ON                                     terok
 **    ****   ******    PROGRAM RAN BY                                  kuehne88
 ***** **    ** ** **   PROGRAM PROCESS ID                               4071028
  **** **  *******  **  PROGRAM STOPPED IN /home/kuehne88/work/native-skala-tero
                                           k/pccp-validation-20260909/derivative
                                           -checks/gpw-gth/force-minus-0.001
