 DBCSR| CPU Multiplication driver                                           XSMM (U)
 DBCSR| Multrec recursion limit                                              512 (U)
 DBCSR| Multiplication stack size                                           1000 (D)
 DBCSR| Maximum elements for images                                    UNLIMITED (U)
 DBCSR| Multiplicative factor virtual images                                   1 (U)
 DBCSR| Use multiplication densification                                       T (D)
 DBCSR| Multiplication size stacks                                             3 (U)
 DBCSR| Use memory pool for CPU allocation                                     F (U)
 DBCSR| Number of 3D layers                                               SINGLE (U)
 DBCSR| Use MPI memory allocation                                              F (U)
 DBCSR| Use RMA algorithm                                                      F (U)
 DBCSR| Use Communication thread                                               T (U)
 DBCSR| Communication thread load                                             15 (D)
 DBCSR| MPI: My process id                                                     0
 DBCSR| MPI: Number of processes                                               1
 DBCSR| OMP: Current number of threads                                        20
 DBCSR| OMP: Max number of threads                                            20
 DBCSR| Split modifier for TAS multiplication algorithm                  1.0E+00 (U)


  **** **** ******  **  PROGRAM STARTED AT               2026-08-25 06:05:12.392
 ***** ** ***  *** **   PROGRAM STARTED ON                            spark-c86c
 **    ****   ******    PROGRAM STARTED BY                              kuehne88
 ***** **    ** ** **   PROGRAM PROCESS ID                                637195
  **** **  *******  **  PROGRAM STARTED IN /home/kuehne88/work/native-skala-spar
                                           k/diet-production-p25/gapwxc-gth-one-
                                           center/d078cfcbf6d52ba080868acb056029
                                           6bb7c4542a

 CP2K| version string:                 CP2K version 2026.2 (Development Version)
 CP2K| source code revision number:                                   c1bff3eeb8
 CP2K| cp2kflags: omp fftw3 parallel scalapack spglib openblas libtorch libtorch
 CP2K|            _cuda
 CP2K| is freely available from                            https://www.cp2k.org/
 CP2K| Program compiled at                                   2026-08-23 22:42:03
 CP2K| Program compiled on                                            spark-c86c
 CP2K| Program compiled for                                              aarch64
 CP2K| Data directory path      /home/kuehne88/work/native-skala-spark/cp2k/data
 CP2K| Input file name                                                 input.inp

 GLOBAL| Force Environment number                                              1
 GLOBAL| Basis set file name                             BASIS_MOLOPT_UZH_2026.2
 GLOBAL| Potential file name                                POTENTIAL_UZH_2026.2
 GLOBAL| MM Potential file name                                     MM_POTENTIAL
 GLOBAL| Coordinate file name                                      __STD_INPUT__
 GLOBAL| Method name                                                        CP2K
 GLOBAL| Project name                                d078cfcbf6d5_gapwxc_gth_paw
 GLOBAL| Run type                                                         ENERGY
 GLOBAL| FFT library                                                       FFTW3
 GLOBAL| Diagonalization library                                       ScaLAPACK
 GLOBAL| Cholesky decomposition library                                ScaLAPACK
 GLOBAL| DGEMM library                                                      BLAS
 GLOBAL| Direct generalized diagonalization requested                          F
 GLOBAL| Orthonormality check for eigenvectors                          DISABLED
 GLOBAL| Matrix multiplication library                                 ScaLAPACK
 GLOBAL| All-to-all communication in single precision                          F
 GLOBAL| FFTs using library dependent lengths                                  F
 GLOBAL| Grid backend                                                       AUTO
 GLOBAL| Global print level                                               MEDIUM
 GLOBAL| MPI I/O enabled                                                       T
 GLOBAL| Total number of message passing processes                             1
 GLOBAL| Number of distributed systems (nodes)                                 1
 GLOBAL| Number of threads for this process                                   20
 GLOBAL| This output is from process                                           0
 GLOBAL| OpenMP stack size per thread (OMP_STACKSIZE)                       512M
 GLOBAL| CPU model name                                                  UNKNOWN
 GLOBAL| CPUID                                                              2000

 MEMORY| system memory details [Kb]
 MEMORY|                        rank 0           min           max       average
 MEMORY| MemTotal            125507828     125507828     125507828     125507828
 MEMORY| MemFree              96533384      96533384      96533384      96533384
 MEMORY| Buffers               3957584       3957584       3957584       3957584
 MEMORY| Cached               12463076      12463076      12463076      12463076
 MEMORY| Slab                  5950476       5950476       5950476       5950476
 MEMORY| SReclaimable          4999204       4999204       4999204       4999204
 MEMORY| MemLikelyFree       117953248     117953248     117953248     117953248


 *** Fundamental physical constants (SI units) ***

 *** Literature: B. J. Mohr and B. N. Taylor,
 ***             CODATA recommended values of the fundamental physical
 ***             constants: 2006, Web Version 5.1
 ***             http://physics.nist.gov/constants

 Speed of light in vacuum [m/s]                             2.99792458000000E+08
 Magnetic constant or permeability of vacuum [N/A**2]       1.25663706143592E-06
 Electric constant or permittivity of vacuum [F/m]          8.85418781762039E-12
 Planck constant (h) [J*s]                                  6.62606896000000E-34
 Planck constant (h-bar) [J*s]                              1.05457162825177E-34
 Elementary charge [C]                                      1.60217648700000E-19
 Electron mass [kg]                                         9.10938215000000E-31
 Electron g factor [ ]                                     -2.00231930436220E+00
 Proton mass [kg]                                           1.67262163700000E-27
 Fine-structure constant                                    7.29735253760000E-03
 Rydberg constant [1/m]                                     1.09737315685270E+07
 Avogadro constant [1/mol]                                  6.02214179000000E+23
 Boltzmann constant [J/K]                                   1.38065040000000E-23
 Atomic mass unit [kg]                                      1.66053878200000E-27
 Bohr radius [m]                                            5.29177208590000E-11

 *** Conversion factors ***

 [u] -> [a.u.]                                              1.82288848426455E+03
 [Angstrom] -> [Bohr] = [a.u.]                              1.88972613288564E+00
 [a.u.] = [Bohr] -> [Angstrom]                              5.29177208590000E-01
 [a.u.] -> [s]                                              2.41888432650478E-17
 [a.u.] -> [fs]                                             2.41888432650478E-02
 [a.u.] -> [J]                                              4.35974393937059E-18
 [a.u.] -> [N]                                              8.23872205491840E-08
 [a.u.] -> [K]                                              3.15774647902944E+05
 [a.u.] -> [kJ/mol]                                         2.62549961709828E+03
 [a.u.] -> [kcal/mol]                                       6.27509468713739E+02
 [a.u.] -> [Pa]                                             2.94210107994716E+13
 [a.u.] -> [bar]                                            2.94210107994716E+08
 [a.u.] -> [atm]                                            2.90362800883016E+08
 [a.u.] -> [eV]                                             2.72113838565563E+01
 [a.u.] -> [Hz]                                             6.57968392072181E+15
 [a.u.] -> [1/cm] (wave numbers)                            2.19474631370540E+05
 [a.u./Bohr**2] -> [1/cm]                                   5.14048714338585E+03
 

 CELL| Volume [angstrom^3]:                                         15625.000000
 CELL| Vector a [angstrom]:      25.000     0.000     0.000   |a| =    25.000000
 CELL| Vector b [angstrom]:       0.000    25.000     0.000   |b| =    25.000000
 CELL| Vector c [angstrom]:       0.000     0.000    25.000   |c| =    25.000000
 CELL| Angle (b,c), alpha [degree]:                                    90.000000
 CELL| Angle (a,c), beta  [degree]:                                    90.000000
 CELL| Angle (a,b), gamma [degree]:                                    90.000000
 CELL| Numerically orthorhombic:                                             YES
 CELL| Periodicity                                                          NONE

 CELL_REF| Volume [angstrom^3]:                                     15625.000000
 CELL_REF| Vector a [angstrom    25.000     0.000     0.000   |a| =    25.000000
 CELL_REF| Vector b [angstrom     0.000    25.000     0.000   |b| =    25.000000
 CELL_REF| Vector c [angstrom     0.000     0.000    25.000   |c| =    25.000000
 CELL_REF| Angle (b,c), alpha [degree]:                                90.000000
 CELL_REF| Angle (a,c), beta  [degree]:                                90.000000
 CELL_REF| Angle (a,b), gamma [degree]:                                90.000000
 CELL_REF| Numerically orthorhombic:                                         YES
 CELL_REF| Periodicity                                                      NONE

 GENERATE|  Preliminary Number of Bonds generated:                             0
 GENERATE|  Achieved consistency in connectivity generation.

 *******************************************************************************
 *******************************************************************************
 **                                                                           **
 **     #####                         ##              ##                      **
 **    ##   ##            ##          ##              ##                      **
 **   ##     ##                       ##            ######                    **
 **   ##     ##  ##   ##  ##   #####  ##  ##   ####   ##    #####    #####    **
 **   ##     ##  ##   ##  ##  ##      ## ##   ##      ##   ##   ##  ##   ##   **
 **   ##  ## ##  ##   ##  ##  ##      ####     ###    ##   ######   ######    **
 **    ##  ###   ##   ##  ##  ##      ## ##      ##   ##   ##       ##        **
 **     #######   #####   ##   #####  ##  ##  ####    ##    #####   ##        **
 **           ##                                                    ##        **
 **                                                                           **
 **                                                ... make the atoms dance   **
 **                                                                           **
 **            Copyright (C) by CP2K developers group (2000-2026)             **
 **                      J. Chem. Phys. 152, 194103 (2020)                    **
 **                                                                           **
 *******************************************************************************

 DFT| Spin restricted Kohn-Sham (RKS) calculation                            RKS
 DFT| Multiplicity                                                             1
 DFT| Number of spin states                                                    1
 DFT| Charge                                                                   0
 DFT| Self-interaction correction (SIC)                                       NO
 DFT| Cutoffs: density                                              1.000000E-10
 DFT|          gradient                                             1.000000E-10
 DFT|          tau                                                  1.000000E-10
 DFT|          cutoff_smoothing_range                               0.000000E+00
 DFT| XC density smoothing                                                  NONE
 DFT| XC derivatives                                                          PW

 FUNCTIONAL| GAUXC:
 FUNCTIONAL| Functional computed by GauXC Skala model SKALA                     

 vdW POTENTIAL|                                                   Pair Potential
 vdW POTENTIAL|          DFT-D3 (Version 3.1)
 vdW POTENTIAL|          Potential Form: S. Grimme et al, JCP 132: 154104 (2010)
 vdW POTENTIAL|          BJ Damping: S. Grimme et al, JCC 32: 1456 (2011)
 vdW POTENTIAL|          Cutoff Radius [Bohr]:                             37.79
 vdW POTENTIAL|          s6 Scaling Factor:                               1.0000
 vdW POTENTIAL|          a1 Damping Factor:                               0.3981
 vdW POTENTIAL|          s8 Scaling Factor:                               1.9889
 vdW POTENTIAL|          a2 Damping Factor:                               4.4211
 vdW POTENTIAL|          Cutoff for CN calculation:                   0.1000E-05

 QS| Method:                                                             GAPW_XC
 QS| Density plane wave grid type                        NON-SPHERICAL FULLSPACE
 QS| Number of grid levels:                                                    5
 QS| Density cutoff [a.u.]:                                                200.0
 QS| Multi grid cutoff [a.u.]: 1) grid level                               200.0
 QS|                           2) grid level                                66.7
 QS|                           3) grid level                                22.2
 QS|                           4) grid level                                 7.4
 QS|                           5) grid level                                 2.5
 QS| Grid level progression factor:                                          3.0
 QS| Relative density cutoff [a.u.]:                                        30.0
 QS| Interaction thresholds: eps_pgf_orb:                                1.0E-06
 QS|                         eps_filter_matrix:                          0.0E+00
 QS|                         eps_core_charge:                            1.0E-14
 QS|                         eps_rho_gspace:                             1.0E-12
 QS|                         eps_rho_rspace:                             1.0E-12
 QS|                         eps_gvg_rspace:                             1.0E-06
 QS|                         eps_ppl:                                    1.0E-02
 QS|                         eps_ppnl:                                   1.0E-08
 QS| GAPW_XC|      One center basis extended with primitives (small:s)
 QS| GAPW_XC|                eps_fit:                                    1.0E-04
 QS| GAPW_XC|                eps_iso:                                    1.0E-12
 QS| GAPW_XC|                eps_svd:                                    1.0E-08
 QS| GAPW_XC|atom-r-grid: quadrature:                 GC_LOG                        
 QS| GAPW_XC|   atom-s-grid:  max l :                                          6


 ATOMIC KIND INFORMATION

  1. Atomic kind: Ne                                    Number of atoms:       1

     Orbital Basis Set                                   TZV2P-MOLOPT-PBE-GTH-q8

       Number of orbital shell sets:                                           2
       Number of orbital shells:                                               9
       Number of primitive Cartesian functions:                               12
       Number of Cartesian basis functions:                                   34
       Number of spherical basis functions:                                   29
       Norm type:                                                              2

       Normalised Cartesian orbitals:

                        Set   Shell   Orbital            Exponent    Coefficient

                          1       1    1s               20.811667      -0.346566
                                                         9.968615      -0.440205
                                                         4.774884      -0.060912
                                                         2.287130       0.357361
                                                         1.095516       0.311406
                                                         0.524743       0.154780
                                                         0.251348       0.029105
                                                         0.120393       0.001573

                          1       2    2s               20.811667       0.236041
                                                         9.968615       0.355102
                                                         4.774884       0.035995
                                                         2.287130      -0.338809
                                                         1.095516      -0.625777
                                                         0.524743       0.006153
                                                         0.251348       0.230479
                                                         0.120393       0.049429

                          1       3    3s               20.811667      -0.374751
                                                         9.968615      -0.199415
                                                         4.774884      -0.500453
                                                         2.287130       1.472929
                                                         1.095516       0.478692
                                                         0.524743      -0.837228
                                                         0.251348      -0.145706
                                                         0.120393       0.227084

                          1       4    2px              20.811667      -2.049495
                                                         9.968615      -2.285796
                                                         4.774884      -1.677594
                                                         2.287130      -1.059623
                                                         1.095516      -0.455872
                                                         0.524743      -0.157155
                                                         0.251348      -0.035912
                                                         0.120393      -0.005616
                          1       4    2py              20.811667      -2.049495
                                                         9.968615      -2.285796
                                                         4.774884      -1.677594
                                                         2.287130      -1.059623
                                                         1.095516      -0.455872
                                                         0.524743      -0.157155
                                                         0.251348      -0.035912
                                                         0.120393      -0.005616
                          1       4    2pz              20.811667      -2.049495
                                                         9.968615      -2.285796
                                                         4.774884      -1.677594
                                                         2.287130      -1.059623
                                                         1.095516      -0.455872
                                                         0.524743      -0.157155
                                                         0.251348      -0.035912
                                                         0.120393      -0.005616

                          1       5    3px              20.811667       1.376422
                                                         9.968615       1.437354
                                                         4.774884       1.227356
                                                         2.287130       0.688565
                                                         1.095516       0.434125
                                                         0.524743      -0.055421
                                                         0.251348      -0.046973
                                                         0.120393      -0.078753
                          1       5    3py              20.811667       1.376422
                                                         9.968615       1.437354
                                                         4.774884       1.227356
                                                         2.287130       0.688565
                                                         1.095516       0.434125
                                                         0.524743      -0.055421
                                                         0.251348      -0.046973
                                                         0.120393      -0.078753
                          1       5    3pz              20.811667       1.376422
                                                         9.968615       1.437354
                                                         4.774884       1.227356
                                                         2.287130       0.688565
                                                         1.095516       0.434125
                                                         0.524743      -0.055421
                                                         0.251348      -0.046973
                                                         0.120393      -0.078753

                          1       6    4px              20.811667      -1.195501
                                                         9.968615      -2.469815
                                                         4.774884      -0.640283
                                                         2.287130      -1.804227
                                                         1.095516       0.287459
                                                         0.524743      -0.192554
                                                         0.251348       0.534292
                                                         0.120393      -0.183436
                          1       6    4py              20.811667      -1.195501
                                                         9.968615      -2.469815
                                                         4.774884      -0.640283
                                                         2.287130      -1.804227
                                                         1.095516       0.287459
                                                         0.524743      -0.192554
                                                         0.251348       0.534292
                                                         0.120393      -0.183436
                          1       6    4pz              20.811667      -1.195501
                                                         9.968615      -2.469815
                                                         4.774884      -0.640283
                                                         2.287130      -1.804227
                                                         1.095516       0.287459
                                                         0.524743      -0.192554
                                                         0.251348       0.534292
                                                         0.120393      -0.183436

                          2       1    3dx2             16.816427       8.143581
                                                         6.694770       7.113424
                                                         2.665248       4.870602
                                                         1.061059       0.801632
                          2       1    3dxy             16.816427      14.105095
                                                         6.694770      12.320812
                                                         2.665248       8.436129
                                                         1.061059       1.388467
                          2       1    3dxz             16.816427      14.105095
                                                         6.694770      12.320812
                                                         2.665248       8.436129
                                                         1.061059       1.388467
                          2       1    3dy2             16.816427       8.143581
                                                         6.694770       7.113424
                                                         2.665248       4.870602
                                                         1.061059       0.801632
                          2       1    3dyz             16.816427      14.105095
                                                         6.694770      12.320812
                                                         2.665248       8.436129
                                                         1.061059       1.388467
                          2       1    3dz2             16.816427       8.143581
                                                         6.694770       7.113424
                                                         2.665248       4.870602
                                                         1.061059       0.801632

                          2       2    4dx2             16.816427     -14.439347
                                                         6.694770      -5.711652
                                                         2.665248      -9.439444
                                                         1.061059       2.328218
                          2       2    4dxy             16.816427     -25.009683
                                                         6.694770      -9.892871
                                                         2.665248     -16.349596
                                                         1.061059       4.032591
                          2       2    4dxz             16.816427     -25.009683
                                                         6.694770      -9.892871
                                                         2.665248     -16.349596
                                                         1.061059       4.032591
                          2       2    4dy2             16.816427     -14.439347
                                                         6.694770      -5.711652
                                                         2.665248      -9.439444
                                                         1.061059       2.328218
                          2       2    4dyz             16.816427     -25.009683
                                                         6.694770      -9.892871
                                                         2.665248     -16.349596
                                                         1.061059       4.032591
                          2       2    4dz2             16.816427     -14.439347
                                                         6.694770      -5.711652
                                                         2.665248      -9.439444
                                                         1.061059       2.328218

                          2       3    4fx3             16.816427      19.300911
                                                         6.694770      16.738079
                                                         2.665248       8.155810
                                                         1.061059       0.651084
                          2       3    4fx2y            16.816427      43.158149
                                                         6.694770      37.427482
                                                         2.665248      18.236946
                                                         1.061059       1.455869
                          2       3    4fx2z            16.816427      43.158149
                                                         6.694770      37.427482
                                                         2.665248      18.236946
                                                         1.061059       1.455869
                          2       3    4fxy2            16.816427      43.158149
                                                         6.694770      37.427482
                                                         2.665248      18.236946
                                                         1.061059       1.455869
                          2       3    4fxyz            16.816427      74.752107
                                                         6.694770      64.826300
                                                         2.665248      31.587317
                                                         1.061059       2.521638
                          2       3    4fxz2            16.816427      43.158149
                                                         6.694770      37.427482
                                                         2.665248      18.236946
                                                         1.061059       1.455869
                          2       3    4fy3             16.816427      19.300911
                                                         6.694770      16.738079
                                                         2.665248       8.155810
                                                         1.061059       0.651084
                          2       3    4fy2z            16.816427      43.158149
                                                         6.694770      37.427482
                                                         2.665248      18.236946
                                                         1.061059       1.455869
                          2       3    4fyz2            16.816427      43.158149
                                                         6.694770      37.427482
                                                         2.665248      18.236946
                                                         1.061059       1.455869
                          2       3    4fz3             16.816427      19.300911
                                                         6.694770      16.738079
                                                         2.665248       8.155810
                                                         1.061059       0.651084

       Atomic covalent radius [Angstrom]:                                  0.710

       Atomic van der Waals radius [Angstrom]:                             1.540

     The atoms of this atomic kind are PAW atoms (GAPW):
       Hard Gaussian function radius:                                      1.520
       Rho0 radius:                                                        1.520
       Maximum GTO radius used for PAW projector construction:            24.566

     GAPW Soft Basis Set                            TZV2P-MOLOPT-PBE-GTH-q8_soft

       Number of orbital shell sets:                                           2
       Number of orbital shells:                                               9
       Number of primitive Cartesian functions:                                7
       Number of Cartesian basis functions:                                   34
       Number of spherical basis functions:                                   29
       Norm type:                                                              2

       Normalised Cartesian orbitals:

                        Set   Shell   Orbital            Exponent    Coefficient

                          1       1    1s                2.287130       0.357361
                                                         1.095516       0.311406
                                                         0.524743       0.154780
                                                         0.251348       0.029105
                                                         0.120393       0.001573

                          1       2    2s                2.287130      -0.338809
                                                         1.095516      -0.625777
                                                         0.524743       0.006153
                                                         0.251348       0.230479
                                                         0.120393       0.049429

                          1       3    3s                2.287130       1.472929
                                                         1.095516       0.478692
                                                         0.524743      -0.837228
                                                         0.251348      -0.145706
                                                         0.120393       0.227084

                          1       4    2px               2.287130      -1.059623
                                                         1.095516      -0.455872
                                                         0.524743      -0.157155
                                                         0.251348      -0.035912
                                                         0.120393      -0.005616
                          1       4    2py               2.287130      -1.059623
                                                         1.095516      -0.455872
                                                         0.524743      -0.157155
                                                         0.251348      -0.035912
                                                         0.120393      -0.005616
                          1       4    2pz               2.287130      -1.059623
                                                         1.095516      -0.455872
                                                         0.524743      -0.157155
                                                         0.251348      -0.035912
                                                         0.120393      -0.005616

                          1       5    3px               2.287130       0.688565
                                                         1.095516       0.434125
                                                         0.524743      -0.055421
                                                         0.251348      -0.046973
                                                         0.120393      -0.078753
                          1       5    3py               2.287130       0.688565
                                                         1.095516       0.434125
                                                         0.524743      -0.055421
                                                         0.251348      -0.046973
                                                         0.120393      -0.078753
                          1       5    3pz               2.287130       0.688565
                                                         1.095516       0.434125
                                                         0.524743      -0.055421
                                                         0.251348      -0.046973
                                                         0.120393      -0.078753

                          1       6    4px               2.287130      -1.804227
                                                         1.095516       0.287459
                                                         0.524743      -0.192554
                                                         0.251348       0.534292
                                                         0.120393      -0.183436
                          1       6    4py               2.287130      -1.804227
                                                         1.095516       0.287459
                                                         0.524743      -0.192554
                                                         0.251348       0.534292
                                                         0.120393      -0.183436
                          1       6    4pz               2.287130      -1.804227
                                                         1.095516       0.287459
                                                         0.524743      -0.192554
                                                         0.251348       0.534292
                                                         0.120393      -0.183436

                          2       1    3dx2              2.665248       4.870602
                                                         1.061059       0.801632
                          2       1    3dxy              2.665248       8.436129
                                                         1.061059       1.388467
                          2       1    3dxz              2.665248       8.436129
                                                         1.061059       1.388467
                          2       1    3dy2              2.665248       4.870602
                                                         1.061059       0.801632
                          2       1    3dyz              2.665248       8.436129
                                                         1.061059       1.388467
                          2       1    3dz2              2.665248       4.870602
                                                         1.061059       0.801632

                          2       2    4dx2              2.665248      -9.439444
                                                         1.061059       2.328218
                          2       2    4dxy              2.665248     -16.349596
                                                         1.061059       4.032591
                          2       2    4dxz              2.665248     -16.349596
                                                         1.061059       4.032591
                          2       2    4dy2              2.665248      -9.439444
                                                         1.061059       2.328218
                          2       2    4dyz              2.665248     -16.349596
                                                         1.061059       4.032591
                          2       2    4dz2              2.665248      -9.439444
                                                         1.061059       2.328218

                          2       3    4fx3              2.665248       8.155810
                                                         1.061059       0.651084
                          2       3    4fx2y             2.665248      18.236946
                                                         1.061059       1.455869
                          2       3    4fx2z             2.665248      18.236946
                                                         1.061059       1.455869
                          2       3    4fxy2             2.665248      18.236946
                                                         1.061059       1.455869
                          2       3    4fxyz             2.665248      31.587317
                                                         1.061059       2.521638
                          2       3    4fxz2             2.665248      18.236946
                                                         1.061059       1.455869
                          2       3    4fy3              2.665248       8.155810
                                                         1.061059       0.651084
                          2       3    4fy2z             2.665248      18.236946
                                                         1.061059       1.455869
                          2       3    4fyz2             2.665248      18.236946
                                                         1.061059       1.455869
                          2       3    4fz3              2.665248       8.155810
                                                         1.061059       0.651084

     GTH Potential information for                                    GTH-PBE-q8

       Description:                       Goedecker-Teter-Hutter pseudopotential
                                           Goedecker et al., PRB 54, 1703 (1996)
                                          Hartwigsen et al., PRB 58, 3641 (1998)
                                                      Krack, TCA 114, 145 (2005)

       Gaussian exponent of the core charge distribution:              13.830609
       Electronic configuration (s p d ...):                       2   6   0   0

       Parameters of the local part of the GTH pseudopotential:

                          rloc        C1          C2          C3          C4
                        0.190136  -27.113948    4.363806

       Parameters of the non-local part of the GTH pseudopotential:

                   l      r(l)      h(i,j,l)

                   0    0.176068   28.177571    0.833657
                                    0.833657   -1.076165
                   1    0.195466   -0.236106


 MOLECULE KIND INFORMATION


 All atoms are their own molecule, skipping detailed information


 TOTAL NUMBERS AND MAXIMUM NUMBERS

  Total number of            - Atomic kinds:                                   1
                             - Atoms:                                          1
                             - Shell sets:                                     2
                             - Shells:                                         9
                             - Primitive Cartesian functions:                 12
                             - Cartesian basis functions:                     34
                             - Spherical basis functions:                     29

  Maximum angular momentum of- Orbital basis functions:                        3
                             - Local part of the GTH pseudopotential:          2
                             - Non-local part of the GTH pseudopotential:      2


 MODULE QUICKSTEP: ATOMIC COORDINATES IN ANGSTROM

   Atom Kind Element         X             Y             Z       Z(eff)     Mass
      1    1 Ne   10     12.500000     12.500000     12.500000   8.0000  20.1797



 SCF PARAMETERS         Density guess:                                    ATOMIC
                        --------------------------------------------------------
                        max_scf:                                             200
                        max_scf_history:                                       0
                        max_diis:                                              4
                        --------------------------------------------------------
                        eps_scf:                                        1.00E-07
                        eps_scf_history:                                0.00E+00
                        eps_diis:                                       0.00E+00
                        eps_eigval:                                     1.00E-05
                        --------------------------------------------------------
                        level_shift [a.u.]:                             0.000000
                        --------------------------------------------------------
                        Outer loop SCF in use 
                        No variables optimised in outer loop
                        eps_scf                                         1.00E-07
                        max_scf                                               20
                        No outer loop optimization
                        step_size                                       5.00E-01

 PW_GRID| Information for grid number                                          1
 PW_GRID| Cutoff [a.u.]                                                    200.0
 PW_GRID| spherical cutoff:                                                   NO
 PW_GRID|   Bounds   1           -160     159                Points:         320
 PW_GRID|   Bounds   2           -160     159                Points:         320
 PW_GRID|   Bounds   3           -160     159                Points:         320
 PW_GRID| Volume element (a.u.^3)  0.3218E-02     Volume (a.u.^3)    105442.7279
 PW_GRID| Grid span                                                    FULLSPACE

 PW_GRID| Information for grid number                                          2
 PW_GRID| Number of the reference grid                                         1
 PW_GRID| Cutoff [a.u.]                                                     66.7
 PW_GRID| spherical cutoff:                                                   NO
 PW_GRID|   Bounds   1            -90      89                Points:         180
 PW_GRID|   Bounds   2            -90      89                Points:         180
 PW_GRID|   Bounds   3            -90      89                Points:         180
 PW_GRID| Volume element (a.u.^3)  0.1808E-01     Volume (a.u.^3)    105442.7279
 PW_GRID| Grid span                                                    FULLSPACE

 PW_GRID| Information for grid number                                          3
 PW_GRID| Number of the reference grid                                         1
 PW_GRID| Cutoff [a.u.]                                                     22.2
 PW_GRID| spherical cutoff:                                                   NO
 PW_GRID|   Bounds   1            -54      53                Points:         108
 PW_GRID|   Bounds   2            -54      53                Points:         108
 PW_GRID|   Bounds   3            -54      53                Points:         108
 PW_GRID| Volume element (a.u.^3)  0.8370E-01     Volume (a.u.^3)    105442.7279
 PW_GRID| Grid span                                                    FULLSPACE

 PW_GRID| Information for grid number                                          4
 PW_GRID| Number of the reference grid                                         1
 PW_GRID| Cutoff [a.u.]                                                      7.4
 PW_GRID| spherical cutoff:                                                   NO
 PW_GRID|   Bounds   1            -30      29                Points:          60
 PW_GRID|   Bounds   2            -30      29                Points:          60
 PW_GRID|   Bounds   3            -30      29                Points:          60
 PW_GRID| Volume element (a.u.^3)  0.4882         Volume (a.u.^3)    105442.7279
 PW_GRID| Grid span                                                    FULLSPACE

 PW_GRID| Information for grid number                                          5
 PW_GRID| Number of the reference grid                                         1
 PW_GRID| Cutoff [a.u.]                                                      2.5
 PW_GRID| spherical cutoff:                                                   NO
 PW_GRID|   Bounds   1            -18      17                Points:          36
 PW_GRID|   Bounds   2            -18      17                Points:          36
 PW_GRID|   Bounds   3            -18      17                Points:          36
 PW_GRID| Volume element (a.u.^3)   2.260         Volume (a.u.^3)    105442.7279
 PW_GRID| Grid span                                                    FULLSPACE

 POISSON| Solver                                                        ANALYTIC
 POISSON| Periodicity                                                       NONE

 RS_GRID| Information for grid number                                          1
 RS_GRID|   Bounds   1           -160     159                Points:         320
 RS_GRID|   Bounds   2           -160     159                Points:         320
 RS_GRID|   Bounds   3           -160     159                Points:         320

 RS_GRID| Information for grid number                                          2
 RS_GRID|   Bounds   1            -90      89                Points:         180
 RS_GRID|   Bounds   2            -90      89                Points:         180
 RS_GRID|   Bounds   3            -90      89                Points:         180

 RS_GRID| Information for grid number                                          3
 RS_GRID|   Bounds   1            -54      53                Points:         108
 RS_GRID|   Bounds   2            -54      53                Points:         108
 RS_GRID|   Bounds   3            -54      53                Points:         108

 RS_GRID| Information for grid number                                          4
 RS_GRID|   Bounds   1            -30      29                Points:          60
 RS_GRID|   Bounds   2            -30      29                Points:          60
 RS_GRID|   Bounds   3            -30      29                Points:          60

 RS_GRID| Information for grid number                                          5
 RS_GRID|   Bounds   1            -18      17                Points:          36
 RS_GRID|   Bounds   2            -18      17                Points:          36
 RS_GRID|   Bounds   3            -18      17                Points:          36

 Extrapolation method: initial_guess

 Atomic guess: The first density matrix is obtained in terms of atomic orbitals
               and electronic configurations assigned to each atomic kind

 Guess for atomic kind: Ne

 Electronic structure
    Total number of core electrons                                          2.00
    Total number of valence electrons                                       8.00
    Total number of electrons                                              10.00
    Multiplicity                                                   not specified
    S   [  2.00] 2.00
    P      6.00


 *******************************************************************************
                  Iteration          Convergence                     Energy [au]
 *******************************************************************************
                          1         2.18015                     -34.348409213064
                          2         1.72779                     -34.283669251857
                          3        0.345201E-01                 -34.732053332047
                          4        0.825835E-02                 -34.732166388039
                          5        0.344679E-03                 -34.732173897725
                          6        0.335887E-05                 -34.732173910271
                          7        0.134056E-05                 -34.732173910272
                          8        0.180594E-06                 -34.732173910272

 Energy components [Hartree]           Total Energy ::          -34.732173910272
                                        Band Energy ::           -5.556600544931
                                     Kinetic Energy ::           28.183521978161
                                   Potential Energy ::          -62.915695888433
                                      Virial (-V/T) ::            2.232357472469
                                        Core Energy ::          -59.934276646285
                                          XC Energy ::           -5.795307651554
                                     Coulomb Energy ::           30.997410387567
                       Total Pseudopotential Energy ::          -88.146605824615
                       Local Pseudopotential Energy ::          -89.968457751992
                    Nonlocal Pseudopotential Energy ::            1.821851927377
                                        Confinement ::            0.288072001694

 Orbital energies  State     L     Occupation   Energy[a.u.]          Energy[eV]

                       1     0          2.000      -1.328658          -36.154614

                       1     1          6.000      -0.483214          -13.148927


 Total Electron Density at R=0:                                         0.000078
 Re-scaling the density matrix to get the right number of electrons
                  # Electrons              Trace(P)               Scaling factor
                            8                 8.000                        1.000

 Number of electrons:                                                          8
 Number of occupied orbitals:                                                  4
 Number of molecular orbitals:                                                 4

 Number of orbital functions:                                                 29
 Number of independent orbital functions:                                     29


 SCF WAVEFUNCTION OPTIMIZATION

  ----------------------------------- OT ---------------------------------------
  Minimizer      : DIIS                : direct inversion
                                         in the iterative subspace
                                         using   7 DIIS vectors
                                         safer DIIS on
  Preconditioner : FULL_ALL            : diagonalization, state selective
  Precond_solver : DEFAULT
  stepsize       :    0.10000000                  energy_gap     :    0.00100000
  eps_taylor     :   0.10000E-15                  max_taylor     :             4
  ----------------------------------- OT ---------------------------------------

  Step     Update method      Time    Convergence         Total energy    Change
  ------------------------------------------------------------------------------
 SKALA_GPW| Atom-composite cross support/maxima   2.762835939863E+00   0.000000000000E+00   0.000000000000E+00   0.000000000000E+00

 SKALA_GPW| Native grid Torch CUDA device 0 of 1 requested -1
 SKALA_GPW| Native grid Torch CUDA rank devices 0:0
 SKALA_GPW| Active atom-composite XC energy  -5.9543936391882761E+00
 SKALA_GPW| Active atom-composite electrons   7.9999997931307609E+00
 SKALA_GPW| Active atom-composite density range  -2.1245959177834780E-09   1.5129897311378997E+00
 SKALA_GPW| Active atom-composite tau range  -1.5395977258762456E-07   8.8607091788616898E+01
 SKALA_GPW| Active atom-composite tau integral   2.8183524242629144E+01
 SKALA_GPW| Active atom-composite max gradient   8.4854836808796623E+00
     1 OT DIIS     0.10E+00    9.7     0.00964244       -34.9204792303 -3.49E+01
 SKALA_GPW| Atom-composite cross support/maxima   2.762835939863E+00   0.000000000000E+00   0.000000000000E+00   0.000000000000E+00
 SKALA_GPW| Active atom-composite XC energy  -5.9742961048719181E+00
 SKALA_GPW| Active atom-composite electrons   7.9999997935145144E+00
 SKALA_GPW| Active atom-composite density range  -3.1802470482659196E-09   1.5202755822186336E+00
 SKALA_GPW| Active atom-composite tau range  -1.5486851282445741E-07   8.8980411205742698E+01
 SKALA_GPW| Active atom-composite tau integral   2.8306055391781765E+01
 SKALA_GPW| Active atom-composite max gradient   8.5241545510506249E+00
     2 OT DIIS     0.10E+00   11.1     0.00411986       -34.9212102196 -7.31E-04
 SKALA_GPW| Atom-composite cross support/maxima   2.762835939863E+00   0.000000000000E+00   0.000000000000E+00   0.000000000000E+00
 SKALA_GPW| Active atom-composite XC energy  -5.9787357857952967E+00
 SKALA_GPW| Active atom-composite electrons   7.9999997947996180E+00
 SKALA_GPW| Active atom-composite density range  -3.7039768335631293E-09   1.5207613222771192E+00
 SKALA_GPW| Active atom-composite tau range  -1.5499551930396648E-07   8.8927001744966731E+01
 SKALA_GPW| Active atom-composite tau integral   2.8314894155057381E+01
 SKALA_GPW| Active atom-composite max gradient   8.5228022718330401E+00
     3 OT DIIS     0.10E+00   12.3     0.00186775       -34.9214031750 -1.93E-04
 SKALA_GPW| Atom-composite cross support/maxima   2.762835939863E+00   0.000000000000E+00   0.000000000000E+00   0.000000000000E+00
 SKALA_GPW| Active atom-composite XC energy  -5.9790565651157825E+00
 SKALA_GPW| Active atom-composite electrons   7.9999997961843263E+00
 SKALA_GPW| Active atom-composite density range  -4.0369350422891166E-09   1.5195871785665422E+00
 SKALA_GPW| Active atom-composite tau range  -1.5490956788043455E-07   8.8775988209084289E+01
 SKALA_GPW| Active atom-composite tau integral   2.8295756651558566E+01
 SKALA_GPW| Active atom-composite max gradient   8.5120172877868594E+00
     4 OT DIIS     0.10E+00   11.3     0.00004165       -34.9214547357 -5.16E-05
 SKALA_GPW| Atom-composite cross support/maxima   2.762835939863E+00   0.000000000000E+00   0.000000000000E+00   0.000000000000E+00
 SKALA_GPW| Active atom-composite XC energy  -5.9789890107275321E+00
 SKALA_GPW| Active atom-composite electrons   7.9999997961675238E+00
 SKALA_GPW| Active atom-composite density range  -3.9947976457134586E-09   1.5196020757705573E+00
 SKALA_GPW| Active atom-composite tau range  -1.5487730256240238E-07   8.8775841999090559E+01
 SKALA_GPW| Active atom-composite tau integral   2.8295602019247397E+01
 SKALA_GPW| Active atom-composite max gradient   8.5120657485120894E+00
     5 OT DIIS     0.10E+00   11.4     0.00001614       -34.9214547683 -3.26E-08
 SKALA_GPW| Atom-composite cross support/maxima   2.762835939863E+00   0.000000000000E+00   0.000000000000E+00   0.000000000000E+00
 SKALA_GPW| Active atom-composite XC energy  -5.9790044673788234E+00
 SKALA_GPW| Active atom-composite electrons   7.9999997961704024E+00
 SKALA_GPW| Active atom-composite density range  -3.9995148781790858E-09   1.5196031115296709E+00
 SKALA_GPW| Active atom-composite tau range  -1.5488072803027080E-07   8.8775912926290346E+01
 SKALA_GPW| Active atom-composite tau integral   2.8295657634989279E+01
 SKALA_GPW| Active atom-composite max gradient   8.5120707740622468E+00
     6 OT DIIS     0.10E+00   11.1     0.00000904       -34.9214547557  1.26E-08
 SKALA_GPW| Atom-composite cross support/maxima   2.762835939863E+00   0.000000000000E+00   0.000000000000E+00   0.000000000000E+00
 SKALA_GPW| Active atom-composite XC energy  -5.9790247797608274E+00
 SKALA_GPW| Active atom-composite electrons   7.9999997961749738E+00
 SKALA_GPW| Active atom-composite density range  -4.0060108034934928E-09   1.5196043496257050E+00
 SKALA_GPW| Active atom-composite tau range  -1.5488537904055059E-07   8.8775980108568504E+01
 SKALA_GPW| Active atom-composite tau integral   2.8295727157668011E+01
 SKALA_GPW| Active atom-composite max gradient   8.5120758611593743E+00
     7 OT DIIS     0.10E+00   11.2     0.00000021       -34.9214547629 -7.20E-09
 SKALA_GPW| Atom-composite cross support/maxima   2.762835939863E+00   0.000000000000E+00   0.000000000000E+00   0.000000000000E+00
 SKALA_GPW| Active atom-composite XC energy  -5.9790236700682744E+00
 SKALA_GPW| Active atom-composite electrons   7.9999997961748583E+00
 SKALA_GPW| Active atom-composite density range  -4.0056887107484548E-09   1.5196042451875746E+00
 SKALA_GPW| Active atom-composite tau range  -1.5488514540631593E-07   8.8775974292052283E+01
 SKALA_GPW| Active atom-composite tau integral   2.8295722981877194E+01
 SKALA_GPW| Active atom-composite max gradient   8.5120753664770579E+00
     8 OT DIIS     0.10E+00   11.4     0.00000028       -34.9214547672 -4.30E-09
 SKALA_GPW| Atom-composite cross support/maxima   2.762835939863E+00   0.000000000000E+00   0.000000000000E+00   0.000000000000E+00
 SKALA_GPW| Active atom-composite XC energy  -5.9790243277027697E+00
 SKALA_GPW| Active atom-composite electrons   7.9999997961748734E+00
 SKALA_GPW| Active atom-composite density range  -4.0058867034046405E-09   1.5196042997657355E+00
 SKALA_GPW| Active atom-composite tau range  -1.5488528829718261E-07   8.8775977310525874E+01
 SKALA_GPW| Active atom-composite tau integral   2.8295725385180848E+01
 SKALA_GPW| Active atom-composite max gradient   8.5120756163781337E+00
     9 OT DIIS     0.10E+00   11.4     0.00000003       -34.9214547642  3.03E-09

  *** SCF run converged in     9 steps ***


  Electronic density on regular grids:         -7.9999955150        0.0000044850
  Core density on regular grids:                8.0000000000       -0.0000000000
  Total charge density on r-space grids:        0.0000044850
  Total charge density g-space grids:           0.0000044850

  Overlap energy of the core charge distribution:               0.00000000000000
  Self energy of the core charge distribution:                -94.95343708441699
  Core Hamiltonian energy:                                     26.35284989802850
  Hartree energy:                                              39.65815674989506
  Exchange-correlation energy:                                  0.00000000000000

  GAPW_XC| Exc from hard and soft atomic rho1:                 -5.97902432770277

  Total energy:                                               -34.92145476419621

  outer SCF iter =    1 RMS gradient =   0.29E-07 energy =        -34.9214547642
  outer SCF loop converged in   1 iterations or    9 steps


 !-----------------------------------------------------------------------------!
                     Mulliken Population Analysis

 #  Atom  Element  Kind  Atomic population                           Net charge
       1     Ne       1          8.000000                              0.000000
 # Total charge                              8.000000                  0.000000

 !-----------------------------------------------------------------------------!

 !-----------------------------------------------------------------------------!
                           Hirshfeld Charges

  #Atom  Element  Kind  Ref Charge     Population                    Net charge
      1       Ne     1       8.000          8.000                         0.000

  Total Charge                                                            0.000
 !-----------------------------------------------------------------------------!

 ENERGY| Total FORCE_EVAL ( QS ) energy [hartree]            -34.921454764196206

 -------------------------------------------------------------------------------
 -                                                                             -
 -                                DBCSR STATISTICS                             -
 -                                                                             -
 -------------------------------------------------------------------------------
 COUNTER                                    TOTAL       BLAS       SMM       ACC
 flops     4 x     4 x     4                11008       0.0%    100.0%      0.0%     
 flops     4 x     4 x    29                34336       0.0%    100.0%      0.0%     
 flops    29 x     4 x     4                42688       0.0%    100.0%      0.0%     
 flops    29 x    29 x     4                67280       0.0%    100.0%      0.0%     
 flops    29 x     4 x    29               316216       0.0%    100.0%      0.0%     
 flops inhomo. stacks                           0       0.0%      0.0%      0.0%
 flops total                       471.528000E+03       0.0%    100.0%      0.0%
 flops max/rank                    471.528000E+03       0.0%    100.0%      0.0%
 matmuls inhomo. stacks                         0       0.0%      0.0%      0.0%
 matmuls total                                226       0.0%    100.0%      0.0%
 number of processed stacks                   226       0.0%    100.0%      0.0%
 average stack size                                     0.0       1.0       0.0
 marketing flops                   472.456000E+03
 -------------------------------------------------------------------------------
 # multiplications                            227
 max memory usage/rank             360.024343E+09
 # max total images/rank                        1
 # max 3D layers                                1
 # MPI messages exchanged                       0
 -------------------------------------------------------------------------------
 -                                                                             -
 -                      DBCSR MESSAGE PASSING PERFORMANCE                      -
 -                                                                             -
 -------------------------------------------------------------------------------
 ROUTINE             CALLS      AVE VOLUME [Bytes]
 MP_Bcast                6                     12.
 MP_Allreduce         1109                      8.
 MP_Alltoall           863                    320.
 MP_ISend              904                     20.
 MP_IRecv              904                     20.
 -------------------------------------------------------------------------------

 -------------------------------------------------------------------------------
 -                                                                             -
 -                                GRID STATISTICS                              -
 -                                                                             -
 -------------------------------------------------------------------------------
 LP    KERNEL             BACKEND                              COUNT     PERCENT
 4     collocate ortho    CPU                                   1090      23.69%
 4     integrate ortho    CPU                                    981      21.32%
 2     collocate ortho    CPU                                    890      19.34%
 2     integrate ortho    CPU                                    801      17.41%
 6     collocate ortho    CPU                                    400       8.69%
 6     integrate ortho    CPU                                    360       7.82%
 8     collocate ortho    CPU                                     40       0.87%
 8     integrate ortho    CPU                                     36       0.78%
 0     collocate general  CPU                                      3       0.07%
 0     integrate general  CPU                                      1       0.02%
 -------------------------------------------------------------------------------

 -------------------------------------------------------------------------------
 -                                                                             -
 -                          OFFLOAD MEMPOOL STATISTICS                         -
 -                                                                             -
 -------------------------------------------------------------------------------
 Memory consumption                Number of allocations  Used [MiB]  Size [MiB]
 Host                                                  9         306   268435307
 -------------------------------------------------------------------------------

 MEMORY| Estimated peak process memory [MiB]                               23604

 -------------------------------------------------------------------------------
 ----                             MULTIGRID INFO                            ----
 -------------------------------------------------------------------------------
 count for grid        1:          14663          cutoff [a.u.]          200.00
 count for grid        2:           2648          cutoff [a.u.]           66.67
 count for grid        3:            970          cutoff [a.u.]           22.22
 count for grid        4:            212          cutoff [a.u.]            7.41
 count for grid        5:              0          cutoff [a.u.]            2.47
 total gridlevel count  :          18493

 -------------------------------------------------------------------------------
 -                                                                             -
 -                         MESSAGE PASSING PERFORMANCE                         -
 -                                                                             -
 -------------------------------------------------------------------------------

 ROUTINE             CALLS      AVE VOLUME [Bytes]
 MP_Group               14
 MP_Bcast               65                  87752.
 MP_Allreduce          651               36300211.
 MP_Sync                 9
 MP_comm_split           4
 -------------------------------------------------------------------------------


 -------------------------------------------------------------------------------
 -                                                                             -
 -                           R E F E R E N C E S                               -
 -                                                                             -
 -------------------------------------------------------------------------------
 
 CP2K version 2026.2 (Development Version), the CP2K developers group (2026).
 CP2K is freely available from https://www.cp2k.org/ .
 
 M. Iannuzzi, J. Wilhelm, F. Stein, A. Bussy, H. Elgabarty, D. Golze, A. Hehn, 
 M. Graml, S. Marek, B. Sertcan Gökmen, C. Schran, H. Forbert, R. Z. 
 Khaliullin, A. Kozhevnikov, M. Taillefumier, R. Meli, V. V. Rybkin, M. Brehm, 
 R. Schade, O. Schütt, J. V. Pototschnig, H. Mirhosseini, A. Knüpfer, D. Marx, 
 M. Krack, J. Hutter, T. D. Kühne.
 J. Phys. Chem. B 130, 1237-1310 (2026).
 The CP2K Program Package Made Simple.
 https://doi.org/10.1021/acs.jpcb.5c05851

 L. Wittmann, I. Gordiy, M. Friede, B. Helmich-Paris, S. Grimme, A. Hansen, M. 
 Bursch.
 Phys. Chem. Chem. Phys. 26, 21379-21394 (2024).
 Extension of the D3 and D4 London dispersion corrections to the full actinides 
 series.
 https://doi.org/10.1039/d4cp01514b

 T. D. Kühne, M. Iannuzzi, M. Del Ben, V. V. Rybkin, P. Seewald, F. Stein, T. 
 Laino, R. Z. Khaliullin, O. Schütt, F. Schiffmann, D. Golze, J. Wilhelm, S. 
 Chulkov, M. H. Bani-Hashemian, V. Weber, U. Borstnik, M. Taillefumier, A. S. 
 Jakobovits, A. Lazzaro, H. Pabst, T. Müller, R. Schade, M. Guidon, S. 
 Andermatt, N. Holmberg, G. K. Schenter, A. Hehn, A. Bussy, F. Belleflamme, G. 
 Tabacchi, A. Glöß, M. Lass, I. Bethune, C. J. Mundy, C. Plessl, M. Watkins, 
 J. VandeVondele, M. Krack, J. Hutter.
 J. Chem. Phys. 152, 194103 (2020).
 CP2K: An electronic structure and molecular dynamics software package - 
 Quickstep: Efficient and accurate electronic structure calculations.
 https://doi.org/10.1063/5.0007045

 L. Goerigk, A. Hansen, C. Bauer, S. Ehrlich, A. Najibi, S. Grimme.
 Phys. Chem. Chem. Phys. 19, 32184-32215 (2017).
 A look at the density functional theory zoo with the advanced GMTKN55 database 
 for general main group thermochemistry, kinetics and noncovalent interactions.
 https://doi.org/10.1039/C7CP04913G

 O. Schuett, P. Messmer, J. Hutter, J. VandeVondele.
 Electronic Structure Calculations on Graphics Processing Units, 173-190 (2016).
 GPU-Accelerated Sparse Matrix-Matrix Multiplication for Linear Scaling Density 
 Functional Theory.
 https://doi.org/10.1002/9781118670712.ch8

 U. Borstnik, J. VandeVondele, V. Weber, J. Hutter.
 Parallel Comput. 40, 47-58 (2014).
 Sparse matrix multiplication: The distributed block-compressed sparse row 
 library.
 https://doi.org/10.1016/j.parco.2014.03.012

 S. Grimme, S. Ehrlich, L. Goerigk.
 J. Comput. Chem. 32, 1456 (2011).
 Effect of the damping function in dispersion corrected density functional 
 theory.
 https://doi.org/10.1002/jcc.21759

 S. Grimme, J. Antony, S. Ehrlich, H. Krieg.
 J. Chem. Phys. 132, 154104 (2010).
 A consistent and accurate ab initio parametrization of density functional 
 dispersion correction (DFT-D) for the 94 elements H-Pu.
 https://doi.org/10.1063/1.3382344

 J. VandeVondele, J. Hutter.
 J. Chem. Phys. 127, 114105 (2007).
 Gaussian basis sets for accurate calculations on molecular systems in gas and 
 condensed phases.
 https://doi.org/10.1063/1.2770708

 M. Krack.
 Theor. Chem. Acc. 114, 145-152 (2005).
 Pseudopotentials for H to Kr optimized for gradient-corrected 
 exchange-correlation functionals.
 https://doi.org/10.1007/s00214-005-0655-y

 M. Frigo, S. G. Johnson.
 Proc. IEEE 93, 216-231 (2005).
 The design and implementation of FFTW3.
 https://doi.org/10.1109/JPROC.2004.840301

 J. VandeVondele, J. Hutter.
 J. Chem. Phys. 118, 4365-4369 (2003).
 An efficient orbital transformation method for electronic structure 
 calculations.
 https://doi.org/10.1063/1.1543154

 C. Hartwigsen, S. Goedecker, J. Hutter.
 Phys. Rev. B 58, 3641-3662 (1998).
 Relativistic separable dual-space Gaussian pseudopotentials from H to Rn.
 https://doi.org/10.1103/PhysRevB.58.3641

 S. Goedecker, M. Teter, J. Hutter.
 Phys. Rev. B 54, 1703-1710 (1996).
 Separable dual-space Gaussian pseudopotentials.
 https://doi.org/10.1103/PhysRevB.54.1703


 -------------------------------------------------------------------------------
 -                                                                             -
 -                                T I M I N G                                  -
 -                                                                             -
 -------------------------------------------------------------------------------
 SUBROUTINE                       CALLS  ASD         SELF TIME        TOTAL TIME
                                MAXIMUM       AVERAGE  MAXIMUM  AVERAGE  MAXIMUM
 CP2K                                 1  1.0    0.531    0.531  114.763  114.763
 qs_energies                          1  2.0    0.000    0.000  108.254  108.254
 scf_env_do_scf                       1  3.0    0.000    0.000  104.048  104.048
 scf_env_do_scf_inner_loop            9  4.0    0.001    0.001   94.319   94.319
 qs_ks_update_qs_env                 10  5.0    0.000    0.000   76.184   76.184
 rebuild_ks_matrix                    9  6.0    0.000    0.000   76.184   76.184
 qs_ks_build_kohn_sham_matrix         9  7.0    0.002    0.002   76.184   76.184
 fft_wrap_pw1pw2                    388  9.4    0.007    0.007   59.559   59.559
 calculate_vxc_atom                   9  8.0   23.666   23.666   57.028   57.028
 fft_wrap_pw1pw2_200                160 10.4   16.004   16.004   55.219   55.219
 qs_rho_update_rho_low               10  5.0    0.000    0.000   31.118   31.118
 calculate_rho_elec                  30  6.0    1.386    1.386   31.077   31.077
 density_rs2pw                       30  7.0    0.003    0.003   23.879   23.879
 fft3d_s                            389 11.4   23.766   23.766   23.781   23.781
 xc_pw_derive                        54  9.5    0.001    0.001   20.127   20.127
 pw_scatter_s                       183 12.2   13.532   13.532   13.532   13.532
 xc_pw_divergence                     9  9.0    0.001    0.001   13.528   13.528
 sum_up_and_integrate                 9  8.0    0.000    0.000   12.324   12.324
 integrate_v_rspace                  27  9.0    0.015    0.015   12.211   12.211
 potential_pw2rs                     27 10.0    0.076    0.076   11.945   11.945
 init_scf_loop                        1  4.0    0.000    0.000    9.727    9.727
 grid_collocate_task_list            30  7.0    5.813    5.813    5.813    5.813
 qs_init_subsys                       1  2.0    0.001    0.001    5.494    5.494
 qs_env_setup                         1  3.0    0.000    0.000    5.441    5.441
 qs_env_rebuild_pw_env                2  3.5    0.000    0.000    5.440    5.440
 pw_env_rebuild                       1  5.0    0.000    0.000    5.440    5.440
 pw_grid_setup                        5  6.0    0.000    0.000    5.439    5.439
 pw_grid_setup_internal               5  7.0    0.061    0.061    5.439    5.439
 pw_grid_sort                         5  8.0    3.791    3.791    4.845    4.845
 pw_gather_s                        205 10.8    3.775    3.775    3.775    3.775
 fft_wrap_pw1pw2_70                  57 10.4    1.154    1.154    3.691    3.691
 init_scf_run                         1  3.0    0.000    0.000    3.497    3.497
 scf_env_initial_rho_setup            1  4.0    0.000    0.000    3.497    3.497
 gaVxcgb_GC                          18  9.0    3.324    3.324    3.324    3.324
 pw_poisson_solve                     9  8.0    0.000    0.000    3.098    3.098
 -------------------------------------------------------------------------------

 The number of warnings for this run is : 0
 
 -------------------------------------------------------------------------------
  **** **** ******  **  PROGRAM ENDED AT                 2026-08-25 06:07:07.412
 ***** ** ***  *** **   PROGRAM RAN ON                                spark-c86c
 **    ****   ******    PROGRAM RAN BY                                  kuehne88
 ***** **    ** ** **   PROGRAM PROCESS ID                                637195
  **** **  *******  **  PROGRAM STOPPED IN /home/kuehne88/work/native-skala-spar
                                           k/diet-production-p25/gapwxc-gth-one-
                                           center/d078cfcbf6d52ba080868acb056029
                                           6bb7c4542a
