 DBCSR| CPU Multiplication driver                                           XSMM (U)
 DBCSR| Multrec recursion limit                                              512 (U)
 DBCSR| Multiplication stack size                                           1000 (D)
 DBCSR| Maximum elements for images                                    UNLIMITED (U)
 DBCSR| Multiplicative factor virtual images                                   1 (U)
 DBCSR| Use multiplication densification                                       T (D)
 DBCSR| Multiplication size stacks                                             3 (U)
 DBCSR| Use memory pool for CPU allocation                                     F (U)
 DBCSR| Number of 3D layers                                               SINGLE (U)
 DBCSR| Use MPI memory allocation                                              F (U)
 DBCSR| Use RMA algorithm                                                      F (U)
 DBCSR| Use Communication thread                                               T (U)
 DBCSR| Communication thread load                                             57 (D)
 DBCSR| MPI: My process id                                                     0
 DBCSR| MPI: Number of processes                                               1
 DBCSR| OMP: Current number of threads                                         9
 DBCSR| OMP: Max number of threads                                             9
 DBCSR| Split modifier for TAS multiplication algorithm                  1.0E+00 (U)


  **** **** ******  **  PROGRAM STARTED AT               2026-09-04 06:42:48.270
 ***** ** ***  *** **   PROGRAM STARTED ON                            spark-c86c
 **    ****   ******    PROGRAM STARTED BY                              kuehne88
 ***** **    ** ** **   PROGRAM PROCESS ID                               2425104
  **** **  *******  **  PROGRAM STARTED IN /home/kuehne88/work/native-skala-spar
                                           k/goldzak12/runs/diagnostic-spark-hoc
                                           -alp-v08-fsi-from-clean-v07-wave124-2
                                           0260904/production/hybrid-one-center/
                                           AlP/v08

 CP2K| version string:                 CP2K version 2026.2 (Development Version)
 CP2K| source code revision number:                                   246ece5193
 CP2K| cp2kflags: omp parallel scalapack spglib openblas libtorch libtorch_cuda 
 CP2K| is freely available from                            https://www.cp2k.org/
 CP2K| Program compiled at                                   2026-09-02 16:08:48
 CP2K| Program compiled on                                            spark-c86c
 CP2K| Program compiled for                                              aarch64
 CP2K| Data directory path      /home/kuehne88/work/native-skala-spark/cp2k/data
 CP2K| Input file name                                          actual-input.inp

 GLOBAL| Force Environment number                                              1
 GLOBAL| Basis set file name                             BASIS_MOLOPT_UZH_2026.2
 GLOBAL| Potential file name                                POTENTIAL_UZH_2026.2
 GLOBAL| MM Potential file name                                     MM_POTENTIAL
 GLOBAL| Coordinate file name                                      __STD_INPUT__
 GLOBAL| Method name                                                        CP2K
 GLOBAL| Project name                   G12_AlP_hybrid-one-center_v1p0555555556_
 GLOBAL| Run type                                                         ENERGY
 GLOBAL| FFT library                                                       FFTW3
 GLOBAL| Diagonalization library                                       ScaLAPACK
 GLOBAL| Cholesky decomposition library                                ScaLAPACK
 GLOBAL| DGEMM library                                                      BLAS
 GLOBAL| Direct generalized diagonalization requested                          F
 GLOBAL| Orthonormality check for eigenvectors                          DISABLED
 GLOBAL| Matrix multiplication library                                 ScaLAPACK
 GLOBAL| All-to-all communication in single precision                          F
 GLOBAL| FFTs using library dependent lengths                                  F
 GLOBAL| Grid backend                                                       AUTO
 GLOBAL| Global print level                                               MEDIUM
 GLOBAL| MPI I/O enabled                                                       T
 GLOBAL| Total number of message passing processes                             1
 GLOBAL| Number of distributed systems (nodes)                                 1
 GLOBAL| Number of threads for this process                                    9
 GLOBAL| This output is from process                                           0
 GLOBAL| OpenMP stack size per thread (OMP_STACKSIZE)                       512M
 GLOBAL| CPU model name                                                  UNKNOWN
 GLOBAL| CPUID                                                              2000

 MEMORY| system memory details [Kb]
 MEMORY|                        rank 0           min           max       average
 MEMORY| MemTotal            125507828     125507828     125507828     125507828
 MEMORY| MemFree              38813616      38813616      38813616      38813616
 MEMORY| Buffers               1685020       1685020       1685020       1685020
 MEMORY| Cached               74797120      74797120      74797120      74797120
 MEMORY| Slab                  7883884       7883884       7883884       7883884
 MEMORY| SReclaimable          6783520       6783520       6783520       6783520
 MEMORY| MemLikelyFree       122079276     122079276     122079276     122079276


 *** WARNING in environment.F:1107 :: FFT library FFTW3 is not available. ***
 *** Trying FFT library FFTSG.                                            ***


 *** Fundamental physical constants (SI units) ***

 *** Literature: B. J. Mohr and B. N. Taylor,
 ***             CODATA recommended values of the fundamental physical
 ***             constants: 2006, Web Version 5.1
 ***             http://physics.nist.gov/constants

 Speed of light in vacuum [m/s]                             2.99792458000000E+08
 Magnetic constant or permeability of vacuum [N/A**2]       1.25663706143592E-06
 Electric constant or permittivity of vacuum [F/m]          8.85418781762039E-12
 Planck constant (h) [J*s]                                  6.62606896000000E-34
 Planck constant (h-bar) [J*s]                              1.05457162825177E-34
 Elementary charge [C]                                      1.60217648700000E-19
 Electron mass [kg]                                         9.10938215000000E-31
 Electron g factor [ ]                                     -2.00231930436220E+00
 Proton mass [kg]                                           1.67262163700000E-27
 Fine-structure constant                                    7.29735253760000E-03
 Rydberg constant [1/m]                                     1.09737315685270E+07
 Avogadro constant [1/mol]                                  6.02214179000000E+23
 Boltzmann constant [J/K]                                   1.38065040000000E-23
 Atomic mass unit [kg]                                      1.66053878200000E-27
 Bohr radius [m]                                            5.29177208590000E-11

 *** Conversion factors ***

 [u] -> [a.u.]                                              1.82288848426455E+03
 [Angstrom] -> [Bohr] = [a.u.]                              1.88972613288564E+00
 [a.u.] = [Bohr] -> [Angstrom]                              5.29177208590000E-01
 [a.u.] -> [s]                                              2.41888432650478E-17
 [a.u.] -> [fs]                                             2.41888432650478E-02
 [a.u.] -> [J]                                              4.35974393937059E-18
 [a.u.] -> [N]                                              8.23872205491840E-08
 [a.u.] -> [K]                                              3.15774647902944E+05
 [a.u.] -> [kJ/mol]                                         2.62549961709828E+03
 [a.u.] -> [kcal/mol]                                       6.27509468713739E+02
 [a.u.] -> [Pa]                                             2.94210107994716E+13
 [a.u.] -> [bar]                                            2.94210107994716E+08
 [a.u.] -> [atm]                                            2.90362800883016E+08
 [a.u.] -> [eV]                                             2.72113838565563E+01
 [a.u.] -> [Hz]                                             6.57968392072181E+15
 [a.u.] -> [1/cm] (wave numbers)                            2.19474631370540E+05
 [a.u./Bohr**2] -> [1/cm]                                   5.14048714338585E+03
 

 CELL| Volume [angstrom^3]:                                           170.683835
 CELL| Vector a [angstrom]:       5.547     0.000     0.000   |a| =     5.547076
 CELL| Vector b [angstrom]:       0.000     5.547     0.000   |b| =     5.547076
 CELL| Vector c [angstrom]:       0.000     0.000     5.547   |c| =     5.547076
 CELL| Angle (b,c), alpha [degree]:                                    90.000000
 CELL| Angle (a,c), beta  [degree]:                                    90.000000
 CELL| Angle (a,b), gamma [degree]:                                    90.000000
 CELL| Numerically orthorhombic:                                             YES
 CELL| Periodicity                                                           XYZ

 CELL_REF| Volume [angstrom^3]:                                       170.683835
 CELL_REF| Vector a [angstrom     5.547     0.000     0.000   |a| =     5.547076
 CELL_REF| Vector b [angstrom     0.000     5.547     0.000   |b| =     5.547076
 CELL_REF| Vector c [angstrom     0.000     0.000     5.547   |c| =     5.547076
 CELL_REF| Angle (b,c), alpha [degree]:                                90.000000
 CELL_REF| Angle (a,c), beta  [degree]:                                90.000000
 CELL_REF| Angle (a,b), gamma [degree]:                                90.000000
 CELL_REF| Numerically orthorhombic:                                         YES
 CELL_REF| Periodicity                                                       XYZ

 GENERATE|  Preliminary Number of Bonds generated:                             0
 GENERATE|  Achieved consistency in connectivity generation.

 *******************************************************************************
 *******************************************************************************
 **                                                                           **
 **     #####                         ##              ##                      **
 **    ##   ##            ##          ##              ##                      **
 **   ##     ##                       ##            ######                    **
 **   ##     ##  ##   ##  ##   #####  ##  ##   ####   ##    #####    #####    **
 **   ##     ##  ##   ##  ##  ##      ## ##   ##      ##   ##   ##  ##   ##   **
 **   ##  ## ##  ##   ##  ##  ##      ####     ###    ##   ######   ######    **
 **    ##  ###   ##   ##  ##  ##      ## ##      ##   ##   ##       ##        **
 **     #######   #####   ##   #####  ##  ##  ####    ##    #####   ##        **
 **           ##                                                    ##        **
 **                                                                           **
 **                                                ... make the atoms dance   **
 **                                                                           **
 **            Copyright (C) by CP2K developers group (2000-2026)             **
 **                      J. Chem. Phys. 152, 194103 (2020)                    **
 **                                                                           **
 *******************************************************************************

 DFT| Spin restricted Kohn-Sham (RKS) calculation                            RKS
 DFT| Multiplicity                                                             1
 DFT| Number of spin states                                                    1
 DFT| Charge                                                                   0
 DFT| Self-interaction correction (SIC)                                       NO
 DFT| Cutoffs: density                                              1.000000E-10
 DFT|          gradient                                             1.000000E-10
 DFT|          tau                                                  1.000000E-10
 DFT|          cutoff_smoothing_range                               0.000000E+00
 DFT| XC density smoothing                                                  NONE
 DFT| XC derivatives                                                          PW

 FUNCTIONAL| GAUXC:
 FUNCTIONAL| Functional computed by GauXC Skala model SKALA                     

 vdW POTENTIAL|                                                   Pair Potential
 vdW POTENTIAL|          DFT-D3 (Version 3.1)
 vdW POTENTIAL|          Potential Form: S. Grimme et al, JCP 132: 154104 (2010)
 vdW POTENTIAL|          BJ Damping: S. Grimme et al, JCC 32: 1456 (2011)
 vdW POTENTIAL|          Cutoff Radius [Bohr]:                             37.79
 vdW POTENTIAL|          s6 Scaling Factor:                               1.0000
 vdW POTENTIAL|          a1 Damping Factor:                               0.3981
 vdW POTENTIAL|          s8 Scaling Factor:                               1.9889
 vdW POTENTIAL|          a2 Damping Factor:                               4.4211
 vdW POTENTIAL|          Cutoff for CN calculation:                   0.1000E-05

 QS| Method:                                                                GAPW
 QS| Density plane wave grid type                        NON-SPHERICAL FULLSPACE
 QS| Number of grid levels:                                                    5
 QS| Density cutoff [a.u.]:                                                400.0
 QS| Multi grid cutoff [a.u.]: 1) grid level                               400.0
 QS|                           2) grid level                               133.3
 QS|                           3) grid level                                44.4
 QS|                           4) grid level                                14.8
 QS|                           5) grid level                                 4.9
 QS| Grid level progression factor:                                          3.0
 QS| Relative density cutoff [a.u.]:                                        30.0
 QS| Interaction thresholds: eps_pgf_orb:                                1.0E-06
 QS|                         eps_filter_matrix:                          0.0E+00
 QS|                         eps_core_charge:                            1.0E-14
 QS|                         eps_rho_gspace:                             1.0E-12
 QS|                         eps_rho_rspace:                             1.0E-12
 QS|                         eps_gvg_rspace:                             1.0E-06
 QS|                         eps_ppl:                                    1.0E-02
 QS|                         eps_ppnl:                                   1.0E-08
 QS| GAPW|      XC integration using accurate scheme: Ref. exponent     6.000000
 QS| GAPW|      One center basis extended with primitives (small:s)
 QS| GAPW|                   eps_fit:                                    1.0E-04
 QS| GAPW|                   eps_iso:                                    1.0E-12
 QS| GAPW|                   eps_svd:                                    1.0E-08
 QS| GAPW|                   eps_cpc:                                    1.0E-12
 QS| GAPW|   atom-r-grid: quadrature:                                     GC_LOG
 QS| GAPW|      atom-s-grid:  max l :                                          6
 QS| GAPW|      max_l_rho0 :                                                   4


 ATOMIC KIND INFORMATION

  1. Atomic kind: Al                                    Number of atoms:       4

     Orbital Basis Set                                   TZV2P-MOLOPT-PBE-GTH-q3

       Number of orbital shell sets:                                           1
       Number of orbital shells:                                               9
       Number of primitive Cartesian functions:                                4
       Number of Cartesian basis functions:                                   34
       Number of spherical basis functions:                                   29
       Norm type:                                                              2

       Normalised Cartesian orbitals:

                        Set   Shell   Orbital            Exponent    Coefficient

                          1       1    2s                0.932557       0.083073
                                                         0.319866       0.005280
                                                         0.138316      -0.124729
                                                         0.047186      -0.024582

                          1       2    3s                0.932557      -1.003094
                                                         0.319866       0.522344
                                                         0.138316       0.044175
                                                         0.047186      -0.076887

                          1       3    4s                0.932557      -0.514791
                                                         0.319866      -0.029539
                                                         0.138316      -0.075728
                                                         0.047186       0.056402

                          1       4    3px               0.932557       0.068696
                                                         0.319866      -0.093391
                                                         0.138316      -0.065498
                                                         0.047186      -0.010400
                          1       4    3py               0.932557       0.068696
                                                         0.319866      -0.093391
                                                         0.138316      -0.065498
                                                         0.047186      -0.010400
                          1       4    3pz               0.932557       0.068696
                                                         0.319866      -0.093391
                                                         0.138316      -0.065498
                                                         0.047186      -0.010400

                          1       5    4px               0.932557      -0.246289
                                                         0.319866       0.398702
                                                         0.138316      -0.014422
                                                         0.047186      -0.024688
                          1       5    4py               0.932557      -0.246289
                                                         0.319866       0.398702
                                                         0.138316      -0.014422
                                                         0.047186      -0.024688
                          1       5    4pz               0.932557      -0.246289
                                                         0.319866       0.398702
                                                         0.138316      -0.014422
                                                         0.047186      -0.024688

                          1       6    5px               0.932557      -1.119223
                                                         0.319866       0.162694
                                                         0.138316      -0.115503
                                                         0.047186       0.032978
                          1       6    5py               0.932557      -1.119223
                                                         0.319866       0.162694
                                                         0.138316      -0.115503
                                                         0.047186       0.032978
                          1       6    5pz               0.932557      -1.119223
                                                         0.319866       0.162694
                                                         0.138316      -0.115503
                                                         0.047186       0.032978

                          1       7    4dx2              0.932557       0.314587
                                                         0.319866       0.129094
                                                         0.138316       0.015385
                                                         0.047186       0.000911
                          1       7    4dxy              0.932557       0.544880
                                                         0.319866       0.223598
                                                         0.138316       0.026648
                                                         0.047186       0.001577
                          1       7    4dxz              0.932557       0.544880
                                                         0.319866       0.223598
                                                         0.138316       0.026648
                                                         0.047186       0.001577
                          1       7    4dy2              0.932557       0.314587
                                                         0.319866       0.129094
                                                         0.138316       0.015385
                                                         0.047186       0.000911
                          1       7    4dyz              0.932557       0.544880
                                                         0.319866       0.223598
                                                         0.138316       0.026648
                                                         0.047186       0.001577
                          1       7    4dz2              0.932557       0.314587
                                                         0.319866       0.129094
                                                         0.138316       0.015385
                                                         0.047186       0.000911

                          1       8    5dx2              0.932557      -1.719432
                                                         0.319866       0.207166
                                                         0.138316      -0.050169
                                                         0.047186       0.000753
                          1       8    5dxy              0.932557      -2.978144
                                                         0.319866       0.358822
                                                         0.138316      -0.086895
                                                         0.047186       0.001305
                          1       8    5dxz              0.932557      -2.978144
                                                         0.319866       0.358822
                                                         0.138316      -0.086895
                                                         0.047186       0.001305
                          1       8    5dy2              0.932557      -1.719432
                                                         0.319866       0.207166
                                                         0.138316      -0.050169
                                                         0.047186       0.000753
                          1       8    5dyz              0.932557      -2.978144
                                                         0.319866       0.358822
                                                         0.138316      -0.086895
                                                         0.047186       0.001305
                          1       8    5dz2              0.932557      -1.719432
                                                         0.319866       0.207166
                                                         0.138316      -0.050169
                                                         0.047186       0.000753

                          1       9    5fx3              0.932557       0.230253
                                                         0.319866       0.076507
                                                         0.138316       0.004727
                                                         0.047186       0.000082
                          1       9    5fx2y             0.932557       0.514860
                                                         0.319866       0.171074
                                                         0.138316       0.010571
                                                         0.047186       0.000183
                          1       9    5fx2z             0.932557       0.514860
                                                         0.319866       0.171074
                                                         0.138316       0.010571
                                                         0.047186       0.000183
                          1       9    5fxy2             0.932557       0.514860
                                                         0.319866       0.171074
                                                         0.138316       0.010571
                                                         0.047186       0.000183
                          1       9    5fxyz             0.932557       0.891765
                                                         0.319866       0.296309
                                                         0.138316       0.018310
                                                         0.047186       0.000318
                          1       9    5fxz2             0.932557       0.514860
                                                         0.319866       0.171074
                                                         0.138316       0.010571
                                                         0.047186       0.000183
                          1       9    5fy3              0.932557       0.230253
                                                         0.319866       0.076507
                                                         0.138316       0.004727
                                                         0.047186       0.000082
                          1       9    5fy2z             0.932557       0.514860
                                                         0.319866       0.171074
                                                         0.138316       0.010571
                                                         0.047186       0.000183
                          1       9    5fyz2             0.932557       0.514860
                                                         0.319866       0.171074
                                                         0.138316       0.010571
                                                         0.047186       0.000183
                          1       9    5fz3              0.932557       0.230253
                                                         0.319866       0.076507
                                                         0.138316       0.004727
                                                         0.047186       0.000082

       Atomic covalent radius [Angstrom]:                                  1.180

       Atomic van der Waals radius [Angstrom]:                             1.840

     The atoms of this atomic kind are PAW atoms (GAPW):
       Hard Gaussian function radius:                                      1.900
       Rho0 radius:                                                        1.900
       Maximum GTO radius used for PAW projector construction:            24.566

     GAPW Soft Basis Set                            TZV2P-MOLOPT-PBE-GTH-q3_soft

       Number of orbital shell sets:                                           1
       Number of orbital shells:                                               9
       Number of primitive Cartesian functions:                                4
       Number of Cartesian basis functions:                                   34
       Number of spherical basis functions:                                   29
       Norm type:                                                              2

       Normalised Cartesian orbitals:

                        Set   Shell   Orbital            Exponent    Coefficient

                          1       1    2s                0.932557       0.083073
                                                         0.319866       0.005280
                                                         0.138316      -0.124729
                                                         0.047186      -0.024582

                          1       2    3s                0.932557      -1.003094
                                                         0.319866       0.522344
                                                         0.138316       0.044175
                                                         0.047186      -0.076887

                          1       3    4s                0.932557      -0.514791
                                                         0.319866      -0.029539
                                                         0.138316      -0.075728
                                                         0.047186       0.056402

                          1       4    3px               0.932557       0.068696
                                                         0.319866      -0.093391
                                                         0.138316      -0.065498
                                                         0.047186      -0.010400
                          1       4    3py               0.932557       0.068696
                                                         0.319866      -0.093391
                                                         0.138316      -0.065498
                                                         0.047186      -0.010400
                          1       4    3pz               0.932557       0.068696
                                                         0.319866      -0.093391
                                                         0.138316      -0.065498
                                                         0.047186      -0.010400

                          1       5    4px               0.932557      -0.246289
                                                         0.319866       0.398702
                                                         0.138316      -0.014422
                                                         0.047186      -0.024688
                          1       5    4py               0.932557      -0.246289
                                                         0.319866       0.398702
                                                         0.138316      -0.014422
                                                         0.047186      -0.024688
                          1       5    4pz               0.932557      -0.246289
                                                         0.319866       0.398702
                                                         0.138316      -0.014422
                                                         0.047186      -0.024688

                          1       6    5px               0.932557      -1.119223
                                                         0.319866       0.162694
                                                         0.138316      -0.115503
                                                         0.047186       0.032978
                          1       6    5py               0.932557      -1.119223
                                                         0.319866       0.162694
                                                         0.138316      -0.115503
                                                         0.047186       0.032978
                          1       6    5pz               0.932557      -1.119223
                                                         0.319866       0.162694
                                                         0.138316      -0.115503
                                                         0.047186       0.032978

                          1       7    4dx2              0.932557       0.314587
                                                         0.319866       0.129094
                                                         0.138316       0.015385
                                                         0.047186       0.000911
                          1       7    4dxy              0.932557       0.544880
                                                         0.319866       0.223598
                                                         0.138316       0.026648
                                                         0.047186       0.001577
                          1       7    4dxz              0.932557       0.544880
                                                         0.319866       0.223598
                                                         0.138316       0.026648
                                                         0.047186       0.001577
                          1       7    4dy2              0.932557       0.314587
                                                         0.319866       0.129094
                                                         0.138316       0.015385
                                                         0.047186       0.000911
                          1       7    4dyz              0.932557       0.544880
                                                         0.319866       0.223598
                                                         0.138316       0.026648
                                                         0.047186       0.001577
                          1       7    4dz2              0.932557       0.314587
                                                         0.319866       0.129094
                                                         0.138316       0.015385
                                                         0.047186       0.000911

                          1       8    5dx2              0.932557      -1.719432
                                                         0.319866       0.207166
                                                         0.138316      -0.050169
                                                         0.047186       0.000753
                          1       8    5dxy              0.932557      -2.978144
                                                         0.319866       0.358822
                                                         0.138316      -0.086895
                                                         0.047186       0.001305
                          1       8    5dxz              0.932557      -2.978144
                                                         0.319866       0.358822
                                                         0.138316      -0.086895
                                                         0.047186       0.001305
                          1       8    5dy2              0.932557      -1.719432
                                                         0.319866       0.207166
                                                         0.138316      -0.050169
                                                         0.047186       0.000753
                          1       8    5dyz              0.932557      -2.978144
                                                         0.319866       0.358822
                                                         0.138316      -0.086895
                                                         0.047186       0.001305
                          1       8    5dz2              0.932557      -1.719432
                                                         0.319866       0.207166
                                                         0.138316      -0.050169
                                                         0.047186       0.000753

                          1       9    5fx3              0.932557       0.230253
                                                         0.319866       0.076507
                                                         0.138316       0.004727
                                                         0.047186       0.000082
                          1       9    5fx2y             0.932557       0.514860
                                                         0.319866       0.171074
                                                         0.138316       0.010571
                                                         0.047186       0.000183
                          1       9    5fx2z             0.932557       0.514860
                                                         0.319866       0.171074
                                                         0.138316       0.010571
                                                         0.047186       0.000183
                          1       9    5fxy2             0.932557       0.514860
                                                         0.319866       0.171074
                                                         0.138316       0.010571
                                                         0.047186       0.000183
                          1       9    5fxyz             0.932557       0.891765
                                                         0.319866       0.296309
                                                         0.138316       0.018310
                                                         0.047186       0.000318
                          1       9    5fxz2             0.932557       0.514860
                                                         0.319866       0.171074
                                                         0.138316       0.010571
                                                         0.047186       0.000183
                          1       9    5fy3              0.932557       0.230253
                                                         0.319866       0.076507
                                                         0.138316       0.004727
                                                         0.047186       0.000082
                          1       9    5fy2z             0.932557       0.514860
                                                         0.319866       0.171074
                                                         0.138316       0.010571
                                                         0.047186       0.000183
                          1       9    5fyz2             0.932557       0.514860
                                                         0.319866       0.171074
                                                         0.138316       0.010571
                                                         0.047186       0.000183
                          1       9    5fz3              0.932557       0.230253
                                                         0.319866       0.076507
                                                         0.138316       0.004727
                                                         0.047186       0.000082

     GTH Potential information for                                    GTH-PBE-q3

       Description:                       Goedecker-Teter-Hutter pseudopotential
                                           Goedecker et al., PRB 54, 1703 (1996)
                                          Hartwigsen et al., PRB 58, 3641 (1998)
                                                      Krack, TCA 114, 145 (2005)

       Gaussian exponent of the core charge distribution:               2.469029
       Electronic configuration (s p d ...):                       2   1   0   0

       Parameters of the local part of the GTH pseudopotential:

                          rloc        C1          C2          C3          C4
                        0.450010   -7.556450

       Parameters of the non-local part of the GTH pseudopotential:

                   l      r(l)      h(i,j,l)

                   0    0.487441    6.960085   -1.888835
                                   -1.888835    2.438483
                   1    0.562274    1.865363

  2. Atomic kind: P                                     Number of atoms:       4

     Orbital Basis Set                                   TZV2P-MOLOPT-PBE-GTH-q5

       Number of orbital shell sets:                                           1
       Number of orbital shells:                                               9
       Number of primitive Cartesian functions:                                4
       Number of Cartesian basis functions:                                   34
       Number of spherical basis functions:                                   29
       Norm type:                                                              2

       Normalised Cartesian orbitals:

                        Set   Shell   Orbital            Exponent    Coefficient

                          1       1    2s                1.529974       0.330831
                                                         0.572156      -0.121865
                                                         0.221473      -0.178453
                                                         0.075885      -0.020408

                          1       2    3s                1.529974       0.353664
                                                         0.572156      -0.203423
                                                         0.221473       0.005821
                                                         0.075885       0.111796

                          1       3    4s                1.529974      -1.067157
                                                         0.572156       0.214068
                                                         0.221473      -0.177211
                                                         0.075885       0.057956

                          1       4    3px               1.529974       0.268378
                                                         0.572156      -0.381409
                                                         0.221473      -0.118831
                                                         0.075885      -0.003877
                          1       4    3py               1.529974       0.268378
                                                         0.572156      -0.381409
                                                         0.221473      -0.118831
                                                         0.075885      -0.003877
                          1       4    3pz               1.529974       0.268378
                                                         0.572156      -0.381409
                                                         0.221473      -0.118831
                                                         0.075885      -0.003877

                          1       5    4px               1.529974       0.260904
                                                         0.572156      -0.330883
                                                         0.221473       0.080611
                                                         0.075885       0.048633
                          1       5    4py               1.529974       0.260904
                                                         0.572156      -0.330883
                                                         0.221473       0.080611
                                                         0.075885       0.048633
                          1       5    4pz               1.529974       0.260904
                                                         0.572156      -0.330883
                                                         0.221473       0.080611
                                                         0.075885       0.048633

                          1       6    5px               1.529974       0.623329
                                                         0.572156       0.730611
                                                         0.221473      -0.234303
                                                         0.075885       0.056701
                          1       6    5py               1.529974       0.623329
                                                         0.572156       0.730611
                                                         0.221473      -0.234303
                                                         0.075885       0.056701
                          1       6    5pz               1.529974       0.623329
                                                         0.572156       0.730611
                                                         0.221473      -0.234303
                                                         0.075885       0.056701

                          1       7    4dx2              1.529974       0.641565
                                                         0.572156       0.349115
                                                         0.221473       0.047365
                                                         0.075885       0.000033
                          1       7    4dxy              1.529974       1.111223
                                                         0.572156       0.604685
                                                         0.221473       0.082039
                                                         0.075885       0.000058
                          1       7    4dxz              1.529974       1.111223
                                                         0.572156       0.604685
                                                         0.221473       0.082039
                                                         0.075885       0.000058
                          1       7    4dy2              1.529974       0.641565
                                                         0.572156       0.349115
                                                         0.221473       0.047365
                                                         0.075885       0.000033
                          1       7    4dyz              1.529974       1.111223
                                                         0.572156       0.604685
                                                         0.221473       0.082039
                                                         0.075885       0.000058
                          1       7    4dz2              1.529974       0.641565
                                                         0.572156       0.349115
                                                         0.221473       0.047365
                                                         0.075885       0.000033

                          1       8    5dx2              1.529974      -0.416790
                                                         0.572156       0.702038
                                                         0.221473      -0.180280
                                                         0.075885       0.002500
                          1       8    5dxy              1.529974      -0.721901
                                                         0.572156       1.215965
                                                         0.221473      -0.312254
                                                         0.075885       0.004331
                          1       8    5dxz              1.529974      -0.721901
                                                         0.572156       1.215965
                                                         0.221473      -0.312254
                                                         0.075885       0.004331
                          1       8    5dy2              1.529974      -0.416790
                                                         0.572156       0.702038
                                                         0.221473      -0.180280
                                                         0.075885       0.002500
                          1       8    5dyz              1.529974      -0.721901
                                                         0.572156       1.215965
                                                         0.221473      -0.312254
                                                         0.075885       0.004331
                          1       8    5dz2              1.529974      -0.416790
                                                         0.572156       0.702038
                                                         0.221473      -0.180280
                                                         0.075885       0.002500

                          1       9    5fx3              1.529974       0.452264
                                                         0.572156       0.259688
                                                         0.221473       0.022786
                                                         0.075885      -0.000501
                          1       9    5fx2y             1.529974       1.011293
                                                         0.572156       0.580680
                                                         0.221473       0.050951
                                                         0.075885      -0.001120
                          1       9    5fx2z             1.529974       1.011293
                                                         0.572156       0.580680
                                                         0.221473       0.050951
                                                         0.075885      -0.001120
                          1       9    5fxy2             1.529974       1.011293
                                                         0.572156       0.580680
                                                         0.221473       0.050951
                                                         0.075885      -0.001120
                          1       9    5fxyz             1.529974       1.751610
                                                         0.572156       1.005767
                                                         0.221473       0.088251
                                                         0.075885      -0.001939
                          1       9    5fxz2             1.529974       1.011293
                                                         0.572156       0.580680
                                                         0.221473       0.050951
                                                         0.075885      -0.001120
                          1       9    5fy3              1.529974       0.452264
                                                         0.572156       0.259688
                                                         0.221473       0.022786
                                                         0.075885      -0.000501
                          1       9    5fy2z             1.529974       1.011293
                                                         0.572156       0.580680
                                                         0.221473       0.050951
                                                         0.075885      -0.001120
                          1       9    5fyz2             1.529974       1.011293
                                                         0.572156       0.580680
                                                         0.221473       0.050951
                                                         0.075885      -0.001120
                          1       9    5fz3              1.529974       0.452264
                                                         0.572156       0.259688
                                                         0.221473       0.022786
                                                         0.075885      -0.000501

       Atomic covalent radius [Angstrom]:                                  1.060

       Atomic van der Waals radius [Angstrom]:                             1.800

     The atoms of this atomic kind are PAW atoms (GAPW):
       Hard Gaussian function radius:                                      1.800
       Rho0 radius:                                                        1.800
       Maximum GTO radius used for PAW projector construction:            24.566

     GAPW Soft Basis Set                            TZV2P-MOLOPT-PBE-GTH-q5_soft

       Number of orbital shell sets:                                           1
       Number of orbital shells:                                               9
       Number of primitive Cartesian functions:                                4
       Number of Cartesian basis functions:                                   34
       Number of spherical basis functions:                                   29
       Norm type:                                                              2

       Normalised Cartesian orbitals:

                        Set   Shell   Orbital            Exponent    Coefficient

                          1       1    2s                1.529974       0.330831
                                                         0.572156      -0.121865
                                                         0.221473      -0.178453
                                                         0.075885      -0.020408

                          1       2    3s                1.529974       0.353664
                                                         0.572156      -0.203423
                                                         0.221473       0.005821
                                                         0.075885       0.111796

                          1       3    4s                1.529974      -1.067157
                                                         0.572156       0.214068
                                                         0.221473      -0.177211
                                                         0.075885       0.057956

                          1       4    3px               1.529974       0.268378
                                                         0.572156      -0.381409
                                                         0.221473      -0.118831
                                                         0.075885      -0.003877
                          1       4    3py               1.529974       0.268378
                                                         0.572156      -0.381409
                                                         0.221473      -0.118831
                                                         0.075885      -0.003877
                          1       4    3pz               1.529974       0.268378
                                                         0.572156      -0.381409
                                                         0.221473      -0.118831
                                                         0.075885      -0.003877

                          1       5    4px               1.529974       0.260904
                                                         0.572156      -0.330883
                                                         0.221473       0.080611
                                                         0.075885       0.048633
                          1       5    4py               1.529974       0.260904
                                                         0.572156      -0.330883
                                                         0.221473       0.080611
                                                         0.075885       0.048633
                          1       5    4pz               1.529974       0.260904
                                                         0.572156      -0.330883
                                                         0.221473       0.080611
                                                         0.075885       0.048633

                          1       6    5px               1.529974       0.623329
                                                         0.572156       0.730611
                                                         0.221473      -0.234303
                                                         0.075885       0.056701
                          1       6    5py               1.529974       0.623329
                                                         0.572156       0.730611
                                                         0.221473      -0.234303
                                                         0.075885       0.056701
                          1       6    5pz               1.529974       0.623329
                                                         0.572156       0.730611
                                                         0.221473      -0.234303
                                                         0.075885       0.056701

                          1       7    4dx2              1.529974       0.641565
                                                         0.572156       0.349115
                                                         0.221473       0.047365
                                                         0.075885       0.000033
                          1       7    4dxy              1.529974       1.111223
                                                         0.572156       0.604685
                                                         0.221473       0.082039
                                                         0.075885       0.000058
                          1       7    4dxz              1.529974       1.111223
                                                         0.572156       0.604685
                                                         0.221473       0.082039
                                                         0.075885       0.000058
                          1       7    4dy2              1.529974       0.641565
                                                         0.572156       0.349115
                                                         0.221473       0.047365
                                                         0.075885       0.000033
                          1       7    4dyz              1.529974       1.111223
                                                         0.572156       0.604685
                                                         0.221473       0.082039
                                                         0.075885       0.000058
                          1       7    4dz2              1.529974       0.641565
                                                         0.572156       0.349115
                                                         0.221473       0.047365
                                                         0.075885       0.000033

                          1       8    5dx2              1.529974      -0.416790
                                                         0.572156       0.702038
                                                         0.221473      -0.180280
                                                         0.075885       0.002500
                          1       8    5dxy              1.529974      -0.721901
                                                         0.572156       1.215965
                                                         0.221473      -0.312254
                                                         0.075885       0.004331
                          1       8    5dxz              1.529974      -0.721901
                                                         0.572156       1.215965
                                                         0.221473      -0.312254
                                                         0.075885       0.004331
                          1       8    5dy2              1.529974      -0.416790
                                                         0.572156       0.702038
                                                         0.221473      -0.180280
                                                         0.075885       0.002500
                          1       8    5dyz              1.529974      -0.721901
                                                         0.572156       1.215965
                                                         0.221473      -0.312254
                                                         0.075885       0.004331
                          1       8    5dz2              1.529974      -0.416790
                                                         0.572156       0.702038
                                                         0.221473      -0.180280
                                                         0.075885       0.002500

                          1       9    5fx3              1.529974       0.452264
                                                         0.572156       0.259688
                                                         0.221473       0.022786
                                                         0.075885      -0.000501
                          1       9    5fx2y             1.529974       1.011293
                                                         0.572156       0.580680
                                                         0.221473       0.050951
                                                         0.075885      -0.001120
                          1       9    5fx2z             1.529974       1.011293
                                                         0.572156       0.580680
                                                         0.221473       0.050951
                                                         0.075885      -0.001120
                          1       9    5fxy2             1.529974       1.011293
                                                         0.572156       0.580680
                                                         0.221473       0.050951
                                                         0.075885      -0.001120
                          1       9    5fxyz             1.529974       1.751610
                                                         0.572156       1.005767
                                                         0.221473       0.088251
                                                         0.075885      -0.001939
                          1       9    5fxz2             1.529974       1.011293
                                                         0.572156       0.580680
                                                         0.221473       0.050951
                                                         0.075885      -0.001120
                          1       9    5fy3              1.529974       0.452264
                                                         0.572156       0.259688
                                                         0.221473       0.022786
                                                         0.075885      -0.000501
                          1       9    5fy2z             1.529974       1.011293
                                                         0.572156       0.580680
                                                         0.221473       0.050951
                                                         0.075885      -0.001120
                          1       9    5fyz2             1.529974       1.011293
                                                         0.572156       0.580680
                                                         0.221473       0.050951
                                                         0.075885      -0.001120
                          1       9    5fz3              1.529974       0.452264
                                                         0.572156       0.259688
                                                         0.221473       0.022786
                                                         0.075885      -0.000501

     GTH Potential information for                                    GTH-PBE-q5

       Description:                       Goedecker-Teter-Hutter pseudopotential
                                           Goedecker et al., PRB 54, 1703 (1996)
                                          Hartwigsen et al., PRB 58, 3641 (1998)
                                                      Krack, TCA 114, 145 (2005)

       Gaussian exponent of the core charge distribution:               2.702572
       Electronic configuration (s p d ...):                       2   3   0   0

       Parameters of the local part of the GTH pseudopotential:

                          rloc        C1          C2          C3          C4
                        0.430127   -5.862875

       Parameters of the non-local part of the GTH pseudopotential:

                   l      r(l)      h(i,j,l)

                   0    0.396379   11.009068   -3.470357
                                   -3.470357    4.480230
                   1    0.448294    3.056058


 MOLECULE KIND INFORMATION


 All atoms are their own molecule, skipping detailed information


 TOTAL NUMBERS AND MAXIMUM NUMBERS

  Total number of            - Atomic kinds:                                   2
                             - Atoms:                                          8
                             - Shell sets:                                     8
                             - Shells:                                        72
                             - Primitive Cartesian functions:                 32
                             - Cartesian basis functions:                    272
                             - Spherical basis functions:                    232

  Maximum angular momentum of- Orbital basis functions:                        3
                             - Local part of the GTH pseudopotential:          0
                             - Non-local part of the GTH pseudopotential:      2


 MODULE QUICKSTEP: ATOMIC COORDINATES IN ANGSTROM

   Atom Kind Element         X             Y             Z       Z(eff)     Mass
      1    1 Al   13      0.000000      0.000000      0.000000   3.0000  26.9815
      2    1 Al   13      0.000000      2.773538      2.773538   3.0000  26.9815
      3    1 Al   13      2.773538      0.000000      2.773538   3.0000  26.9815
      4    1 Al   13      2.773538      2.773538      0.000000   3.0000  26.9815
      5    2 P    15      1.386769      1.386769      1.386769   5.0000  30.9738
      6    2 P    15      1.386769      4.160307      4.160307   5.0000  30.9738
      7    2 P    15      4.160307      1.386769      4.160307   5.0000  30.9738
      8    2 P    15      4.160307      4.160307      1.386769   5.0000  30.9738



 SCF PARAMETERS         Density guess:                                   RESTART
                        --------------------------------------------------------
                        max_scf:                                              50
                        max_scf_history:                                       0
                        max_diis:                                              4
                        --------------------------------------------------------
                        eps_scf:                                        5.00E-07
                        eps_scf_history:                                0.00E+00
                        eps_diis:                                       0.00E+00
                        eps_eigval:                                     1.00E-05
                        --------------------------------------------------------
                        level_shift [a.u.]:                             0.000000
                        --------------------------------------------------------
                        Outer loop SCF in use 
                        No variables optimised in outer loop
                        eps_scf                                         5.00E-07
                        max_scf                                                4
                        No outer loop optimization
                        step_size                                       5.00E-01

 PW_GRID| Information for grid number                                          1
 PW_GRID| Cutoff [a.u.]                                                    400.0
 PW_GRID| spherical cutoff:                                                   NO
 PW_GRID|   Bounds   1            -48      47                Points:          96
 PW_GRID|   Bounds   2            -48      47                Points:          96
 PW_GRID|   Bounds   3            -48      47                Points:          96
 PW_GRID| Volume element (a.u.^3)  0.1302E-02     Volume (a.u.^3)      1151.8316
 PW_GRID| Grid span                                                    FULLSPACE

 PW_GRID| Information for grid number                                          2
 PW_GRID| Number of the reference grid                                         1
 PW_GRID| Cutoff [a.u.]                                                    133.3
 PW_GRID| spherical cutoff:                                                   NO
 PW_GRID|   Bounds   1            -30      29                Points:          60
 PW_GRID|   Bounds   2            -30      29                Points:          60
 PW_GRID|   Bounds   3            -30      29                Points:          60
 PW_GRID| Volume element (a.u.^3)  0.5333E-02     Volume (a.u.^3)      1151.8316
 PW_GRID| Grid span                                                    FULLSPACE

 PW_GRID| Information for grid number                                          3
 PW_GRID| Number of the reference grid                                         1
 PW_GRID| Cutoff [a.u.]                                                     44.4
 PW_GRID| spherical cutoff:                                                   NO
 PW_GRID|   Bounds   1            -16      15                Points:          32
 PW_GRID|   Bounds   2            -16      15                Points:          32
 PW_GRID|   Bounds   3            -16      15                Points:          32
 PW_GRID| Volume element (a.u.^3)  0.3515E-01     Volume (a.u.^3)      1151.8316
 PW_GRID| Grid span                                                    FULLSPACE

 PW_GRID| Information for grid number                                          4
 PW_GRID| Number of the reference grid                                         1
 PW_GRID| Cutoff [a.u.]                                                     14.8
 PW_GRID| spherical cutoff:                                                   NO
 PW_GRID|   Bounds   1            -10       9                Points:          20
 PW_GRID|   Bounds   2            -10       9                Points:          20
 PW_GRID|   Bounds   3            -10       9                Points:          20
 PW_GRID| Volume element (a.u.^3)  0.1440         Volume (a.u.^3)      1151.8316
 PW_GRID| Grid span                                                    FULLSPACE

 PW_GRID| Information for grid number                                          5
 PW_GRID| Number of the reference grid                                         1
 PW_GRID| Cutoff [a.u.]                                                      4.9
 PW_GRID| spherical cutoff:                                                   NO
 PW_GRID|   Bounds   1             -6       5                Points:          12
 PW_GRID|   Bounds   2             -6       5                Points:          12
 PW_GRID|   Bounds   3             -6       5                Points:          12
 PW_GRID| Volume element (a.u.^3)  0.6666         Volume (a.u.^3)      1151.8316
 PW_GRID| Grid span                                                    FULLSPACE

 POISSON| Solver                                                        PERIODIC
 POISSON| Periodicity                                                        XYZ

 RS_GRID| Information for grid number                                          1
 RS_GRID|   Bounds   1            -48      47                Points:          96
 RS_GRID|   Bounds   2            -48      47                Points:          96
 RS_GRID|   Bounds   3            -48      47                Points:          96

 RS_GRID| Information for grid number                                          2
 RS_GRID|   Bounds   1            -30      29                Points:          60
 RS_GRID|   Bounds   2            -30      29                Points:          60
 RS_GRID|   Bounds   3            -30      29                Points:          60

 RS_GRID| Information for grid number                                          3
 RS_GRID|   Bounds   1            -16      15                Points:          32
 RS_GRID|   Bounds   2            -16      15                Points:          32
 RS_GRID|   Bounds   3            -16      15                Points:          32

 RS_GRID| Information for grid number                                          4
 RS_GRID|   Bounds   1            -10       9                Points:          20
 RS_GRID|   Bounds   2            -10       9                Points:          20
 RS_GRID|   Bounds   3            -10       9                Points:          20

 RS_GRID| Information for grid number                                          5
 RS_GRID|   Bounds   1             -6       5                Points:          12
 RS_GRID|   Bounds   2             -6       5                Points:          12
 RS_GRID|   Bounds   3             -6       5                Points:          12

 *******************************************************************************
                                    Kpoints
 *******************************************************************************
 BRILLOUIN| K-point scheme                                        Monkhorst-Pack
 BRILLOUIN| K-Point grid                                             4    4    4
 BRILLOUIN| Gamma-centered k-point mesh                                     ON
 BRILLOUIN| K-point symmetry accuracy                               0.100000E-07
 BRILLOUIN| K-Point point group symmetrization                                ON
 BRILLOUIN| Restrict symmetry to inversion                                    ON
 BRILLOUIN| Wavefunction type                                            COMPLEX
 BRILLOUIN| List of Kpoints [2 Pi/Bohr]                                       36
 BRILLOUIN| Number           Weight            X              Y              Z
 BRILLOUIN|     1           0.03125       -0.25000       -0.25000       -0.25000
 BRILLOUIN|     2           0.03125       -0.25000       -0.25000        0.00000
 BRILLOUIN|     3           0.03125       -0.25000       -0.25000        0.25000
 BRILLOUIN|     4           0.03125       -0.25000       -0.25000        0.50000
 BRILLOUIN|     5           0.03125       -0.25000        0.00000       -0.25000
 BRILLOUIN|     6           0.03125       -0.25000        0.00000        0.00000
 BRILLOUIN|     7           0.03125       -0.25000        0.00000        0.25000
 BRILLOUIN|     8           0.03125       -0.25000        0.00000        0.50000
 BRILLOUIN|     9           0.03125       -0.25000        0.25000       -0.25000
 BRILLOUIN|    10           0.03125       -0.25000        0.25000        0.00000
 BRILLOUIN|    11           0.03125       -0.25000        0.25000        0.25000
 BRILLOUIN|    12           0.03125       -0.25000        0.25000        0.50000
 BRILLOUIN|    13           0.03125       -0.25000        0.50000       -0.25000
 BRILLOUIN|    14           0.03125       -0.25000        0.50000        0.00000
 BRILLOUIN|    15           0.03125       -0.25000        0.50000        0.25000
 BRILLOUIN|    16           0.03125       -0.25000        0.50000        0.50000
 BRILLOUIN|    17           0.03125        0.00000       -0.25000       -0.25000
 BRILLOUIN|    18           0.03125        0.00000       -0.25000        0.00000
 BRILLOUIN|    19           0.03125        0.00000       -0.25000        0.25000
 BRILLOUIN|    20           0.03125        0.00000       -0.25000        0.50000
 BRILLOUIN|    21           0.03125        0.00000        0.00000       -0.25000
 BRILLOUIN|    22           0.01562        0.00000        0.00000        0.00000
 BRILLOUIN|    23           0.01562        0.00000        0.00000        0.50000
 BRILLOUIN|    24           0.03125        0.00000        0.50000       -0.25000
 BRILLOUIN|    25           0.01562        0.00000        0.50000        0.00000
 BRILLOUIN|    26           0.01562        0.00000        0.50000        0.50000
 BRILLOUIN|    27           0.03125        0.50000       -0.25000       -0.25000
 BRILLOUIN|    28           0.03125        0.50000       -0.25000        0.00000
 BRILLOUIN|    29           0.03125        0.50000       -0.25000        0.25000
 BRILLOUIN|    30           0.03125        0.50000       -0.25000        0.50000
 BRILLOUIN|    31           0.03125        0.50000        0.00000       -0.25000
 BRILLOUIN|    32           0.01562        0.50000        0.00000        0.00000
 BRILLOUIN|    33           0.01562        0.50000        0.00000        0.50000
 BRILLOUIN|    34           0.03125        0.50000        0.50000       -0.25000
 BRILLOUIN|    35           0.01562        0.50000        0.50000        0.00000
 BRILLOUIN|    36           0.01562        0.50000        0.50000        0.50000
 *******************************************************************************

 *** WARNING in qs_scf_initialization.F:718 :: MO derivative methods flag ***
 *** has been switched off for kpoint calculation                         ***


 Extrapolation method: initial_guess

 Number of electrons:                                                         32
 Number of occupied orbitals:                                                 16
 Number of molecular orbitals:                                                16

 Number of orbital functions:                                                232
 Number of independent orbital functions:                                    232


 SCF WAVEFUNCTION OPTIMIZATION

  ----------------------------------- OT ---------------------------------------
  Minimizer      : DIIS                : direct inversion
                                         in the iterative subspace
                                         using   7 DIIS vectors
                                         safer DIIS on
  Preconditioner : FULL_SINGLE_INVERSE : inversion of 
                                         H + eS - 2*(Sc)(c^T*H*c+const)(Sc)^T
  Precond_solver : DEFAULT
  stepsize       :    0.00100000                  energy_gap     :    0.00100000
  ortho_irac     : CHOL                           irac_degree    :             4
  max_irac       :            50                  eps_irac       :   0.10000E-09
  eps_irac_switch:   0.10000E-01                  eps_irac_quick_exit: 0.100E-04
  on_the_fly_loc : F
  ----------------------------------- OT ---------------------------------------

  Step     Update method      Time    Convergence         Total energy    Change
  ------------------------------------------------------------------------------
 SKALA_GPW| Atom-composite cross support/maxima   0.000000000000E+00   0.000000000000E+00   0.000000000000E+00   0.000000000000E+00

 SKALA_GPW| Native grid Torch CUDA device 0 of 1 requested -1
 SKALA_GPW| Native grid Torch CUDA rank devices 0:0
 SKALA_GPW| Active atom-composite XC energy  -9.9805966660067487E+00
 SKALA_GPW| Active atom-composite electrons   3.2035972482938277E+01
 SKALA_GPW| Active atom-composite density range   2.3031958855815565E-05   6.5450819584333700E-02
 SKALA_GPW| Active atom-composite tau range   5.8319712819373745E-04   7.2550704183877865E-02
 SKALA_GPW| Active atom-composite tau integral   1.3850172514733664E+01
 SKALA_GPW| Active atom-composite max gradient   8.0601468324377423E-02
     1 OT DIIS     0.10E-02   36.4     0.00093377       -34.9736356161 -3.50E+01
 SKALA_GPW| Atom-composite cross support/maxima   0.000000000000E+00   0.000000000000E+00   0.000000000000E+00   0.000000000000E+00
 SKALA_GPW| Active atom-composite XC energy  -9.9807554772941778E+00
 SKALA_GPW| Active atom-composite electrons   3.2035971046075566E+01
 SKALA_GPW| Active atom-composite density range   2.2994486811510191E-05   6.5452115771798144E-02
 SKALA_GPW| Active atom-composite tau range   5.8312078854074346E-04   7.2551045223867572E-02
 SKALA_GPW| Active atom-composite tau integral   1.3850397858876960E+01
 SKALA_GPW| Active atom-composite max gradient   8.0600516562073538E-02
     2 OT DIIS     0.10E-02   29.8     0.00088946       -34.9738627653 -2.27E-04
 SKALA_GPW| Atom-composite cross support/maxima   0.000000000000E+00   0.000000000000E+00   0.000000000000E+00   0.000000000000E+00
 SKALA_GPW| Active atom-composite XC energy  -9.9813897746814693E+00
 SKALA_GPW| Active atom-composite electrons   3.2035963565905327E+01
 SKALA_GPW| Active atom-composite density range   2.2800370087905815E-05   6.5458857918071878E-02
 SKALA_GPW| Active atom-composite tau range   5.8275893664235488E-04   7.2552507082310605E-02
 SKALA_GPW| Active atom-composite tau integral   1.3851333712521136E+01
 SKALA_GPW| Active atom-composite max gradient   8.0595396116129620E-02
     3 OT DIIS     0.10E-02   29.4     0.00078534       -34.9749314273 -1.07E-03
 SKALA_GPW| Atom-composite cross support/maxima   0.000000000000E+00   0.000000000000E+00   0.000000000000E+00   0.000000000000E+00
 SKALA_GPW| Active atom-composite XC energy  -9.9804962973749412E+00
 SKALA_GPW| Active atom-composite electrons   3.2035958351278964E+01
 SKALA_GPW| Active atom-composite density range   2.1181510935764861E-05   6.5463046445470477E-02
 SKALA_GPW| Active atom-composite tau range   5.8358010319515131E-04   7.2543241981708542E-02
 SKALA_GPW| Active atom-composite tau integral   1.3844583099566554E+01
 SKALA_GPW| Active atom-composite max gradient   8.0587086523969786E-02
     4 OT DIIS     0.10E-02   29.8     0.00129248       -34.9769210766 -1.99E-03
 SKALA_GPW| Atom-composite cross support/maxima   0.000000000000E+00   0.000000000000E+00   0.000000000000E+00   0.000000000000E+00
 SKALA_GPW| Active atom-composite XC energy  -9.9871027564301347E+00
 SKALA_GPW| Active atom-composite electrons   3.2035830593578282E+01
 SKALA_GPW| Active atom-composite density range   1.2529833600506693E-05   6.5563729927424486E-02
 SKALA_GPW| Active atom-composite tau range   5.8293298270002680E-04   7.2567721513597569E-02
 SKALA_GPW| Active atom-composite tau integral   1.3838673137149598E+01
 SKALA_GPW| Active atom-composite max gradient   8.0455530856162749E-02
     5 OT DIIS     0.10E-02   29.5     0.00090369       -34.9922642291 -1.53E-02
 SKALA_GPW| Atom-composite cross support/maxima   0.000000000000E+00   0.000000000000E+00   0.000000000000E+00   0.000000000000E+00
 SKALA_GPW| Active atom-composite XC energy  -9.9884654675834845E+00
 SKALA_GPW| Active atom-composite electrons   3.2035820096751635E+01
 SKALA_GPW| Active atom-composite density range   1.2588631281320790E-05   6.5573089792088424E-02
 SKALA_GPW| Active atom-composite tau range   5.8216893114590223E-04   7.2577696618233933E-02
 SKALA_GPW| Active atom-composite tau integral   1.3842587579432823E+01
 SKALA_GPW| Active atom-composite max gradient   8.0451283216892183E-02
     6 OT DIIS     0.10E-02   29.7     0.00024938       -34.9929329186 -6.69E-04
 SKALA_GPW| Atom-composite cross support/maxima   0.000000000000E+00   0.000000000000E+00   0.000000000000E+00   0.000000000000E+00
 SKALA_GPW| Active atom-composite XC energy  -9.9884608284130803E+00
 SKALA_GPW| Active atom-composite electrons   3.2035819926985567E+01
 SKALA_GPW| Active atom-composite density range   1.2542736582931614E-05   6.5573224745696546E-02
 SKALA_GPW| Active atom-composite tau range   5.8220355078230529E-04   7.2577745397891857E-02
 SKALA_GPW| Active atom-composite tau integral   1.3842427442413747E+01
 SKALA_GPW| Active atom-composite max gradient   8.0451273501667739E-02
     7 OT DIIS     0.10E-02   29.5     0.00024243       -34.9929485661 -1.56E-05
 SKALA_GPW| Atom-composite cross support/maxima   0.000000000000E+00   0.000000000000E+00   0.000000000000E+00   0.000000000000E+00
 SKALA_GPW| Active atom-composite XC energy  -9.9946267534866777E+00
 SKALA_GPW| Active atom-composite electrons   3.2035732129268354E+01
 SKALA_GPW| Active atom-composite density range   1.0386451974730812E-05   6.5681220296679610E-02
 SKALA_GPW| Active atom-composite tau range   5.7945855759216974E-04   7.2700859598623491E-02
 SKALA_GPW| Active atom-composite tau integral   1.3855349174914734E+01
 SKALA_GPW| Active atom-composite max gradient   8.0569491401715015E-02
     8 OT DIIS     0.10E-02   29.7     0.00043223       -34.9941949522 -1.25E-03
 SKALA_GPW| Atom-composite cross support/maxima   0.000000000000E+00   0.000000000000E+00   0.000000000000E+00   0.000000000000E+00
 SKALA_GPW| Active atom-composite XC energy  -9.9946457434368270E+00
 SKALA_GPW| Active atom-composite electrons   3.2035731822430613E+01
 SKALA_GPW| Active atom-composite density range   1.0350131362214669E-05   6.5681594174086547E-02
 SKALA_GPW| Active atom-composite tau range   5.7948322954597716E-04   7.2701452618497975E-02
 SKALA_GPW| Active atom-composite tau integral   1.3855241099816189E+01
 SKALA_GPW| Active atom-composite max gradient   8.0570183005178125E-02
     9 OT DIIS     0.10E-02   29.6     0.00040464       -34.9942081706 -1.32E-05
 SKALA_GPW| Atom-composite cross support/maxima   0.000000000000E+00   0.000000000000E+00   0.000000000000E+00   0.000000000000E+00
 SKALA_GPW| Active atom-composite XC energy  -9.9962517682665677E+00
 SKALA_GPW| Active atom-composite electrons   3.2035707841128264E+01
 SKALA_GPW| Active atom-composite density range   9.5977094109116434E-06   6.5711888342505589E-02
 SKALA_GPW| Active atom-composite tau range   5.7882416917684856E-04   7.2736014532973278E-02
 SKALA_GPW| Active atom-composite tau integral   1.3858475955178072E+01
 SKALA_GPW| Active atom-composite max gradient   8.0606305111392301E-02
    10 OT DIIS     0.10E-02   29.4     0.00042975       -34.9943178897 -1.10E-04
 SKALA_GPW| Atom-composite cross support/maxima   0.000000000000E+00   0.000000000000E+00   0.000000000000E+00   0.000000000000E+00
 SKALA_GPW| Active atom-composite XC energy  -9.9965269802063297E+00
 SKALA_GPW| Active atom-composite electrons   3.2035703275926679E+01
 SKALA_GPW| Active atom-composite density range   9.1246919395230934E-06   6.5716614743195317E-02
 SKALA_GPW| Active atom-composite tau range   5.7891160266775564E-04   7.2738235544809945E-02
 SKALA_GPW| Active atom-composite tau integral   1.3858118092016381E+01
 SKALA_GPW| Active atom-composite max gradient   8.0605690492375440E-02
    11 OT DIIS     0.10E-02   29.6     0.00029428       -34.9945320987 -2.14E-04
 SKALA_GPW| Atom-composite cross support/maxima   0.000000000000E+00   0.000000000000E+00   0.000000000000E+00   0.000000000000E+00
 SKALA_GPW| Active atom-composite XC energy  -9.9966624688043773E+00
 SKALA_GPW| Active atom-composite electrons   3.2035698513985039E+01
 SKALA_GPW| Active atom-composite density range   8.7358846909105873E-06   6.5722921950113519E-02
 SKALA_GPW| Active atom-composite tau range   5.7902516001945455E-04   7.2743729963599388E-02
 SKALA_GPW| Active atom-composite tau integral   1.3857507622108191E+01
 SKALA_GPW| Active atom-composite max gradient   8.0614695005239351E-02
    12 OT DIIS     0.10E-02   29.7     0.00050698       -34.9944905544  4.15E-05
 SKALA_GPW| Atom-composite cross support/maxima   0.000000000000E+00   0.000000000000E+00   0.000000000000E+00   0.000000000000E+00
 SKALA_GPW| Active atom-composite XC energy  -9.9968929054668880E+00
 SKALA_GPW| Active atom-composite electrons   3.2035696941222582E+01
 SKALA_GPW| Active atom-composite density range   8.3697489099202852E-06   6.5725318422166654E-02
 SKALA_GPW| Active atom-composite tau range   5.7890131337289951E-04   7.2739512269688111E-02
 SKALA_GPW| Active atom-composite tau integral   1.3857621773830299E+01
 SKALA_GPW| Active atom-composite max gradient   8.0614595035662123E-02
    13 OT DIIS     0.10E-02   29.5     0.00022971       -34.9947173883 -2.27E-04
 SKALA_GPW| Atom-composite cross support/maxima   0.000000000000E+00   0.000000000000E+00   0.000000000000E+00   0.000000000000E+00
 SKALA_GPW| Active atom-composite XC energy  -9.9971194499069949E+00
 SKALA_GPW| Active atom-composite electrons   3.2035694034783646E+01
 SKALA_GPW| Active atom-composite density range   8.3025608133110237E-06   6.5728249810362516E-02
 SKALA_GPW| Active atom-composite tau range   5.7875188703426902E-04   7.2741515219363548E-02
 SKALA_GPW| Active atom-composite tau integral   1.3858268476138946E+01
 SKALA_GPW| Active atom-composite max gradient   8.0615918623831107E-02
    14 OT DIIS     0.10E-02   29.4     0.00011077       -34.9947539289 -3.65E-05
 SKALA_GPW| Atom-composite cross support/maxima   0.000000000000E+00   0.000000000000E+00   0.000000000000E+00   0.000000000000E+00
 SKALA_GPW| Active atom-composite XC energy  -9.9971748372682185E+00
 SKALA_GPW| Active atom-composite electrons   3.2035692294619771E+01
 SKALA_GPW| Active atom-composite density range   8.1690641090806515E-06   6.5729298978849174E-02
 SKALA_GPW| Active atom-composite tau range   5.7872695179296150E-04   7.2740249402911322E-02
 SKALA_GPW| Active atom-composite tau integral   1.3858290329819692E+01
 SKALA_GPW| Active atom-composite max gradient   8.0613500090044740E-02
    15 OT DIIS     0.10E-02   29.4     0.00007808       -34.9947735188 -1.96E-05
 SKALA_GPW| Atom-composite cross support/maxima   0.000000000000E+00   0.000000000000E+00   0.000000000000E+00   0.000000000000E+00
 SKALA_GPW| Active atom-composite XC energy  -9.9971410574456687E+00
 SKALA_GPW| Active atom-composite electrons   3.2035689315621781E+01
 SKALA_GPW| Active atom-composite density range   7.8634582980205858E-06   6.5728312882882445E-02
 SKALA_GPW| Active atom-composite tau range   5.7871138037199398E-04   7.2730870447974022E-02
 SKALA_GPW| Active atom-composite tau integral   1.3857960904253321E+01
 SKALA_GPW| Active atom-composite max gradient   8.0600404531424877E-02
    16 OT DIIS     0.10E-02   29.6     0.00007228       -34.9947919454 -1.84E-05
 SKALA_GPW| Atom-composite cross support/maxima   0.000000000000E+00   0.000000000000E+00   0.000000000000E+00   0.000000000000E+00
 SKALA_GPW| Active atom-composite XC energy  -9.9961868125730344E+00
 SKALA_GPW| Active atom-composite electrons   3.2035690221651343E+01
 SKALA_GPW| Active atom-composite density range   6.9910000026046209E-06   6.5705168422008353E-02
 SKALA_GPW| Active atom-composite tau range   5.7887916501480035E-04   7.2665254099891732E-02
 SKALA_GPW| Active atom-composite tau integral   1.3854258979153339E+01
 SKALA_GPW| Active atom-composite max gradient   8.0533123000390588E-02
    17 OT DIIS     0.10E-02   29.2     0.00009221       -34.9947485705  4.34E-05
 SKALA_GPW| Atom-composite cross support/maxima   0.000000000000E+00   0.000000000000E+00   0.000000000000E+00   0.000000000000E+00
 SKALA_GPW| Active atom-composite XC energy  -9.9958024253802744E+00
 SKALA_GPW| Active atom-composite electrons   3.2035693101101394E+01
 SKALA_GPW| Active atom-composite density range   6.9044052729521658E-06   6.5693336401745059E-02
 SKALA_GPW| Active atom-composite tau range   5.7894545059093943E-04   7.2641074086802815E-02
 SKALA_GPW| Active atom-composite tau integral   1.3852997778768408E+01
 SKALA_GPW| Active atom-composite max gradient   8.0507233420011287E-02
    18 OT DIIS     0.10E-02   29.2     0.00009910       -34.9947493723 -8.02E-07
 SKALA_GPW| Atom-composite cross support/maxima   0.000000000000E+00   0.000000000000E+00   0.000000000000E+00   0.000000000000E+00
 SKALA_GPW| Active atom-composite XC energy  -9.9953947138019021E+00
 SKALA_GPW| Active atom-composite electrons   3.2035697846213154E+01
 SKALA_GPW| Active atom-composite density range   6.9586303378002683E-06   6.5680222392813431E-02
 SKALA_GPW| Active atom-composite tau range   5.7907799799224494E-04   7.2619827772913065E-02
 SKALA_GPW| Active atom-composite tau integral   1.3851676447081564E+01
 SKALA_GPW| Active atom-composite max gradient   8.0483734291850850E-02
    19 OT DIIS     0.10E-02   29.4     0.00009497       -34.9947744655 -2.51E-05
 SKALA_GPW| Atom-composite cross support/maxima   0.000000000000E+00   0.000000000000E+00   0.000000000000E+00   0.000000000000E+00
 SKALA_GPW| Active atom-composite XC energy  -9.9950950869243496E+00
 SKALA_GPW| Active atom-composite electrons   3.2035704391140683E+01
 SKALA_GPW| Active atom-composite density range   7.2090873541664570E-06   6.5669642896303726E-02
 SKALA_GPW| Active atom-composite tau range   5.7917747993550264E-04   7.2608738423959790E-02
 SKALA_GPW| Active atom-composite tau integral   1.3850906245620688E+01
 SKALA_GPW| Active atom-composite max gradient   8.0473444766219607E-02
    20 OT SD       0.10E-02   29.8     0.00009015       -34.9948113687 -3.69E-05
 SKALA_GPW| Atom-composite cross support/maxima   0.000000000000E+00   0.000000000000E+00   0.000000000000E+00   0.000000000000E+00
 SKALA_GPW| Active atom-composite XC energy  -9.9950973130580021E+00
 SKALA_GPW| Active atom-composite electrons   3.2035704398433957E+01
 SKALA_GPW| Active atom-composite density range   7.2050137521262761E-06   6.5669424338234264E-02
 SKALA_GPW| Active atom-composite tau range   5.7917971747195574E-04   7.2608535900890309E-02
 SKALA_GPW| Active atom-composite tau integral   1.3850885344112584E+01
 SKALA_GPW| Active atom-composite max gradient   8.0473140496190004E-02
    21 OT SD       0.10E-02   29.4     0.00008663       -34.9948134804 -2.11E-06
 SKALA_GPW| Atom-composite cross support/maxima   0.000000000000E+00   0.000000000000E+00   0.000000000000E+00   0.000000000000E+00
 SKALA_GPW| Active atom-composite XC energy  -9.9951003764593800E+00
 SKALA_GPW| Active atom-composite electrons   3.2035704394024862E+01
 SKALA_GPW| Active atom-composite density range   7.2013727880943359E-06   6.5669220122266489E-02
 SKALA_GPW| Active atom-composite tau range   5.7918079080315809E-04   7.2608347843502188E-02
 SKALA_GPW| Active atom-composite tau integral   1.3850870163306308E+01
 SKALA_GPW| Active atom-composite max gradient   8.0472838088914936E-02
    22 OT DIIS     0.10E-02   29.4     0.00008418       -34.9948154698 -1.99E-06
 SKALA_GPW| Atom-composite cross support/maxima   0.000000000000E+00   0.000000000000E+00   0.000000000000E+00   0.000000000000E+00
 SKALA_GPW| Active atom-composite XC energy  -9.9958854517905920E+00
 SKALA_GPW| Active atom-composite electrons   3.2035691777438124E+01
 SKALA_GPW| Active atom-composite density range   6.4165860760534507E-06   6.5652786849765318E-02
 SKALA_GPW| Active atom-composite tau range   5.7869378979660878E-04   7.2580630229988494E-02
 SKALA_GPW| Active atom-composite tau integral   1.3851233564143270E+01
 SKALA_GPW| Active atom-composite max gradient   8.0424445344087103E-02
    23 OT DIIS     0.10E-02   29.5     0.00007837       -34.9948893942 -7.39E-05
 SKALA_GPW| Atom-composite cross support/maxima   0.000000000000E+00   0.000000000000E+00   0.000000000000E+00   0.000000000000E+00
 SKALA_GPW| Active atom-composite XC energy  -9.9957205040886947E+00
 SKALA_GPW| Active atom-composite electrons   3.2035694411376952E+01
 SKALA_GPW| Active atom-composite density range   6.6153169759473245E-06   6.5659728330936085E-02
 SKALA_GPW| Active atom-composite tau range   5.7883077719368030E-04   7.2591310895497127E-02
 SKALA_GPW| Active atom-composite tau integral   1.3851275315665720E+01
 SKALA_GPW| Active atom-composite max gradient   8.0440592337182412E-02
    24 OT DIIS     0.10E-02   29.5     0.00002609       -34.9948949718 -5.58E-06
 SKALA_GPW| Atom-composite cross support/maxima   0.000000000000E+00   0.000000000000E+00   0.000000000000E+00   0.000000000000E+00
 SKALA_GPW| Active atom-composite XC energy  -9.9957632793373499E+00
 SKALA_GPW| Active atom-composite electrons   3.2035693420923018E+01
 SKALA_GPW| Active atom-composite density range   6.5381426912395834E-06   6.5656157038553570E-02
 SKALA_GPW| Active atom-composite tau range   5.7878370874586867E-04   7.2585448657947887E-02
 SKALA_GPW| Active atom-composite tau integral   1.3851179469510646E+01
 SKALA_GPW| Active atom-composite max gradient   8.0431892855037157E-02
    25 OT DIIS     0.10E-02   29.5     0.00002183       -34.9948987160 -3.74E-06
 SKALA_GPW| Atom-composite cross support/maxima   0.000000000000E+00   0.000000000000E+00   0.000000000000E+00   0.000000000000E+00
 SKALA_GPW| Active atom-composite XC energy  -9.9955915829985766E+00
 SKALA_GPW| Active atom-composite electrons   3.2035694305043194E+01
 SKALA_GPW| Active atom-composite density range   6.5492173033960248E-06   6.5652420705644116E-02
 SKALA_GPW| Active atom-composite tau range   5.7884549621431999E-04   7.2577486071067232E-02
 SKALA_GPW| Active atom-composite tau integral   1.3850645746157463E+01
 SKALA_GPW| Active atom-composite max gradient   8.0422498160594713E-02
    26 OT DIIS     0.10E-02   29.7     0.00001762       -34.9948997840 -1.07E-06
 SKALA_GPW| Atom-composite cross support/maxima   0.000000000000E+00   0.000000000000E+00   0.000000000000E+00   0.000000000000E+00
 SKALA_GPW| Active atom-composite XC energy  -9.9955839893139249E+00
 SKALA_GPW| Active atom-composite electrons   3.2035693794602466E+01
 SKALA_GPW| Active atom-composite density range   6.4980769715094303E-06   6.5652010390309934E-02
 SKALA_GPW| Active atom-composite tau range   5.7883695281772056E-04   7.2575131161278700E-02
 SKALA_GPW| Active atom-composite tau integral   1.3850522229160536E+01
 SKALA_GPW| Active atom-composite max gradient   8.0420364237228023E-02
    27 OT DIIS     0.10E-02   29.3     0.00001840       -34.9949006080 -8.24E-07
 SKALA_GPW| Atom-composite cross support/maxima   0.000000000000E+00   0.000000000000E+00   0.000000000000E+00   0.000000000000E+00
 SKALA_GPW| Active atom-composite XC energy  -9.9955545784490401E+00
 SKALA_GPW| Active atom-composite electrons   3.2035693584524878E+01
 SKALA_GPW| Active atom-composite density range   6.4568757638853835E-06   6.5649964950454678E-02
 SKALA_GPW| Active atom-composite tau range   5.7881915678207739E-04   7.2570392440109349E-02
 SKALA_GPW| Active atom-composite tau integral   1.3850331630930311E+01
 SKALA_GPW| Active atom-composite max gradient   8.0415326826962327E-02
    28 OT DIIS     0.10E-02   29.5     0.00001744       -34.9949018463 -1.24E-06
 SKALA_GPW| Atom-composite cross support/maxima   0.000000000000E+00   0.000000000000E+00   0.000000000000E+00   0.000000000000E+00
 SKALA_GPW| Active atom-composite XC energy  -9.9956590352226584E+00
 SKALA_GPW| Active atom-composite electrons   3.2035691744727650E+01
 SKALA_GPW| Active atom-composite density range   6.3692299813736611E-06   6.5648807947056076E-02
 SKALA_GPW| Active atom-composite tau range   5.7875011563406911E-04   7.2567904772648920E-02
 SKALA_GPW| Active atom-composite tau integral   1.3850393671939139E+01
 SKALA_GPW| Active atom-composite max gradient   8.0411217018211023E-02
    29 OT DIIS     0.10E-02   29.6     0.00002531       -34.9949027713 -9.25E-07
 SKALA_GPW| Atom-composite cross support/maxima   0.000000000000E+00   0.000000000000E+00   0.000000000000E+00   0.000000000000E+00
 SKALA_GPW| Active atom-composite XC energy  -9.9956216003697396E+00
 SKALA_GPW| Active atom-composite electrons   3.2035691550468854E+01
 SKALA_GPW| Active atom-composite density range   6.3522575065264631E-06   6.5648255853550802E-02
 SKALA_GPW| Active atom-composite tau range   5.7875170503002228E-04   7.2565372067598305E-02
 SKALA_GPW| Active atom-composite tau integral   1.3850246230525153E+01
 SKALA_GPW| Active atom-composite max gradient   8.0408810273691914E-02
    30 OT DIIS     0.10E-02   29.7     0.00001567       -34.9949038523 -1.08E-06
 SKALA_GPW| Atom-composite cross support/maxima   0.000000000000E+00   0.000000000000E+00   0.000000000000E+00   0.000000000000E+00
 SKALA_GPW| Active atom-composite XC energy  -9.9956915681453253E+00
 SKALA_GPW| Active atom-composite electrons   3.2035689926973674E+01
 SKALA_GPW| Active atom-composite density range   6.3016104909809858E-06   6.5649071742238024E-02
 SKALA_GPW| Active atom-composite tau range   5.7871220650009502E-04   7.2565272028961320E-02
 SKALA_GPW| Active atom-composite tau integral   1.3850326449463633E+01
 SKALA_GPW| Active atom-composite max gradient   8.0408047301821217E-02
    31 OT DIIS     0.10E-02   29.4     0.00001476       -34.9949044667 -6.14E-07
 SKALA_GPW| Atom-composite cross support/maxima   0.000000000000E+00   0.000000000000E+00   0.000000000000E+00   0.000000000000E+00
 SKALA_GPW| Active atom-composite XC energy  -9.9957372500136472E+00
 SKALA_GPW| Active atom-composite electrons   3.2035688933074752E+01
 SKALA_GPW| Active atom-composite density range   6.2764740861792535E-06   6.5649780263166771E-02
 SKALA_GPW| Active atom-composite tau range   5.7868908484842252E-04   7.2565687250692151E-02
 SKALA_GPW| Active atom-composite tau integral   1.3850395346315990E+01
 SKALA_GPW| Active atom-composite max gradient   8.0408067289784599E-02
    32 OT DIIS     0.10E-02   29.4     0.00001453       -34.9949046992 -2.32E-07
 SKALA_GPW| Atom-composite cross support/maxima   0.000000000000E+00   0.000000000000E+00   0.000000000000E+00   0.000000000000E+00
 SKALA_GPW| Active atom-composite XC energy  -9.9957856245192573E+00
 SKALA_GPW| Active atom-composite electrons   3.2035687534042353E+01
 SKALA_GPW| Active atom-composite density range   6.2620505696970661E-06   6.5650933288344634E-02
 SKALA_GPW| Active atom-composite tau range   5.7866666662327419E-04   7.2566602153518511E-02
 SKALA_GPW| Active atom-composite tau integral   1.3850462977140186E+01
 SKALA_GPW| Active atom-composite max gradient   8.0408289325569579E-02
    33 OT DIIS     0.10E-02   29.5     0.00001405       -34.9949050757 -3.77E-07
 SKALA_GPW| Atom-composite cross support/maxima   0.000000000000E+00   0.000000000000E+00   0.000000000000E+00   0.000000000000E+00
 SKALA_GPW| Active atom-composite XC energy  -9.9957928904024289E+00
 SKALA_GPW| Active atom-composite electrons   3.2035687460792971E+01
 SKALA_GPW| Active atom-composite density range   6.2804363868718194E-06   6.5651939526710376E-02
 SKALA_GPW| Active atom-composite tau range   5.7867189845965065E-04   7.2568430156864552E-02
 SKALA_GPW| Active atom-composite tau integral   1.3850523963828888E+01
 SKALA_GPW| Active atom-composite max gradient   8.0410334717773244E-02
    34 OT DIIS     0.10E-02   29.3     0.00001388       -34.9949050407  3.51E-08
 SKALA_GPW| Atom-composite cross support/maxima   0.000000000000E+00   0.000000000000E+00   0.000000000000E+00   0.000000000000E+00
 SKALA_GPW| Active atom-composite XC energy  -9.9958287577050910E+00
 SKALA_GPW| Active atom-composite electrons   3.2035687044844067E+01
 SKALA_GPW| Active atom-composite density range   6.2951436408352973E-06   6.5653448123208377E-02
 SKALA_GPW| Active atom-composite tau range   5.7866266760046707E-04   7.2571112686231232E-02
 SKALA_GPW| Active atom-composite tau integral   1.3850653250687365E+01
 SKALA_GPW| Active atom-composite max gradient   8.0413324223123306E-02
    35 OT DIIS     0.10E-02   29.1     0.00001356       -34.9949052088 -1.68E-07
 SKALA_GPW| Atom-composite cross support/maxima   0.000000000000E+00   0.000000000000E+00   0.000000000000E+00   0.000000000000E+00
 SKALA_GPW| Active atom-composite XC energy  -9.9958614771615597E+00
 SKALA_GPW| Active atom-composite electrons   3.2035686464878587E+01
 SKALA_GPW| Active atom-composite density range   6.2889365053663119E-06   6.5654285280504571E-02
 SKALA_GPW| Active atom-composite tau range   5.7864599720669724E-04   7.2572155817954648E-02
 SKALA_GPW| Active atom-composite tau integral   1.3850725562496514E+01
 SKALA_GPW| Active atom-composite max gradient   8.0414483596080250E-02
    36 OT DIIS     0.10E-02   29.9     0.00001331       -34.9949054575 -2.49E-07
 SKALA_GPW| Atom-composite cross support/maxima   0.000000000000E+00   0.000000000000E+00   0.000000000000E+00   0.000000000000E+00
 SKALA_GPW| Active atom-composite XC energy  -9.9959405450760350E+00
 SKALA_GPW| Active atom-composite electrons   3.2035684539511053E+01
 SKALA_GPW| Active atom-composite density range   6.2598714375577208E-06   6.5656463299512052E-02
 SKALA_GPW| Active atom-composite tau range   5.7858568886253706E-04   7.2573584142935355E-02
 SKALA_GPW| Active atom-composite tau integral   1.3850837563461853E+01
 SKALA_GPW| Active atom-composite max gradient   8.0416906718469711E-02
    37 OT DIIS     0.10E-02   29.3     0.00001198       -34.9949069285 -1.47E-06
 SKALA_GPW| Atom-composite cross support/maxima   0.000000000000E+00   0.000000000000E+00   0.000000000000E+00   0.000000000000E+00
 SKALA_GPW| Active atom-composite XC energy  -9.9961064078090480E+00
 SKALA_GPW| Active atom-composite electrons   3.2035680274621633E+01
 SKALA_GPW| Active atom-composite density range   6.1901864291001738E-06   6.5660846144285204E-02
 SKALA_GPW| Active atom-composite tau range   5.7847384302185483E-04   7.2576246048089030E-02
 SKALA_GPW| Active atom-composite tau integral   1.3851048136391009E+01
 SKALA_GPW| Active atom-composite max gradient   8.0420606813462095E-02
    38 OT DIIS     0.10E-02   29.6     0.00000951       -34.9949084169 -1.49E-06
 SKALA_GPW| Atom-composite cross support/maxima   0.000000000000E+00   0.000000000000E+00   0.000000000000E+00   0.000000000000E+00
 SKALA_GPW| Active atom-composite XC energy  -9.9962064961216512E+00
 SKALA_GPW| Active atom-composite electrons   3.2035678128939949E+01
 SKALA_GPW| Active atom-composite density range   6.1686917216836071E-06   6.5663913769437240E-02
 SKALA_GPW| Active atom-composite tau range   5.7841745826050952E-04   7.2579401697306145E-02
 SKALA_GPW| Active atom-composite tau integral   1.3851241119926460E+01
 SKALA_GPW| Active atom-composite max gradient   8.0424517717031102E-02
    39 OT DIIS     0.10E-02   29.8     0.00000869       -34.9949089067 -4.90E-07
 SKALA_GPW| Atom-composite cross support/maxima   0.000000000000E+00   0.000000000000E+00   0.000000000000E+00   0.000000000000E+00
 SKALA_GPW| Active atom-composite XC energy  -9.9962353582461638E+00
 SKALA_GPW| Active atom-composite electrons   3.2035678303113343E+01
 SKALA_GPW| Active atom-composite density range   6.2335706972869737E-06   6.5667704924379511E-02
 SKALA_GPW| Active atom-composite tau range   5.7841178488278174E-04   7.2585932082845014E-02
 SKALA_GPW| Active atom-composite tau integral   1.3851468023575160E+01
 SKALA_GPW| Active atom-composite max gradient   8.0433845221321701E-02
    40 OT DIIS     0.10E-02   29.4     0.00000662       -34.9949095123 -6.06E-07
 SKALA_GPW| Atom-composite cross support/maxima   0.000000000000E+00   0.000000000000E+00   0.000000000000E+00   0.000000000000E+00
 SKALA_GPW| Active atom-composite XC energy  -9.9962524043076648E+00
 SKALA_GPW| Active atom-composite electrons   3.2035678055172831E+01
 SKALA_GPW| Active atom-composite density range   6.2348164494699329E-06   6.5668295478005803E-02
 SKALA_GPW| Active atom-composite tau range   5.7840452226599740E-04   7.2586780610772589E-02
 SKALA_GPW| Active atom-composite tau integral   1.3851516221033688E+01
 SKALA_GPW| Active atom-composite max gradient   8.0434850261624877E-02
    41 OT DIIS     0.10E-02   29.5     0.00000643       -34.9949095636 -5.12E-08
 SKALA_GPW| Atom-composite cross support/maxima   0.000000000000E+00   0.000000000000E+00   0.000000000000E+00   0.000000000000E+00
 SKALA_GPW| Active atom-composite XC energy  -9.9964619677030182E+00
 SKALA_GPW| Active atom-composite electrons   3.2035674579146843E+01
 SKALA_GPW| Active atom-composite density range   6.2126552092977595E-06   6.5674167226700414E-02
 SKALA_GPW| Active atom-composite tau range   5.7831612505069652E-04   7.2594431912473834E-02
 SKALA_GPW| Active atom-composite tau integral   1.3852032397709733E+01
 SKALA_GPW| Active atom-composite max gradient   8.0442739526042778E-02
    42 OT DIIS     0.10E-02   29.5     0.00000493       -34.9949100212 -4.58E-07
 SKALA_GPW| Atom-composite cross support/maxima   0.000000000000E+00   0.000000000000E+00   0.000000000000E+00   0.000000000000E+00
 SKALA_GPW| Active atom-composite XC energy  -9.9964690431060355E+00
 SKALA_GPW| Active atom-composite electrons   3.2035674452451744E+01
 SKALA_GPW| Active atom-composite density range   6.2121527924736306E-06   6.5674382306852935E-02
 SKALA_GPW| Active atom-composite tau range   5.7831305700166045E-04   7.2594670790324931E-02
 SKALA_GPW| Active atom-composite tau integral   1.3852049177596690E+01
 SKALA_GPW| Active atom-composite max gradient   8.0442984186297084E-02
    43 OT DIIS     0.10E-02   29.3     0.00000484       -34.9949100417 -2.05E-08
 SKALA_GPW| Atom-composite cross support/maxima   0.000000000000E+00   0.000000000000E+00   0.000000000000E+00   0.000000000000E+00
 SKALA_GPW| Active atom-composite XC energy  -9.9964736832669328E+00
 SKALA_GPW| Active atom-composite electrons   3.2035674604281461E+01
 SKALA_GPW| Active atom-composite density range   6.2324584082797173E-06   6.5675181174328301E-02
 SKALA_GPW| Active atom-composite tau range   5.7831749766851963E-04   7.2595885080574490E-02
 SKALA_GPW| Active atom-composite tau integral   1.3852108803229994E+01
 SKALA_GPW| Active atom-composite max gradient   8.0444429908470172E-02
    44 OT DIIS     0.10E-02   29.7     0.00000445       -34.9949100464 -4.75E-09
 SKALA_GPW| Atom-composite cross support/maxima   0.000000000000E+00   0.000000000000E+00   0.000000000000E+00   0.000000000000E+00
 SKALA_GPW| Active atom-composite XC energy  -9.9964706904966203E+00
 SKALA_GPW| Active atom-composite electrons   3.2035674612385641E+01
 SKALA_GPW| Active atom-composite density range   6.2328366883953619E-06   6.5675140544233873E-02
 SKALA_GPW| Active atom-composite tau range   5.7831718928197569E-04   7.2595655002419934E-02
 SKALA_GPW| Active atom-composite tau integral   1.3852097904561347E+01
 SKALA_GPW| Active atom-composite max gradient   8.0444230729332641E-02
    45 OT DIIS     0.10E-02   29.5     0.00000438       -34.9949100650 -1.86E-08
 SKALA_GPW| Atom-composite cross support/maxima   0.000000000000E+00   0.000000000000E+00   0.000000000000E+00   0.000000000000E+00
 SKALA_GPW| Active atom-composite XC energy  -9.9964912417441489E+00
 SKALA_GPW| Active atom-composite electrons   3.2035673868131397E+01
 SKALA_GPW| Active atom-composite density range   6.2265786632999310E-06   6.5675967473050600E-02
 SKALA_GPW| Active atom-composite tau range   5.7829324931189807E-04   7.2595330049563922E-02
 SKALA_GPW| Active atom-composite tau integral   1.3852106572997702E+01
 SKALA_GPW| Active atom-composite max gradient   8.0444301396705817E-02
    46 OT DIIS     0.10E-02   29.7     0.00000406       -34.9949102444 -1.79E-07
 SKALA_GPW| Atom-composite cross support/maxima   0.000000000000E+00   0.000000000000E+00   0.000000000000E+00   0.000000000000E+00
 SKALA_GPW| Active atom-composite XC energy  -9.9965119256203430E+00
 SKALA_GPW| Active atom-composite electrons   3.2035673313605301E+01
 SKALA_GPW| Active atom-composite density range   6.2237825775144254E-06   6.5676769511789260E-02
 SKALA_GPW| Active atom-composite tau range   5.7827665473928977E-04   7.2595623203273271E-02
 SKALA_GPW| Active atom-composite tau integral   1.3852139355460139E+01
 SKALA_GPW| Active atom-composite max gradient   8.0444837574276909E-02
    47 OT DIIS     0.10E-02   29.5     0.00000391       -34.9949103425 -9.81E-08
 SKALA_GPW| Atom-composite cross support/maxima   0.000000000000E+00   0.000000000000E+00   0.000000000000E+00   0.000000000000E+00
 SKALA_GPW| Active atom-composite XC energy  -9.9965151858347063E+00
 SKALA_GPW| Active atom-composite electrons   3.2035673229322853E+01
 SKALA_GPW| Active atom-composite density range   6.2238638120526163E-06   6.5676901297383933E-02
 SKALA_GPW| Active atom-composite tau range   5.7827418522996444E-04   7.2595635860904589E-02
 SKALA_GPW| Active atom-composite tau integral   1.3852145232006739E+01
 SKALA_GPW| Active atom-composite max gradient   8.0444859694646237E-02
    48 OT DIIS     0.10E-02   29.8     0.00000387       -34.9949103251  1.74E-08
 SKALA_GPW| Atom-composite cross support/maxima   0.000000000000E+00   0.000000000000E+00   0.000000000000E+00   0.000000000000E+00
 SKALA_GPW| Active atom-composite XC energy  -9.9965673711455416E+00
 SKALA_GPW| Active atom-composite electrons   3.2035671592551580E+01
 SKALA_GPW| Active atom-composite density range   6.1944069683812294E-06   6.5677804824669547E-02
 SKALA_GPW| Active atom-composite tau range   5.7822816123325371E-04   7.2593763969711969E-02
 SKALA_GPW| Active atom-composite tau integral   1.3852166922631170E+01
 SKALA_GPW| Active atom-composite max gradient   8.0442301477719899E-02
    49 OT DIIS     0.10E-02   29.6     0.00000325       -34.9949105362 -2.11E-07
 SKALA_GPW| Atom-composite cross support/maxima   0.000000000000E+00   0.000000000000E+00   0.000000000000E+00   0.000000000000E+00
 SKALA_GPW| Active atom-composite XC energy  -9.9965718439397655E+00
 SKALA_GPW| Active atom-composite electrons   3.2035671248104912E+01
 SKALA_GPW| Active atom-composite density range   6.1840166180969492E-06   6.5677645198068624E-02
 SKALA_GPW| Active atom-composite tau range   5.7821789462162289E-04   7.2592499028424462E-02
 SKALA_GPW| Active atom-composite tau integral   1.3852137648650135E+01
 SKALA_GPW| Active atom-composite max gradient   8.0440711204746052E-02
    50 OT DIIS     0.10E-02   29.6     0.00000312       -34.9949105615 -2.53E-08

  Leaving inner SCF loop after reaching    50 steps.


  Electronic density on regular grids:        -32.0000000000        0.0000000000
  Core density on regular grids:               32.0000000000        0.0000000000
  Hard and soft densities (Lebedev):         -163.1945406751     -163.1945406751
  Total Rho_soft + Rho1_hard - Rho1_soft      -32.0000000000
  Total charge density (r-space):               0.0000000000
  Total Rho_soft + Rho0_soft (g-space):        -0.0000000484

  Overlap energy of the core charge distribution:               0.00000000001621
  Self energy of the core charge distribution:                -88.15121238703466
  Core Hamiltonian energy:                                     18.75378482496556
  Hartree energy:                                              77.28409016324203
  Exchange-correlation energy:                                  0.00000000000000
  Dispersion energy:                                           -0.16092804143019

  GAPW| Exc from hard and soft atomic rho1:                    -9.99657184393977
  GAPW| local Eh = 1 center integrals:                        -32.72407327729449

  Total energy:                                               -34.99491056147532

  outer SCF iter =    1 RMS gradient =   0.31E-05 energy =        -34.9949105615

  ----------------------------------- OT ---------------------------------------
  Minimizer      : DIIS                : direct inversion
                                         in the iterative subspace
                                         using   7 DIIS vectors
                                         safer DIIS on
  Preconditioner : FULL_SINGLE_INVERSE : inversion of 
                                         H + eS - 2*(Sc)(c^T*H*c+const)(Sc)^T
  Precond_solver : DEFAULT
  stepsize       :    0.00100000                  energy_gap     :    0.00100000
  ortho_irac     : CHOL                           irac_degree    :             4
  max_irac       :            50                  eps_irac       :   0.10000E-09
  eps_irac_switch:   0.10000E-01                  eps_irac_quick_exit: 0.100E-04
  on_the_fly_loc : F
  ----------------------------------- OT ---------------------------------------

  Step     Update method      Time    Convergence         Total energy    Change
  ------------------------------------------------------------------------------
 SKALA_GPW| Atom-composite cross support/maxima   0.000000000000E+00   0.000000000000E+00   0.000000000000E+00   0.000000000000E+00
 SKALA_GPW| Active atom-composite XC energy  -9.9964918324223522E+00
 SKALA_GPW| Active atom-composite electrons   3.2035671969106509E+01
 SKALA_GPW| Active atom-composite density range   6.1744013262318317E-06   6.5674912655766221E-02
 SKALA_GPW| Active atom-composite tau range   5.7823028565670662E-04   7.2586180074514589E-02
 SKALA_GPW| Active atom-composite tau integral   1.3851853008342385E+01
 SKALA_GPW| Active atom-composite max gradient   8.0433476509892993E-02
     1 OT DIIS     0.10E-02   61.7     0.00000269       -34.9949106615 -1.00E-07
 SKALA_GPW| Atom-composite cross support/maxima   0.000000000000E+00   0.000000000000E+00   0.000000000000E+00   0.000000000000E+00
 SKALA_GPW| Active atom-composite XC energy  -9.9964915021948588E+00
 SKALA_GPW| Active atom-composite electrons   3.2035671972746222E+01
 SKALA_GPW| Active atom-composite density range   6.1744013342904498E-06   6.5674906049768195E-02
 SKALA_GPW| Active atom-composite tau range   5.7823033621266535E-04   7.2586163538052542E-02
 SKALA_GPW| Active atom-composite tau integral   1.3851851462397864E+01
 SKALA_GPW| Active atom-composite max gradient   8.0433456084368068E-02
     2 OT DIIS     0.10E-02   30.0     0.00000254       -34.9949106671 -5.61E-09
 SKALA_GPW| Atom-composite cross support/maxima   0.000000000000E+00   0.000000000000E+00   0.000000000000E+00   0.000000000000E+00
 SKALA_GPW| Active atom-composite XC energy  -9.9964904883057670E+00
 SKALA_GPW| Active atom-composite electrons   3.2035671983994007E+01
 SKALA_GPW| Active atom-composite density range   6.1745194543127411E-06   6.5674885744023984E-02
 SKALA_GPW| Active atom-composite tau range   5.7823038433378973E-04   7.2586110000874657E-02
 SKALA_GPW| Active atom-composite tau integral   1.3851847084147416E+01
 SKALA_GPW| Active atom-composite max gradient   8.0433387786267616E-02
     3 OT DIIS     0.10E-02   29.7     0.00000237       -34.9949106522  1.50E-08
 SKALA_GPW| Atom-composite cross support/maxima   0.000000000000E+00   0.000000000000E+00   0.000000000000E+00   0.000000000000E+00
 SKALA_GPW| Active atom-composite XC energy  -9.9964855673497244E+00
 SKALA_GPW| Active atom-composite electrons   3.2035672046111948E+01
 SKALA_GPW| Active atom-composite density range   6.1769149837909686E-06   6.5674775811873018E-02
 SKALA_GPW| Active atom-composite tau range   5.7822907027317962E-04   7.2585777805394977E-02
 SKALA_GPW| Active atom-composite tau integral   1.3851828665703023E+01
 SKALA_GPW| Active atom-composite max gradient   8.0432933848400903E-02
     4 OT DIIS     0.10E-02   29.4     0.00000205       -34.9949107032 -5.10E-08
 SKALA_GPW| Atom-composite cross support/maxima   0.000000000000E+00   0.000000000000E+00   0.000000000000E+00   0.000000000000E+00
 SKALA_GPW| Active atom-composite XC energy  -9.9964794343573793E+00
 SKALA_GPW| Active atom-composite electrons   3.2035672122350604E+01
 SKALA_GPW| Active atom-composite density range   6.1798732801566405E-06   6.5674641324307850E-02
 SKALA_GPW| Active atom-composite tau range   5.7822750615258833E-04   7.2585370336526969E-02
 SKALA_GPW| Active atom-composite tau integral   1.3851805829545670E+01
 SKALA_GPW| Active atom-composite max gradient   8.0432378207478478E-02
     5 OT DIIS     0.10E-02   29.6     0.00000188       -34.9949107195 -1.63E-08
 SKALA_GPW| Atom-composite cross support/maxima   0.000000000000E+00   0.000000000000E+00   0.000000000000E+00   0.000000000000E+00
 SKALA_GPW| Active atom-composite XC energy  -9.9964744874317013E+00
 SKALA_GPW| Active atom-composite electrons   3.2035672176976050E+01
 SKALA_GPW| Active atom-composite density range   6.1820612953447496E-06   6.5674551711528251E-02
 SKALA_GPW| Active atom-composite tau range   5.7822669982861763E-04   7.2585075186047315E-02
 SKALA_GPW| Active atom-composite tau integral   1.3851787575005064E+01
 SKALA_GPW| Active atom-composite max gradient   8.0431984945794566E-02
     6 OT DIIS     0.10E-02   29.1     0.00000170       -34.9949107333 -1.39E-08
 SKALA_GPW| Atom-composite cross support/maxima   0.000000000000E+00   0.000000000000E+00   0.000000000000E+00   0.000000000000E+00
 SKALA_GPW| Active atom-composite XC energy  -9.9964668630106264E+00
 SKALA_GPW| Active atom-composite electrons   3.2035672261552719E+01
 SKALA_GPW| Active atom-composite density range   6.1854741572740766E-06   6.5674413832805228E-02
 SKALA_GPW| Active atom-composite tau range   5.7822553045408802E-04   7.2584623669560255E-02
 SKALA_GPW| Active atom-composite tau integral   1.3851759096242924E+01
 SKALA_GPW| Active atom-composite max gradient   8.0431383652381810E-02
     7 OT DIIS     0.10E-02   29.6     0.00000147       -34.9949107707 -3.74E-08
 SKALA_GPW| Atom-composite cross support/maxima   0.000000000000E+00   0.000000000000E+00   0.000000000000E+00   0.000000000000E+00
 SKALA_GPW| Active atom-composite XC energy  -9.9964442120018724E+00
 SKALA_GPW| Active atom-composite electrons   3.2035672509582795E+01
 SKALA_GPW| Active atom-composite density range   6.1958260785631016E-06   6.5674018047829144E-02
 SKALA_GPW| Active atom-composite tau range   5.7822248932407332E-04   7.2583321803906045E-02
 SKALA_GPW| Active atom-composite tau integral   1.3851673925184594E+01
 SKALA_GPW| Active atom-composite max gradient   8.0429652764713450E-02
     8 OT DIIS     0.10E-02   29.4     0.00000086       -34.9949108096 -3.89E-08
 SKALA_GPW| Atom-composite cross support/maxima   0.000000000000E+00   0.000000000000E+00   0.000000000000E+00   0.000000000000E+00
 SKALA_GPW| Active atom-composite XC energy  -9.9964435291332698E+00
 SKALA_GPW| Active atom-composite electrons   3.2035672517745198E+01
 SKALA_GPW| Active atom-composite density range   6.1961806826343253E-06   6.5674009444875309E-02
 SKALA_GPW| Active atom-composite tau range   5.7822238769656927E-04   7.2583300535024070E-02
 SKALA_GPW| Active atom-composite tau integral   1.3851671047827297E+01
 SKALA_GPW| Active atom-composite max gradient   8.0429616564674344E-02
     9 OT DIIS     0.10E-02   29.4     0.00000083       -34.9949108226 -1.30E-08
 SKALA_GPW| Atom-composite cross support/maxima   0.000000000000E+00   0.000000000000E+00   0.000000000000E+00   0.000000000000E+00
 SKALA_GPW| Active atom-composite XC energy  -9.9964387676777804E+00
 SKALA_GPW| Active atom-composite electrons   3.2035672574560955E+01
 SKALA_GPW| Active atom-composite density range   6.1980218171572047E-06   6.5673953391562914E-02
 SKALA_GPW| Active atom-composite tau range   5.7822148274848557E-04   7.2583194729907777E-02
 SKALA_GPW| Active atom-composite tau integral   1.3851651198473023E+01
 SKALA_GPW| Active atom-composite max gradient   8.0429397167594868E-02
    10 OT DIIS     0.10E-02   29.6     0.00000075       -34.9949108479 -2.53E-08
 SKALA_GPW| Atom-composite cross support/maxima   0.000000000000E+00   0.000000000000E+00   0.000000000000E+00   0.000000000000E+00
 SKALA_GPW| Active atom-composite XC energy  -9.9964375854369507E+00
 SKALA_GPW| Active atom-composite electrons   3.2035672588707946E+01
 SKALA_GPW| Active atom-composite density range   6.1985548796181847E-06   6.5673941640181754E-02
 SKALA_GPW| Active atom-composite tau range   5.7822123551891694E-04   7.2583174959426455E-02
 SKALA_GPW| Active atom-composite tau integral   1.3851646278149994E+01
 SKALA_GPW| Active atom-composite max gradient   8.0429348425528985E-02
    11 OT DIIS     0.10E-02   29.5     0.00000065       -34.9949108400  7.89E-09
 SKALA_GPW| Atom-composite cross support/maxima   0.000000000000E+00   0.000000000000E+00   0.000000000000E+00   0.000000000000E+00
 SKALA_GPW| Active atom-composite XC energy  -9.9964371646489738E+00
 SKALA_GPW| Active atom-composite electrons   3.2035672593731263E+01
 SKALA_GPW| Active atom-composite density range   6.1987043626069076E-06   6.5673941803022162E-02
 SKALA_GPW| Active atom-composite tau range   5.7822108037251525E-04   7.2583183694071990E-02
 SKALA_GPW| Active atom-composite tau integral   1.3851644432378224E+01
 SKALA_GPW| Active atom-composite max gradient   8.0429344153735552E-02
    12 OT DIIS     0.10E-02   29.4     0.00000055       -34.9949108368  3.15E-09
 SKALA_GPW| Atom-composite cross support/maxima   0.000000000000E+00   0.000000000000E+00   0.000000000000E+00   0.000000000000E+00
 SKALA_GPW| Active atom-composite XC energy  -9.9964369629527638E+00
 SKALA_GPW| Active atom-composite electrons   3.2035672595923799E+01
 SKALA_GPW| Active atom-composite density range   6.1987781859219604E-06   6.5673940580623258E-02
 SKALA_GPW| Active atom-composite tau range   5.7822105110096750E-04   7.2583181899630034E-02
 SKALA_GPW| Active atom-composite tau integral   1.3851643505409820E+01
 SKALA_GPW| Active atom-composite max gradient   8.0429338206024867E-02
    13 OT DIIS     0.10E-02   29.5     0.00000054       -34.9949108349  1.97E-09
 SKALA_GPW| Atom-composite cross support/maxima   0.000000000000E+00   0.000000000000E+00   0.000000000000E+00   0.000000000000E+00
 SKALA_GPW| Active atom-composite XC energy  -9.9964363328577104E+00
 SKALA_GPW| Active atom-composite electrons   3.2035672603132831E+01
 SKALA_GPW| Active atom-composite density range   6.1989421090148750E-06   6.5673941093544005E-02
 SKALA_GPW| Active atom-composite tau range   5.7822078068562948E-04   7.2583196020579957E-02
 SKALA_GPW| Active atom-composite tau integral   1.3851640561654055E+01
 SKALA_GPW| Active atom-composite max gradient   8.0429332536102655E-02
    14 OT DIIS     0.10E-02   29.4     0.00000052       -34.9949108412 -6.29E-09
 SKALA_GPW| Atom-composite cross support/maxima   0.000000000000E+00   0.000000000000E+00   0.000000000000E+00   0.000000000000E+00
 SKALA_GPW| Active atom-composite XC energy  -9.9964313328116496E+00
 SKALA_GPW| Active atom-composite electrons   3.2035672658131851E+01
 SKALA_GPW| Active atom-composite density range   6.2007041949680820E-06   6.5673905707394342E-02
 SKALA_GPW| Active atom-composite tau range   5.7821944856257320E-04   7.2583132077692125E-02
 SKALA_GPW| Active atom-composite tau integral   1.3851618893539840E+01
 SKALA_GPW| Active atom-composite max gradient   8.0429145711129149E-02
    15 OT DIIS     0.10E-02   29.7     0.00000047       -34.9949108388  2.31E-09

  *** SCF run converged in    15 steps ***


  Electronic density on regular grids:        -32.0000000000        0.0000000000
  Core density on regular grids:               32.0000000000        0.0000000000
  Hard and soft densities (Lebedev):         -163.1858247535     -163.1858247535
  Total Rho_soft + Rho1_hard - Rho1_soft      -32.0000000000
  Total charge density (r-space):               0.0000000000
  Total Rho_soft + Rho0_soft (g-space):        -0.0000000484

  Overlap energy of the core charge distribution:               0.00000000001621
  Self energy of the core charge distribution:                -88.15121238703466
  Core Hamiltonian energy:                                     18.75342178994054
  Hartree energy:                                              77.28429654249577
  Exchange-correlation energy:                                  0.00000000000000
  Dispersion energy:                                           -0.16092804143019

  GAPW| Exc from hard and soft atomic rho1:                    -9.99643133281165
  GAPW| local Eh = 1 center integrals:                        -32.72405741002405

  Total energy:                                               -34.99491083884804

  outer SCF iter =    2 RMS gradient =   0.47E-06 energy =        -34.9949108388
  outer SCF loop converged in   2 iterations or   65 steps


 !-----------------------------------------------------------------------------!
                     Mulliken Population Analysis

 #  Atom  Element  Kind  Atomic population                           Net charge
       1     Al       1          2.408056                              0.591944
       2     Al       1          2.412594                              0.587406
       3     Al       1          2.412552                              0.587448
       4     Al       1          2.412593                              0.587407
       5     P        2          5.589829                             -0.589829
       6     P        2          5.596258                             -0.596258
       7     P        2          5.584061                             -0.584061
       8     P        2          5.584055                             -0.584055
 # Total charge                             32.000000                 -0.000000

 !-----------------------------------------------------------------------------!

 !-----------------------------------------------------------------------------!
                           Hirshfeld Charges

  #Atom  Element  Kind  Ref Charge     Population                    Net charge
      1       Al     1       3.000          2.696                         0.304
      2       Al     1       3.000          2.697                         0.303
      3       Al     1       3.000          2.697                         0.303
      4       Al     1       3.000          2.697                         0.303
      5       P      2       5.000          5.304                        -0.304
      6       P      2       5.000          5.308                        -0.308
      7       P      2       5.000          5.301                        -0.301
      8       P      2       5.000          5.301                        -0.301

  Total Charge                                                           -0.000
 !-----------------------------------------------------------------------------!

 ENERGY| Total FORCE_EVAL ( QS ) energy [hartree]            -34.994910838848035

 -------------------------------------------------------------------------------
 -                                                                             -
 -                                DBCSR STATISTICS                             -
 -                                                                             -
 -------------------------------------------------------------------------------
 COUNTER                                    TOTAL       BLAS       SMM       ACC
 flops    16 x    16 x    16             79036416       0.0%    100.0%      0.0%     
 flops    16 x    16 x   232           2257846272       0.0%    100.0%      0.0%     
 flops    29 x    16 x    16           5593300992       0.0%    100.0%      0.0%     
 flops    29 x    16 x    29          49852219392       0.0%    100.0%      0.0%     
 flops inhomo. stacks                           0       0.0%      0.0%      0.0%
 flops total                        57.782403E+09       0.0%    100.0%      0.0%
 flops max/rank                     57.782403E+09       0.0%    100.0%      0.0%
 matmuls inhomo. stacks                         0       0.0%      0.0%      0.0%
 matmuls total                            2257776       0.0%    100.0%      0.0%
 number of processed stacks                636912       0.0%    100.0%      0.0%
 average stack size                                     0.0       3.5       0.0
 marketing flops                    57.758343E+09
 -------------------------------------------------------------------------------
 # multiplications                         104688
 max memory usage/rank             329.476080E+09
 # max total images/rank                        1
 # max 3D layers                                1
 # MPI messages exchanged                       0
 -------------------------------------------------------------------------------
 -                                                                             -
 -                      DBCSR MESSAGE PASSING PERFORMANCE                      -
 -                                                                             -
 -------------------------------------------------------------------------------
 ROUTINE             CALLS      AVE VOLUME [Bytes]
 MP_Bcast                5                     12.
 MP_Allreduce       465579                      8.
 MP_Alltoall        720418                  21521.
 MP_ISend           418752                    270.
 MP_IRecv           418752                    270.
 -------------------------------------------------------------------------------

 -------------------------------------------------------------------------------
 -                                                                             -
 -                                GRID STATISTICS                              -
 -                                                                             -
 -------------------------------------------------------------------------------
 LP    KERNEL             BACKEND                              COUNT     PERCENT
 6     collocate ortho    CPU                                1226368      25.37%
 8     collocate ortho    CPU                                1226368      25.37%
 6     integrate ortho    CPU                                1189760      24.62%
 8     integrate ortho    CPU                                1189760      24.62%
 4     collocate general  CPU                                    520       0.01%
 4     integrate general  CPU                                    520       0.01%
 0     collocate general  CPU                                     16       0.00%
 0     integrate general  CPU                                      8       0.00%
 -------------------------------------------------------------------------------

 -------------------------------------------------------------------------------
 -                                                                             -
 -                          OFFLOAD MEMPOOL STATISTICS                         -
 -                                                                             -
 -------------------------------------------------------------------------------
 Memory consumption                Number of allocations  Used [MiB]  Size [MiB]
 Host                                                 10         129   268434891
 -------------------------------------------------------------------------------

 MEMORY| Estimated peak process memory [MiB]                                3169

 -------------------------------------------------------------------------------
 ----                             MULTIGRID INFO                            ----
 -------------------------------------------------------------------------------
 count for grid        1:              3          cutoff [a.u.]          400.00
 count for grid        2:          10263          cutoff [a.u.]          133.33
 count for grid        3:          18098          cutoff [a.u.]           44.44
 count for grid        4:          23908          cutoff [a.u.]           14.81
 count for grid        5:          10619          cutoff [a.u.]            4.94
 total gridlevel count  :          62891

 -------------------------------------------------------------------------------
 -                                                                             -
 -                         MESSAGE PASSING PERFORMANCE                         -
 -                                                                             -
 -------------------------------------------------------------------------------

 ROUTINE             CALLS      AVE VOLUME [Bytes]
 MP_Group              135
 MP_Bcast             6497                  39548.
 MP_Allreduce       123307                  79902.
 MP_Sync                 5
 MP_Wait              3240
 MP_ISend             4536                  61519.
 MP_IRecv             4536                  61519.
 -------------------------------------------------------------------------------


 -------------------------------------------------------------------------------
 -                                                                             -
 -                           R E F E R E N C E S                               -
 -                                                                             -
 -------------------------------------------------------------------------------
 
 CP2K version 2026.2 (Development Version), the CP2K developers group (2026).
 CP2K is freely available from https://www.cp2k.org/ .
 
 M. Iannuzzi, J. Wilhelm, F. Stein, A. Bussy, H. Elgabarty, D. Golze, A. Hehn, 
 M. Graml, S. Marek, B. Sertcan Gökmen, C. Schran, H. Forbert, R. Z. 
 Khaliullin, A. Kozhevnikov, M. Taillefumier, R. Meli, V. V. Rybkin, M. Brehm, 
 R. Schade, O. Schütt, J. V. Pototschnig, H. Mirhosseini, A. Knüpfer, D. Marx, 
 M. Krack, J. Hutter, T. D. Kühne.
 J. Phys. Chem. B 130, 1237-1310 (2026).
 The CP2K Program Package Made Simple.
 https://doi.org/10.1021/acs.jpcb.5c05851

 L. Wittmann, I. Gordiy, M. Friede, B. Helmich-Paris, S. Grimme, A. Hansen, M. 
 Bursch.
 Phys. Chem. Chem. Phys. 26, 21379-21394 (2024).
 Extension of the D3 and D4 London dispersion corrections to the full actinides 
 series.
 https://doi.org/10.1039/d4cp01514b

 T. D. Kühne, M. Iannuzzi, M. Del Ben, V. V. Rybkin, P. Seewald, F. Stein, T. 
 Laino, R. Z. Khaliullin, O. Schütt, F. Schiffmann, D. Golze, J. Wilhelm, S. 
 Chulkov, M. H. Bani-Hashemian, V. Weber, U. Borstnik, M. Taillefumier, A. S. 
 Jakobovits, A. Lazzaro, H. Pabst, T. Müller, R. Schade, M. Guidon, S. 
 Andermatt, N. Holmberg, G. K. Schenter, A. Hehn, A. Bussy, F. Belleflamme, G. 
 Tabacchi, A. Glöß, M. Lass, I. Bethune, C. J. Mundy, C. Plessl, M. Watkins, 
 J. VandeVondele, M. Krack, J. Hutter.
 J. Chem. Phys. 152, 194103 (2020).
 CP2K: An electronic structure and molecular dynamics software package - 
 Quickstep: Efficient and accurate electronic structure calculations.
 https://doi.org/10.1063/5.0007045

 A. Togo, I. Tanaka.
 arXiv, 1808.01590 (2018).
 Spglib : a software library for crystal symmetry search.

 L. Goerigk, A. Hansen, C. Bauer, S. Ehrlich, A. Najibi, S. Grimme.
 Phys. Chem. Chem. Phys. 19, 32184-32215 (2017).
 A look at the density functional theory zoo with the advanced GMTKN55 database 
 for general main group thermochemistry, kinetics and noncovalent interactions.
 https://doi.org/10.1039/C7CP04913G

 O. Schuett, P. Messmer, J. Hutter, J. VandeVondele.
 Electronic Structure Calculations on Graphics Processing Units, 173-190 (2016).
 GPU-Accelerated Sparse Matrix-Matrix Multiplication for Linear Scaling Density 
 Functional Theory.
 https://doi.org/10.1002/9781118670712.ch8

 U. Borstnik, J. VandeVondele, V. Weber, J. Hutter.
 Parallel Comput. 40, 47-58 (2014).
 Sparse matrix multiplication: The distributed block-compressed sparse row 
 library.
 https://doi.org/10.1016/j.parco.2014.03.012

 S. Grimme, S. Ehrlich, L. Goerigk.
 J. Comput. Chem. 32, 1456 (2011).
 Effect of the damping function in dispersion corrected density functional 
 theory.
 https://doi.org/10.1002/jcc.21759

 S. Grimme, J. Antony, S. Ehrlich, H. Krieg.
 J. Chem. Phys. 132, 154104 (2010).
 A consistent and accurate ab initio parametrization of density functional 
 dispersion correction (DFT-D) for the 94 elements H-Pu.
 https://doi.org/10.1063/1.3382344

 V. Weber, J. VandeVondele, J. Hutter, A. M. N. Niklasson.
 J. Chem. Phys. 128, 084113 (2008).
 Direct energy functional minimization under orthogonality constraints.
 https://doi.org/10.1063/1.2841077

 J. VandeVondele, J. Hutter.
 J. Chem. Phys. 127, 114105 (2007).
 Gaussian basis sets for accurate calculations on molecular systems in gas and 
 condensed phases.
 https://doi.org/10.1063/1.2770708

 M. Krack.
 Theor. Chem. Acc. 114, 145-152 (2005).
 Pseudopotentials for H to Kr optimized for gradient-corrected 
 exchange-correlation functionals.
 https://doi.org/10.1007/s00214-005-0655-y

 M. Frigo, S. G. Johnson.
 Proc. IEEE 93, 216-231 (2005).
 The design and implementation of FFTW3.
 https://doi.org/10.1109/JPROC.2004.840301

 J. VandeVondele, J. Hutter.
 J. Chem. Phys. 118, 4365-4369 (2003).
 An efficient orbital transformation method for electronic structure 
 calculations.
 https://doi.org/10.1063/1.1543154

 M. Krack, M. Parrinello.
 Phys. Chem. Chem. Phys. 2, 2105-2112 (2000).
 All-electron ab-initio molecular dynamics.
 https://doi.org/10.1039/b001167n

 G. Lippert, J. Hutter, M. Parrinello.
 Theor. Chem. Acc. 103, 124-140 (1999).
 The Gaussian and augmented-plane-wave density functional method for ab initio 
 molecular dynamics simulations.
 https://doi.org/10.1007/s002140050523

 C. Hartwigsen, S. Goedecker, J. Hutter.
 Phys. Rev. B 58, 3641-3662 (1998).
 Relativistic separable dual-space Gaussian pseudopotentials from H to Rn.
 https://doi.org/10.1103/PhysRevB.58.3641

 S. Goedecker, M. Teter, J. Hutter.
 Phys. Rev. B 54, 1703-1710 (1996).
 Separable dual-space Gaussian pseudopotentials.
 https://doi.org/10.1103/PhysRevB.54.1703

 C.-L. Fu, K.-M. Ho.
 Phys. Rev. B 28, 5480-5486 (1983).
 First-principles calculation of the equilibrium ground-state properties of 
 transition metals: Applications to Nb and Mo.
 https://doi.org/10.1103/PhysRevB.28.5480


 -------------------------------------------------------------------------------
 -                                                                             -
 -                                T I M I N G                                  -
 -                                                                             -
 -------------------------------------------------------------------------------
 SUBROUTINE                       CALLS  ASD         SELF TIME        TOTAL TIME
                                MAXIMUM       AVERAGE  MAXIMUM  AVERAGE  MAXIMUM
 CP2K                                 1  1.0    0.014    0.014 1934.350 1934.350
 qs_energies                          1  2.0    0.000    0.000 1934.132 1934.132
 scf_env_do_scf                       1  3.0    0.000    0.000 1931.455 1931.455
 scf_env_do_scf_inner_loop           65  4.0    0.006    0.006 1866.897 1866.897
 qs_ks_update_qs_env                 67  5.0    0.001    0.001 1728.065 1728.065
 rebuild_ks_matrix                   65  6.0    0.000    0.000 1727.378 1727.378
 qs_ks_build_kohn_sham_matrix        65  7.0    0.025    0.025 1727.377 1727.377
 calculate_vxc_atom                  65  8.0  617.615  617.615 1603.279 1603.279
 gaVxcgb_GC                        1040  9.0  381.358  381.358  381.358  381.358
 calc_tau_atom                     1560  9.0  296.237  296.237  296.237  296.237
 dgaVtaudgb                        1040  9.0  203.360  203.360  203.360  203.360
 qs_rho_update_rho_low               67  5.0    0.001    0.001  125.521  125.521
 calculate_rho_atom_coeff            67  6.0   84.685   84.685   84.686   84.686
 qs_scf_new_mos_kp                   65  5.0    0.001    0.001   72.236   72.236
 qs_scf_loop_do_ot_kp                65  6.0    0.094    0.094   72.235   72.235
 init_scf_loop                        2  4.0    0.002    0.002   64.558   64.558
 update_ks_atom                      65  8.0   54.050   54.050   54.051   54.051
 skala_atom_torch_forward           195  9.0   45.482   45.482   49.194   49.194
 sum_up_and_integrate                65  8.0    0.003    0.003   44.392   44.392
 integrate_v_rspace                 130  9.0    0.277    0.277   44.356   44.356
 grid_integrate_task_list           130 10.0   42.805   42.805   42.805   42.805
 gaVxcgb_noGC                       520  9.0   42.493   42.493   42.493   42.493
 calculate_rho_elec                 134  6.0    0.445    0.445   40.835   40.835
 -------------------------------------------------------------------------------

 The number of warnings for this run is : 2
 
 -------------------------------------------------------------------------------
  **** **** ******  **  PROGRAM ENDED AT                 2026-09-04 07:15:02.747
 ***** ** ***  *** **   PROGRAM RAN ON                                spark-c86c
 **    ****   ******    PROGRAM RAN BY                                  kuehne88
 ***** **    ** ** **   PROGRAM PROCESS ID                               2425104
  **** **  *******  **  PROGRAM STOPPED IN /home/kuehne88/work/native-skala-spar
                                           k/goldzak12/runs/diagnostic-spark-hoc
                                           -alp-v08-fsi-from-clean-v07-wave124-2
                                           0260904/production/hybrid-one-center/
                                           AlP/v08
