 DBCSR| CPU Multiplication driver                                           BLAS (U)
 DBCSR| Multrec recursion limit                                              512 (U)
 DBCSR| Multiplication stack size                                           1000 (D)
 DBCSR| Maximum elements for images                                    UNLIMITED (U)
 DBCSR| Multiplicative factor virtual images                                   1 (U)
 DBCSR| Use multiplication densification                                       T (D)
 DBCSR| Multiplication size stacks                                             3 (U)
 DBCSR| Use memory pool for CPU allocation                                     F (U)
 DBCSR| Number of 3D layers                                               SINGLE (U)
 DBCSR| Use MPI memory allocation                                              F (U)
 DBCSR| Use RMA algorithm                                                      F (U)
 DBCSR| Use Communication thread                                               T (U)
 DBCSR| Communication thread load                                             15 (D)
 DBCSR| MPI: My process id                                                     0
 DBCSR| MPI: Number of processes                                               1
 DBCSR| OMP: Current number of threads                                        20
 DBCSR| OMP: Max number of threads                                            20
 DBCSR| Split modifier for TAS multiplication algorithm                  1.0E+00 (U)


  **** **** ******  **  PROGRAM STARTED AT               2026-09-01 01:40:31.519
 ***** ** ***  *** **   PROGRAM STARTED ON                                 terok
 **    ****   ******    PROGRAM STARTED BY                              kuehne88
 ***** **    ** ** **   PROGRAM PROCESS ID                                459889
  **** **  *******  **  PROGRAM STARTED IN /home/kuehne88/work/native-skala-tero
                                           k/goldzak12/runs/production/hybrid-di
                                           rect/MgS/v01

 CP2K| version string:                 CP2K version 2026.2 (Development Version)
 CP2K| source code revision number:                                   c1bff3eeb8
 CP2K| cp2kflags: omp fftw3 gauxc gauxc_mpi gauxc_onedft gauxc_host parallel sca
 CP2K|            lapack mpi_f08 openblas libtorch libtorch_cuda
 CP2K| is freely available from                            https://www.cp2k.org/
 CP2K| Program compiled at                                   2026-08-24 23:53:18
 CP2K| Program compiled on                                                 terok
 CP2K| Program compiled for                                               x86_64
 CP2K| Data directory path      /home/kuehne88/work/native-skala-terok/cp2k/data
 CP2K| Input file name                                          actual-input.inp

 GLOBAL| Force Environment number                                              1
 GLOBAL| Basis set file name                             BASIS_MOLOPT_UZH_2026.2
 GLOBAL| Potential file name                                POTENTIAL_UZH_2026.2
 GLOBAL| MM Potential file name                                     MM_POTENTIAL
 GLOBAL| Coordinate file name                                      __STD_INPUT__
 GLOBAL| Method name                                                        CP2K
 GLOBAL| Project name                   G12_MgS_hybrid-direct_v0p9000000000_k555
 GLOBAL| Run type                                                         ENERGY
 GLOBAL| FFT library                                                       FFTW3
 GLOBAL| Diagonalization library                                       ScaLAPACK
 GLOBAL| Cholesky decomposition library                                ScaLAPACK
 GLOBAL| DGEMM library                                                      BLAS
 GLOBAL| Direct generalized diagonalization requested                          F
 GLOBAL| Orthonormality check for eigenvectors                          DISABLED
 GLOBAL| Matrix multiplication library                                 ScaLAPACK
 GLOBAL| All-to-all communication in single precision                          F
 GLOBAL| FFTs using library dependent lengths                                  F
 GLOBAL| Grid backend                                                       AUTO
 GLOBAL| Global print level                                               MEDIUM
 GLOBAL| MPI I/O enabled                                                       T
 GLOBAL| Total number of message passing processes                             1
 GLOBAL| Number of distributed systems (nodes)                                 1
 GLOBAL| Number of threads for this process                                   20
 GLOBAL| This output is from process                                           0
 GLOBAL| OpenMP stack size per thread (OMP_STACKSIZE)                       512M
 GLOBAL| CPU model name                                       AMD EPYC Processor

 MEMORY| system memory details [Kb]
 MEMORY|                        rank 0           min           max       average
 MEMORY| MemTotal            528104844     528104844     528104844     528104844
 MEMORY| MemFree             308455672     308455672     308455672     308455672
 MEMORY| Buffers                   664           664           664           664
 MEMORY| Cached              146932612     146932612     146932612     146932612
 MEMORY| Slab                 26803656      26803656      26803656      26803656
 MEMORY| SReclaimable         22331988      22331988      22331988      22331988
 MEMORY| MemLikelyFree       477720936     477720936     477720936     477720936


 *** Fundamental physical constants (SI units) ***

 *** Literature: B. J. Mohr and B. N. Taylor,
 ***             CODATA recommended values of the fundamental physical
 ***             constants: 2006, Web Version 5.1
 ***             http://physics.nist.gov/constants

 Speed of light in vacuum [m/s]                             2.99792458000000E+08
 Magnetic constant or permeability of vacuum [N/A**2]       1.25663706143592E-06
 Electric constant or permittivity of vacuum [F/m]          8.85418781762039E-12
 Planck constant (h) [J*s]                                  6.62606896000000E-34
 Planck constant (h-bar) [J*s]                              1.05457162825177E-34
 Elementary charge [C]                                      1.60217648700000E-19
 Electron mass [kg]                                         9.10938215000000E-31
 Electron g factor [ ]                                     -2.00231930436220E+00
 Proton mass [kg]                                           1.67262163700000E-27
 Fine-structure constant                                    7.29735253760000E-03
 Rydberg constant [1/m]                                     1.09737315685270E+07
 Avogadro constant [1/mol]                                  6.02214179000000E+23
 Boltzmann constant [J/K]                                   1.38065040000000E-23
 Atomic mass unit [kg]                                      1.66053878200000E-27
 Bohr radius [m]                                            5.29177208590000E-11

 *** Conversion factors ***

 [u] -> [a.u.]                                              1.82288848426455E+03
 [Angstrom] -> [Bohr] = [a.u.]                              1.88972613288564E+00
 [a.u.] = [Bohr] -> [Angstrom]                              5.29177208590000E-01
 [a.u.] -> [s]                                              2.41888432650478E-17
 [a.u.] -> [fs]                                             2.41888432650478E-02
 [a.u.] -> [J]                                              4.35974393937059E-18
 [a.u.] -> [N]                                              8.23872205491840E-08
 [a.u.] -> [K]                                              3.15774647902944E+05
 [a.u.] -> [kJ/mol]                                         2.62549961709828E+03
 [a.u.] -> [kcal/mol]                                       6.27509468713739E+02
 [a.u.] -> [Pa]                                             2.94210107994716E+13
 [a.u.] -> [bar]                                            2.94210107994716E+08
 [a.u.] -> [atm]                                            2.90362800883016E+08
 [a.u.] -> [eV]                                             2.72113838565563E+01
 [a.u.] -> [Hz]                                             6.57968392072181E+15
 [a.u.] -> [1/cm] (wave numbers)                            2.19474631370540E+05
 [a.u./Bohr**2] -> [1/cm]                                   5.14048714338585E+03
 

 CELL| Volume [angstrom^3]:                                           125.673124
 CELL| Vector a [angstrom]:       5.009     0.000     0.000   |a| =     5.008959
 CELL| Vector b [angstrom]:       0.000     5.009     0.000   |b| =     5.008959
 CELL| Vector c [angstrom]:       0.000     0.000     5.009   |c| =     5.008959
 CELL| Angle (b,c), alpha [degree]:                                    90.000000
 CELL| Angle (a,c), beta  [degree]:                                    90.000000
 CELL| Angle (a,b), gamma [degree]:                                    90.000000
 CELL| Numerically orthorhombic:                                             YES
 CELL| Periodicity                                                           XYZ

 CELL_REF| Volume [angstrom^3]:                                       125.673124
 CELL_REF| Vector a [angstrom     5.009     0.000     0.000   |a| =     5.008959
 CELL_REF| Vector b [angstrom     0.000     5.009     0.000   |b| =     5.008959
 CELL_REF| Vector c [angstrom     0.000     0.000     5.009   |c| =     5.008959
 CELL_REF| Angle (b,c), alpha [degree]:                                90.000000
 CELL_REF| Angle (a,c), beta  [degree]:                                90.000000
 CELL_REF| Angle (a,b), gamma [degree]:                                90.000000
 CELL_REF| Numerically orthorhombic:                                         YES
 CELL_REF| Periodicity                                                       XYZ

 GENERATE|  Preliminary Number of Bonds generated:                             0
 GENERATE|  Achieved consistency in connectivity generation.

 *** WARNING in cryssym.F:203 :: Symmetry library SPGLIB not available ***


 *******************************************************************************
 *******************************************************************************
 **                                                                           **
 **     #####                         ##              ##                      **
 **    ##   ##            ##          ##              ##                      **
 **   ##     ##                       ##            ######                    **
 **   ##     ##  ##   ##  ##   #####  ##  ##   ####   ##    #####    #####    **
 **   ##     ##  ##   ##  ##  ##      ## ##   ##      ##   ##   ##  ##   ##   **
 **   ##  ## ##  ##   ##  ##  ##      ####     ###    ##   ######   ######    **
 **    ##  ###   ##   ##  ##  ##      ## ##      ##   ##   ##       ##        **
 **     #######   #####   ##   #####  ##  ##  ####    ##    #####   ##        **
 **           ##                                                    ##        **
 **                                                                           **
 **                                                ... make the atoms dance   **
 **                                                                           **
 **            Copyright (C) by CP2K developers group (2000-2026)             **
 **                      J. Chem. Phys. 152, 194103 (2020)                    **
 **                                                                           **
 *******************************************************************************

 DFT| Spin restricted Kohn-Sham (RKS) calculation                            RKS
 DFT| Multiplicity                                                             1
 DFT| Number of spin states                                                    1
 DFT| Charge                                                                   0
 DFT| Self-interaction correction (SIC)                                       NO
 DFT| Cutoffs: density                                              1.000000E-10
 DFT|          gradient                                             1.000000E-10
 DFT|          tau                                                  1.000000E-10
 DFT|          cutoff_smoothing_range                               0.000000E+00
 DFT| XC density smoothing                                                  NONE
 DFT| XC derivatives                                                          PW

 FUNCTIONAL| GAUXC:
 FUNCTIONAL| Functional computed by GauXC Skala model SKALA                     

 vdW POTENTIAL|                                                   Pair Potential
 vdW POTENTIAL|          DFT-D3 (Version 3.1)
 vdW POTENTIAL|          Potential Form: S. Grimme et al, JCP 132: 154104 (2010)
 vdW POTENTIAL|          BJ Damping: S. Grimme et al, JCC 32: 1456 (2011)
 vdW POTENTIAL|          Cutoff Radius [Bohr]:                             37.79
 vdW POTENTIAL|          s6 Scaling Factor:                               1.0000
 vdW POTENTIAL|          a1 Damping Factor:                               0.3981
 vdW POTENTIAL|          s8 Scaling Factor:                               1.9889
 vdW POTENTIAL|          a2 Damping Factor:                               4.4211
 vdW POTENTIAL|          Cutoff for CN calculation:                   0.1000E-05

 QS| Method:                                                                GAPW
 QS| Density plane wave grid type                        NON-SPHERICAL FULLSPACE
 QS| Number of grid levels:                                                    5
 QS| Density cutoff [a.u.]:                                                400.0
 QS| Multi grid cutoff [a.u.]: 1) grid level                               400.0
 QS|                           2) grid level                               133.3
 QS|                           3) grid level                                44.4
 QS|                           4) grid level                                14.8
 QS|                           5) grid level                                 4.9
 QS| Grid level progression factor:                                          3.0
 QS| Relative density cutoff [a.u.]:                                        30.0
 QS| Interaction thresholds: eps_pgf_orb:                                1.0E-06
 QS|                         eps_filter_matrix:                          0.0E+00
 QS|                         eps_core_charge:                            1.0E-14
 QS|                         eps_rho_gspace:                             1.0E-12
 QS|                         eps_rho_rspace:                             1.0E-12
 QS|                         eps_gvg_rspace:                             1.0E-06
 QS|                         eps_ppl:                                    1.0E-02
 QS|                         eps_ppnl:                                   1.0E-08
 QS| GAPW|      XC integration using accurate scheme: Ref. exponent     6.000000
 QS| GAPW|      One center basis extended with primitives (small:s)
 QS| GAPW|                   eps_fit:                                    1.0E-04
 QS| GAPW|                   eps_iso:                                    1.0E-12
 QS| GAPW|                   eps_svd:                                    1.0E-08
 QS| GAPW|                   eps_cpc:                                    1.0E-12
 QS| GAPW|   atom-r-grid: quadrature:                                     GC_LOG
 QS| GAPW|      atom-s-grid:  max l :                                          6
 QS| GAPW|      max_l_rho0 :                                                   4
 QS| GAPW|      At least one kind is NOT PAW, i.e. it has only soft AO 
 QS| GAPW|      The NOT PAW atoms are treated fully GPW


 ATOMIC KIND INFORMATION

  1. Atomic kind: Mg                                    Number of atoms:       4

     Orbital Basis Set                                  TZV2P-MOLOPT-PBE-GTH-q10

       Number of orbital shell sets:                                           1
       Number of orbital shells:                                               8
       Number of primitive Cartesian functions:                                7
       Number of Cartesian basis functions:                                   19
       Number of spherical basis functions:                                   18
       Norm type:                                                              2

       Normalised Cartesian orbitals:

                        Set   Shell   Orbital            Exponent    Coefficient

                          1       1    2s               30.665113       0.451447
                                                        12.275859       0.726075
                                                         4.272010      -0.526256
                                                         1.495769      -0.610303
                                                         0.537465      -0.133706
                                                         0.150468       0.056297
                                                         0.053463       0.038886

                          1       2    3s               30.665113       0.334492
                                                        12.275859       0.526478
                                                         4.272010      -0.362593
                                                         1.495769      -0.325293
                                                         0.537465      -0.035503
                                                         0.150468      -0.067140
                                                         0.053463      -0.027721

                          1       3    4s               30.665113      -0.099998
                                                        12.275859      -0.274466
                                                         4.272010       0.175263
                                                         1.495769      -0.432909
                                                         0.537465       0.026355
                                                         0.150468       0.323066
                                                         0.053463      -0.137249

                          1       4    5s               30.665113      -0.186629
                                                        12.275859      -0.607745
                                                         4.272010       0.356895
                                                         1.495769      -0.575877
                                                         0.537465       0.591349
                                                         0.150468      -0.004891
                                                         0.053463       0.014396

                          1       5    3px              30.665113       3.733874
                                                        12.275859       5.044435
                                                         4.272010       3.057335
                                                         1.495769       0.909074
                                                         0.537465       0.129687
                                                         0.150468       0.022899
                                                         0.053463       0.004096
                          1       5    3py              30.665113       3.733874
                                                        12.275859       5.044435
                                                         4.272010       3.057335
                                                         1.495769       0.909074
                                                         0.537465       0.129687
                                                         0.150468       0.022899
                                                         0.053463       0.004096
                          1       5    3pz              30.665113       3.733874
                                                        12.275859       5.044435
                                                         4.272010       3.057335
                                                         1.495769       0.909074
                                                         0.537465       0.129687
                                                         0.150468       0.022899
                                                         0.053463       0.004096

                          1       6    4px              30.665113       1.755132
                                                        12.275859       2.473459
                                                         4.272010       1.516219
                                                         1.495769       0.501872
                                                         0.537465      -0.010970
                                                         0.150468      -0.080635
                                                         0.053463      -0.015741
                          1       6    4py              30.665113       1.755132
                                                        12.275859       2.473459
                                                         4.272010       1.516219
                                                         1.495769       0.501872
                                                         0.537465      -0.010970
                                                         0.150468      -0.080635
                                                         0.053463      -0.015741
                          1       6    4pz              30.665113       1.755132
                                                        12.275859       2.473459
                                                         4.272010       1.516219
                                                         1.495769       0.501872
                                                         0.537465      -0.010970
                                                         0.150468      -0.080635
                                                         0.053463      -0.015741

                          1       7    5px              30.665113      -0.708806
                                                        12.275859      -1.489042
                                                         4.272010      -0.885332
                                                         1.495769      -0.583098
                                                         0.537465       0.505452
                                                         0.150468       0.075488
                                                         0.053463      -0.036487
                          1       7    5py              30.665113      -0.708806
                                                        12.275859      -1.489042
                                                         4.272010      -0.885332
                                                         1.495769      -0.583098
                                                         0.537465       0.505452
                                                         0.150468       0.075488
                                                         0.053463      -0.036487
                          1       7    5pz              30.665113      -0.708806
                                                        12.275859      -1.489042
                                                         4.272010      -0.885332
                                                         1.495769      -0.583098
                                                         0.537465       0.505452
                                                         0.150468       0.075488
                                                         0.053463      -0.036487

                          1       8    4dx2             30.665113      14.879881
                                                        12.275859      -1.842904
                                                         4.272010       0.638933
                                                         1.495769       0.185250
                                                         0.537465       0.191459
                                                         0.150468       0.039970
                                                         0.053463       0.001356
                          1       8    4dxy             30.665113      25.772709
                                                        12.275859      -3.192003
                                                         4.272010       1.106664
                                                         1.495769       0.320863
                                                         0.537465       0.331617
                                                         0.150468       0.069229
                                                         0.053463       0.002348
                          1       8    4dxz             30.665113      25.772709
                                                        12.275859      -3.192003
                                                         4.272010       1.106664
                                                         1.495769       0.320863
                                                         0.537465       0.331617
                                                         0.150468       0.069229
                                                         0.053463       0.002348
                          1       8    4dy2             30.665113      14.879881
                                                        12.275859      -1.842904
                                                         4.272010       0.638933
                                                         1.495769       0.185250
                                                         0.537465       0.191459
                                                         0.150468       0.039970
                                                         0.053463       0.001356
                          1       8    4dyz             30.665113      25.772709
                                                        12.275859      -3.192003
                                                         4.272010       1.106664
                                                         1.495769       0.320863
                                                         0.537465       0.331617
                                                         0.150468       0.069229
                                                         0.053463       0.002348
                          1       8    4dz2             30.665113      14.879881
                                                        12.275859      -1.842904
                                                         4.272010       0.638933
                                                         1.495769       0.185250
                                                         0.537465       0.191459
                                                         0.150468       0.039970
                                                         0.053463       0.001356

       Atomic covalent radius [Angstrom]:                                  1.360

       Atomic van der Waals radius [Angstrom]:                             1.730

     GTH Potential information for                                   GTH-PBE-q10

       Description:                       Goedecker-Teter-Hutter pseudopotential
                                           Goedecker et al., PRB 54, 1703 (1996)
                                          Hartwigsen et al., PRB 58, 3641 (1998)
                                                      Krack, TCA 114, 145 (2005)

       Gaussian exponent of the core charge distribution:              13.466850
       Electronic configuration (s p d ...):                       4   6   0   0

       Parameters of the local part of the GTH pseudopotential:

                          rloc        C1          C2          C3          C4
                        0.192687  -20.567356    3.014683

       Parameters of the non-local part of the GTH pseudopotential:

                   l      r(l)      h(i,j,l)

                   0    0.141434   41.044219
                   1    0.102998   -9.980682

  2. Atomic kind: S                                     Number of atoms:       4

     Orbital Basis Set                                   TZV2P-MOLOPT-PBE-GTH-q6

       Number of orbital shell sets:                                           1
       Number of orbital shells:                                               9
       Number of primitive Cartesian functions:                                4
       Number of Cartesian basis functions:                                   34
       Number of spherical basis functions:                                   29
       Norm type:                                                              2

       Normalised Cartesian orbitals:

                        Set   Shell   Orbital            Exponent    Coefficient

                          1       1    2s                1.909285       0.317142
                                                         1.195069      -0.043753
                                                         0.372557      -0.224533
                                                         0.119646      -0.070852

                          1       2    3s                1.909285      -0.359750
                                                         1.195069      -0.143623
                                                         0.372557       0.347052
                                                         0.119646      -0.222614

                          1       3    4s                1.909285       0.697346
                                                         1.195069      -1.478645
                                                         0.372557       0.075945
                                                         0.119646       0.034089

                          1       4    3px               1.909285       0.542980
                                                         1.195069      -0.491283
                                                         0.372557      -0.270944
                                                         0.119646      -0.032363
                          1       4    3py               1.909285       0.542980
                                                         1.195069      -0.491283
                                                         0.372557      -0.270944
                                                         0.119646      -0.032363
                          1       4    3pz               1.909285       0.542980
                                                         1.195069      -0.491283
                                                         0.372557      -0.270944
                                                         0.119646      -0.032363

                          1       5    4px               1.909285       0.682434
                                                         1.195069      -0.508016
                                                         0.372557      -0.183204
                                                         0.119646       0.125359
                          1       5    4py               1.909285       0.682434
                                                         1.195069      -0.508016
                                                         0.372557      -0.183204
                                                         0.119646       0.125359
                          1       5    4pz               1.909285       0.682434
                                                         1.195069      -0.508016
                                                         0.372557      -0.183204
                                                         0.119646       0.125359

                          1       6    5px               1.909285      -4.787543
                                                         1.195069       1.991006
                                                         0.372557      -0.393268
                                                         0.119646       0.017618
                          1       6    5py               1.909285      -4.787543
                                                         1.195069       1.991006
                                                         0.372557      -0.393268
                                                         0.119646       0.017618
                          1       6    5pz               1.909285      -4.787543
                                                         1.195069       1.991006
                                                         0.372557      -0.393268
                                                         0.119646       0.017618

                          1       7    4dx2              1.909285       0.298660
                                                         1.195069       0.639898
                                                         0.372557       0.199968
                                                         0.119646       0.006416
                          1       7    4dxy              1.909285       0.517294
                                                         1.195069       1.108336
                                                         0.372557       0.346354
                                                         0.119646       0.011113
                          1       7    4dxz              1.909285       0.517294
                                                         1.195069       1.108336
                                                         0.372557       0.346354
                                                         0.119646       0.011113
                          1       7    4dy2              1.909285       0.298660
                                                         1.195069       0.639898
                                                         0.372557       0.199968
                                                         0.119646       0.006416
                          1       7    4dyz              1.909285       0.517294
                                                         1.195069       1.108336
                                                         0.372557       0.346354
                                                         0.119646       0.011113
                          1       7    4dz2              1.909285       0.298660
                                                         1.195069       0.639898
                                                         0.372557       0.199968
                                                         0.119646       0.006416

                          1       8    5dx2              1.909285      -1.624320
                                                         1.195069       3.449010
                                                         0.372557      -0.180239
                                                         0.119646       0.000879
                          1       8    5dxy              1.909285      -2.813405
                                                         1.195069       5.973861
                                                         0.372557      -0.312183
                                                         0.119646       0.001522
                          1       8    5dxz              1.909285      -2.813405
                                                         1.195069       5.973861
                                                         0.372557      -0.312183
                                                         0.119646       0.001522
                          1       8    5dy2              1.909285      -1.624320
                                                         1.195069       3.449010
                                                         0.372557      -0.180239
                                                         0.119646       0.000879
                          1       8    5dyz              1.909285      -2.813405
                                                         1.195069       5.973861
                                                         0.372557      -0.312183
                                                         0.119646       0.001522
                          1       8    5dz2              1.909285      -1.624320
                                                         1.195069       3.449010
                                                         0.372557      -0.180239
                                                         0.119646       0.000879

                          1       9    5fx3              1.909285      -0.584906
                                                         1.195069       0.904283
                                                         0.372557       0.121142
                                                         0.119646       0.000670
                          1       9    5fx2y             1.909285      -1.307890
                                                         1.195069       2.022038
                                                         0.372557       0.270881
                                                         0.119646       0.001498
                          1       9    5fx2z             1.909285      -1.307890
                                                         1.195069       2.022038
                                                         0.372557       0.270881
                                                         0.119646       0.001498
                          1       9    5fxy2             1.909285      -1.307890
                                                         1.195069       2.022038
                                                         0.372557       0.270881
                                                         0.119646       0.001498
                          1       9    5fxyz             1.909285      -2.265332
                                                         1.195069       3.502273
                                                         0.372557       0.469179
                                                         0.119646       0.002595
                          1       9    5fxz2             1.909285      -1.307890
                                                         1.195069       2.022038
                                                         0.372557       0.270881
                                                         0.119646       0.001498
                          1       9    5fy3              1.909285      -0.584906
                                                         1.195069       0.904283
                                                         0.372557       0.121142
                                                         0.119646       0.000670
                          1       9    5fy2z             1.909285      -1.307890
                                                         1.195069       2.022038
                                                         0.372557       0.270881
                                                         0.119646       0.001498
                          1       9    5fyz2             1.909285      -1.307890
                                                         1.195069       2.022038
                                                         0.372557       0.270881
                                                         0.119646       0.001498
                          1       9    5fz3              1.909285      -0.584906
                                                         1.195069       0.904283
                                                         0.372557       0.121142
                                                         0.119646       0.000670

       Atomic covalent radius [Angstrom]:                                  1.020

       Atomic van der Waals radius [Angstrom]:                             1.800

     GTH Potential information for                                    GTH-PBE-q6

       Description:                       Goedecker-Teter-Hutter pseudopotential
                                           Goedecker et al., PRB 54, 1703 (1996)
                                          Hartwigsen et al., PRB 58, 3641 (1998)
                                                      Krack, TCA 114, 145 (2005)

       Gaussian exponent of the core charge distribution:               2.832916
       Electronic configuration (s p d ...):                       2   4   0   0

       Parameters of the local part of the GTH pseudopotential:

                          rloc        C1          C2          C3          C4
                        0.420115   -5.974780

       Parameters of the non-local part of the GTH pseudopotential:

                   l      r(l)      h(i,j,l)

                   0    0.364825   13.144660   -4.241830
                                   -4.241830    5.476178
                   1    0.409479    3.700870


 MOLECULE KIND INFORMATION


 All atoms are their own molecule, skipping detailed information


 TOTAL NUMBERS AND MAXIMUM NUMBERS

  Total number of            - Atomic kinds:                                   2
                             - Atoms:                                          8
                             - Shell sets:                                     8
                             - Shells:                                        68
                             - Primitive Cartesian functions:                 44
                             - Cartesian basis functions:                    212
                             - Spherical basis functions:                    188

  Maximum angular momentum of- Orbital basis functions:                        3
                             - Local part of the GTH pseudopotential:          2
                             - Non-local part of the GTH pseudopotential:      2


 MODULE QUICKSTEP: ATOMIC COORDINATES IN ANGSTROM

   Atom Kind Element         X             Y             Z       Z(eff)     Mass
      1    1 Mg   12      0.000000      0.000000      0.000000  10.0000  24.3050
      2    1 Mg   12      0.000000      2.504479      2.504479  10.0000  24.3050
      3    1 Mg   12      2.504479      0.000000      2.504479  10.0000  24.3050
      4    1 Mg   12      2.504479      2.504479      0.000000  10.0000  24.3050
      5    2 S    16      2.504479      0.000000      0.000000   6.0000  32.0650
      6    2 S    16      0.000000      2.504479      0.000000   6.0000  32.0650
      7    2 S    16      0.000000      0.000000      2.504479   6.0000  32.0650
      8    2 S    16      2.504479      2.504479      2.504479   6.0000  32.0650



 SCF PARAMETERS         Density guess:                                    ATOMIC
                        --------------------------------------------------------
                        max_scf:                                             200
                        max_scf_history:                                       0
                        max_diis:                                              4
                        --------------------------------------------------------
                        eps_scf:                                        5.00E-06
                        eps_scf_history:                                0.00E+00
                        eps_diis:                                       1.00E-01
                        eps_eigval:                                     1.00E-05
                        --------------------------------------------------------
                        level_shift [a.u.]:                             0.000000
                        --------------------------------------------------------
                        Mixing method:                           DIRECT_P_MIXING
                        --------------------------------------------------------
                        Outer loop SCF in use 
                        No variables optimised in outer loop
                        eps_scf                                         5.00E-06
                        max_scf                                                5
                        No outer loop optimization
                        step_size                                       5.00E-01

 PW_GRID| Information for grid number                                          1
 PW_GRID| Cutoff [a.u.]                                                    400.0
 PW_GRID| spherical cutoff:                                                   NO
 PW_GRID|   Bounds   1            -45      44                Points:          90
 PW_GRID|   Bounds   2            -45      44                Points:          90
 PW_GRID|   Bounds   3            -45      44                Points:          90
 PW_GRID| Volume element (a.u.^3)  0.1163E-02     Volume (a.u.^3)       848.0843
 PW_GRID| Grid span                                                    FULLSPACE

 PW_GRID| Information for grid number                                          2
 PW_GRID| Number of the reference grid                                         1
 PW_GRID| Cutoff [a.u.]                                                    133.3
 PW_GRID| spherical cutoff:                                                   NO
 PW_GRID|   Bounds   1            -27      26                Points:          54
 PW_GRID|   Bounds   2            -27      26                Points:          54
 PW_GRID|   Bounds   3            -27      26                Points:          54
 PW_GRID| Volume element (a.u.^3)  0.5386E-02     Volume (a.u.^3)       848.0843
 PW_GRID| Grid span                                                    FULLSPACE

 PW_GRID| Information for grid number                                          3
 PW_GRID| Number of the reference grid                                         1
 PW_GRID| Cutoff [a.u.]                                                     44.4
 PW_GRID| spherical cutoff:                                                   NO
 PW_GRID|   Bounds   1            -15      14                Points:          30
 PW_GRID|   Bounds   2            -15      14                Points:          30
 PW_GRID|   Bounds   3            -15      14                Points:          30
 PW_GRID| Volume element (a.u.^3)  0.3141E-01     Volume (a.u.^3)       848.0843
 PW_GRID| Grid span                                                    FULLSPACE

 PW_GRID| Information for grid number                                          4
 PW_GRID| Number of the reference grid                                         1
 PW_GRID| Cutoff [a.u.]                                                     14.8
 PW_GRID| spherical cutoff:                                                   NO
 PW_GRID|   Bounds   1             -9       8                Points:          18
 PW_GRID|   Bounds   2             -9       8                Points:          18
 PW_GRID|   Bounds   3             -9       8                Points:          18
 PW_GRID| Volume element (a.u.^3)  0.1454         Volume (a.u.^3)       848.0843
 PW_GRID| Grid span                                                    FULLSPACE

 PW_GRID| Information for grid number                                          5
 PW_GRID| Number of the reference grid                                         1
 PW_GRID| Cutoff [a.u.]                                                      4.9
 PW_GRID| spherical cutoff:                                                   NO
 PW_GRID|   Bounds   1             -4       4                Points:           9
 PW_GRID|   Bounds   2             -4       4                Points:           9
 PW_GRID|   Bounds   3             -4       4                Points:           9
 PW_GRID| Volume element (a.u.^3)   1.163         Volume (a.u.^3)       848.0843
 PW_GRID| Grid span                                                    FULLSPACE

 POISSON| Solver                                                        PERIODIC
 POISSON| Periodicity                                                        XYZ

 RS_GRID| Information for grid number                                          1
 RS_GRID|   Bounds   1            -45      44                Points:          90
 RS_GRID|   Bounds   2            -45      44                Points:          90
 RS_GRID|   Bounds   3            -45      44                Points:          90

 RS_GRID| Information for grid number                                          2
 RS_GRID|   Bounds   1            -27      26                Points:          54
 RS_GRID|   Bounds   2            -27      26                Points:          54
 RS_GRID|   Bounds   3            -27      26                Points:          54

 RS_GRID| Information for grid number                                          3
 RS_GRID|   Bounds   1            -15      14                Points:          30
 RS_GRID|   Bounds   2            -15      14                Points:          30
 RS_GRID|   Bounds   3            -15      14                Points:          30

 RS_GRID| Information for grid number                                          4
 RS_GRID|   Bounds   1             -9       8                Points:          18
 RS_GRID|   Bounds   2             -9       8                Points:          18
 RS_GRID|   Bounds   3             -9       8                Points:          18

 RS_GRID| Information for grid number                                          5
 RS_GRID|   Bounds   1             -4       4                Points:           9
 RS_GRID|   Bounds   2             -4       4                Points:           9
 RS_GRID|   Bounds   3             -4       4                Points:           9

 *******************************************************************************
                                    Kpoints
 *******************************************************************************
 BRILLOUIN| K-point scheme                                        Monkhorst-Pack
 BRILLOUIN| K-Point grid                                             5    5    5
 BRILLOUIN| Gamma-centered k-point mesh                                     ON
 BRILLOUIN| K-point symmetry accuracy                               0.100000E-07
 BRILLOUIN| K-Point point group symmetrization                                ON
 BRILLOUIN| Symmetry backend                                               K290
 BRILLOUIN| Symmetry reduction method                                      K290
 BRILLOUIN| Wavefunction type                                            COMPLEX
 BRILLOUIN| List of Kpoints [2 Pi/Bohr]                                       10
 BRILLOUIN| Number           Weight            X              Y              Z
 BRILLOUIN|     1           0.06400       -0.40000       -0.40000       -0.40000
 BRILLOUIN|     2           0.19200       -0.40000       -0.40000       -0.20000
 BRILLOUIN|     3           0.09600       -0.40000       -0.40000        0.00000
 BRILLOUIN|     4           0.19200       -0.40000       -0.20000       -0.20000
 BRILLOUIN|     5           0.19200       -0.40000       -0.20000        0.00000
 BRILLOUIN|     6           0.04800       -0.40000        0.00000        0.00000
 BRILLOUIN|     7           0.06400       -0.20000       -0.20000       -0.20000
 BRILLOUIN|     8           0.09600       -0.20000       -0.20000        0.00000
 BRILLOUIN|     9           0.04800       -0.20000        0.00000        0.00000
 BRILLOUIN|    10           0.00800        0.00000        0.00000        0.00000
 *******************************************************************************

 Extrapolation method: initial_guess

 Atomic guess: The first density matrix is obtained in terms of atomic orbitals
               and electronic configurations assigned to each atomic kind

 Guess for atomic kind: Mg

 Electronic structure
    Total number of core electrons                                          2.00
    Total number of valence electrons                                      10.00
    Total number of electrons                                              12.00
    Multiplicity                                                   not specified
    S   [  2.00] 2.00  2.00
    P      6.00


 *******************************************************************************
                  Iteration          Convergence                     Energy [au]
 *******************************************************************************
                          1        0.890996                     -62.893242442572
                          2        0.435602                     -62.942740074711
                          3        0.623800E-02                 -62.962495104531
                          4        0.154674E-03                 -62.962503557557
                          5        0.119023E-05                 -62.962503576840
                          6        0.640022E-06                 -62.962503576840

 Energy components [Hartree]           Total Energy ::          -62.962503576840
                                        Band Energy ::          -16.164473040271
                                     Kinetic Energy ::           51.482004292917
                                   Potential Energy ::         -114.444507869757
                                      Virial (-V/T) ::            2.223000239435
                                        Core Energy ::         -104.129008124597
                                          XC Energy ::           -8.236629339440
                                     Coulomb Energy ::           49.403133887197
                       Total Pseudopotential Energy ::         -155.671792991532
                       Local Pseudopotential Energy ::         -154.786636564434
                    Nonlocal Pseudopotential Energy ::           -0.885156427097
                                        Confinement ::            0.607805740181

 Orbital energies  State     L     Occupation   Energy[a.u.]          Energy[eV]

                       1     0          2.000      -2.899238          -78.892265
                       2     0          2.000      -0.140551           -3.824595

                       1     1          6.000      -1.680816          -45.737327


 Total Electron Density at R=0:                                         0.001681

 Guess for atomic kind: S

 Electronic structure
    Total number of core electrons                                         10.00
    Total number of valence electrons                                       6.00
    Total number of electrons                                              16.00
    Multiplicity                                                   not specified
    S   [  2.00  2.00] 2.00
    P   [  6.00] 4.00


 *******************************************************************************
                  Iteration          Convergence                     Energy [au]
 *******************************************************************************
                          1        0.416871E-01                  -9.951610437169
                          2        0.275498E-01                  -9.951897385591
                          3        0.226171E-02                  -9.952138515622
                          4        0.418068E-06                  -9.952140127777

 Energy components [Hartree]           Total Energy ::           -9.952140127777
                                        Band Energy ::           -2.173007107509
                                     Kinetic Energy ::            3.756568468297
                                   Potential Energy ::          -13.708708596074
                                      Virial (-V/T) ::            3.649263606338
                                        Core Energy ::          -16.312866610059
                                          XC Energy ::           -2.044388496525
                                     Coulomb Energy ::            8.405114978807
                       Total Pseudopotential Energy ::          -20.127807236821
                       Local Pseudopotential Energy ::          -22.246881718442
                    Nonlocal Pseudopotential Energy ::            2.119074481620
                                        Confinement ::            0.583721584646

 Orbital energies  State     L     Occupation   Energy[a.u.]          Energy[eV]

                       1     0          2.000      -0.612544          -16.668179

                       1     1          4.000      -0.236980           -6.448543


 Total Electron Density at R=0:                                         0.000297
 Re-scaling the density matrix to get the right number of electrons
                  # Electrons              Trace(P)               Scaling factor
                           64                64.000                        1.000

 Number of electrons:                                                         64
 Number of occupied orbitals:                                                 32
 Number of molecular orbitals:                                                32

 Number of orbital functions:                                                188
 Number of independent orbital functions:                                    188


 SCF WAVEFUNCTION OPTIMIZATION

  Step     Update method      Time    Convergence         Total energy    Change
  ------------------------------------------------------------------------------

 *** WARNING in qs_ks_methods.F:773 :: Native SKALA grid evaluation with   ***
 *** k-points is using the CPU TorchScript path. Use a mutually compatible ***
 *** BLAS, ScaLAPACK, OpenMP, and LibTorch runtime stack, or select        ***
 *** NATIVE_GRID_USE_CUDA T.                                               ***

 SKALA_GPW| Atom-composite cross support/maxima   0.000000000000E+00   0.000000000000E+00   0.000000000000E+00   0.000000000000E+00
 SKALA_GPW| Active atom-composite XC energy  -4.3494035117207275E+01
 SKALA_GPW| Active atom-composite electrons   6.4053143410852627E+01
 SKALA_GPW| Active atom-composite density range   1.9927390251724447E-03   3.4405493670626766E+00
 SKALA_GPW| Active atom-composite tau range   1.6256220554720898E-03   3.0523334874588954E+02
 SKALA_GPW| Active atom-composite tau integral   2.2097945759685643E+02
 SKALA_GPW| Active atom-composite max gradient   2.3684290096635159E+01
     1 P_Mix/Diag. 0.10E+00   69.9     1.19220723      -295.7829841923 -2.96E+02
 SKALA_GPW| Atom-composite cross support/maxima   0.000000000000E+00   0.000000000000E+00   0.000000000000E+00   0.000000000000E+00
 SKALA_GPW| Active atom-composite XC energy  -4.3569321616803947E+01
 SKALA_GPW| Active atom-composite electrons   6.4052455800404545E+01
 SKALA_GPW| Active atom-composite density range   1.8121056146773091E-03   3.4451582930203442E+00
 SKALA_GPW| Active atom-composite tau range   1.6487685000537231E-03   3.0579586837396954E+02
 SKALA_GPW| Active atom-composite tau integral   2.2151941414712761E+02
 SKALA_GPW| Active atom-composite max gradient   2.3723313316012291E+01
     2 P_Mix/Diag. 0.10E+00   50.1     1.07210990      -295.6797654286  1.03E-01
 SKALA_GPW| Atom-composite cross support/maxima   0.000000000000E+00   0.000000000000E+00   0.000000000000E+00   0.000000000000E+00
 SKALA_GPW| Active atom-composite XC energy  -4.3635491856656600E+01
 SKALA_GPW| Active atom-composite electrons   6.4051887532231973E+01
 SKALA_GPW| Active atom-composite density range   1.6495845948233537E-03   3.4494035855858329E+00
 SKALA_GPW| Active atom-composite tau range   1.6743990108077410E-03   3.0631065056574209E+02
 SKALA_GPW| Active atom-composite tau integral   2.2199460339622675E+02
 SKALA_GPW| Active atom-composite max gradient   2.3759123217307199E+01
     3 P_Mix/Diag. 0.10E+00   56.6     0.96850308      -295.5853110251  9.45E-02
 SKALA_GPW| Atom-composite cross support/maxima   0.000000000000E+00   0.000000000000E+00   0.000000000000E+00   0.000000000000E+00
 SKALA_GPW| Active atom-composite XC energy  -4.3693345436536354E+01
 SKALA_GPW| Active atom-composite electrons   6.4051418368988564E+01
 SKALA_GPW| Active atom-composite density range   1.5036867819229588E-03   3.4532949759693330E+00
 SKALA_GPW| Active atom-composite tau range   1.7015454382477019E-03   3.0677990150592814E+02
 SKALA_GPW| Active atom-composite tau integral   2.2241298933438648E+02
 SKALA_GPW| Active atom-composite max gradient   2.3791815028184484E+01
     4 P_Mix/Diag. 0.10E+00   56.2     0.87623465      -295.4992263863  8.61E-02
 SKALA_GPW| Atom-composite cross support/maxima   0.000000000000E+00   0.000000000000E+00   0.000000000000E+00   0.000000000000E+00
 SKALA_GPW| Active atom-composite XC energy  -4.3743791661600810E+01
 SKALA_GPW| Active atom-composite electrons   6.4051031110639627E+01
 SKALA_GPW| Active atom-composite density range   1.3728134214354218E-03   3.4568490973781034E+00
 SKALA_GPW| Active atom-composite tau range   1.7294203087760503E-03   3.0720654758548034E+02
 SKALA_GPW| Active atom-composite tau integral   2.2278160827766814E+02
 SKALA_GPW| Active atom-composite max gradient   2.3821564856943681E+01
     5 P_Mix/Diag. 0.10E+00   60.6     0.78883962      -295.4210457608  7.82E-02
 SKALA_GPW| Atom-composite cross support/maxima   0.000000000000E+00   0.000000000000E+00   0.000000000000E+00   0.000000000000E+00
 SKALA_GPW| Active atom-composite XC energy  -4.3787762287007801E+01
 SKALA_GPW| Active atom-composite electrons   6.4050711337766444E+01
 SKALA_GPW| Active atom-composite density range   1.2551266100039307E-03   3.4600945378509058E+00
 SKALA_GPW| Active atom-composite tau range   1.7573996949843932E-03   3.0759477485610535E+02
 SKALA_GPW| Active atom-composite tau integral   2.2310690183840742E+02
 SKALA_GPW| Active atom-composite max gradient   2.3848681166727875E+01
     6 P_Mix/Diag. 0.10E+00   53.1     0.70963013      -295.3502566242  7.08E-02
 SKALA_GPW| Atom-composite cross support/maxima   0.000000000000E+00   0.000000000000E+00   0.000000000000E+00   0.000000000000E+00
 SKALA_GPW| Active atom-composite XC energy  -4.3826086202128437E+01
 SKALA_GPW| Active atom-composite electrons   6.4050447175532327E+01
 SKALA_GPW| Active atom-composite density range   1.1492768185085609E-03   3.4630474100270807E+00
 SKALA_GPW| Active atom-composite tau range   1.7850095345010798E-03   3.0794723565436055E+02
 SKALA_GPW| Active atom-composite tau integral   2.2339404345528195E+02
 SKALA_GPW| Active atom-composite max gradient   2.3873329757380063E+01
     7 P_Mix/Diag. 0.10E+00   55.8     0.63844361      -295.2863107317  6.39E-02
 SKALA_GPW| Atom-composite cross support/maxima   0.000000000000E+00   0.000000000000E+00   0.000000000000E+00   0.000000000000E+00
 SKALA_GPW| Active atom-composite XC energy  -4.3859511921265437E+01
 SKALA_GPW| Active atom-composite electrons   6.4050228769323013E+01
 SKALA_GPW| Active atom-composite density range   1.0540897087345147E-03   3.4657235025496629E+00
 SKALA_GPW| Active atom-composite tau range   1.8118864422306208E-03   3.0826637999653411E+02
 SKALA_GPW| Active atom-composite tau integral   2.2364752492542630E+02
 SKALA_GPW| Active atom-composite max gradient   2.3895661297907996E+01
     8 P_Mix/Diag. 0.10E+00   59.7     0.57444538      -295.2286499535  5.77E-02
 SKALA_GPW| Atom-composite cross support/maxima   0.000000000000E+00   0.000000000000E+00   0.000000000000E+00   0.000000000000E+00
 SKALA_GPW| Active atom-composite XC energy  -4.3888695872466975E+01
 SKALA_GPW| Active atom-composite electrons   6.4050048068580139E+01
 SKALA_GPW| Active atom-composite density range   9.6850945088224354E-04   3.4681399466393477E+00
 SKALA_GPW| Active atom-composite tau range   1.8377703169303857E-03   3.0855464667443420E+02
 SKALA_GPW| Active atom-composite tau integral   2.2387129234887524E+02
 SKALA_GPW| Active atom-composite max gradient   2.3915830721744225E+01
     9 P_Mix/Diag. 0.10E+00   57.4     0.51689169      -295.1767260486  5.19E-02
 SKALA_GPW| Atom-composite cross support/maxima   0.000000000000E+00   0.000000000000E+00   0.000000000000E+00   0.000000000000E+00
 SKALA_GPW| Active atom-composite XC energy  -4.3914208744891255E+01
 SKALA_GPW| Active atom-composite electrons   6.4049898451458731E+01
 SKALA_GPW| Active atom-composite density range   8.9157809291821476E-04   3.4703155230508278E+00
 SKALA_GPW| Active atom-composite tau range   1.8624769064855360E-03   3.0881450915442207E+02
 SKALA_GPW| Active atom-composite tau integral   2.2406886378555282E+02
 SKALA_GPW| Active atom-composite max gradient   2.3934001385921739E+01
    10 P_Mix/Diag. 0.10E+00   57.3     0.46504899      -295.1300108818  4.67E-02
 SKALA_GPW| Atom-composite cross support/maxima   0.000000000000E+00   0.000000000000E+00   0.000000000000E+00   0.000000000000E+00
 SKALA_GPW| Active atom-composite XC energy  -4.3936537717555247E+01
 SKALA_GPW| Active atom-composite electrons   6.4049774511763232E+01
 SKALA_GPW| Active atom-composite density range   8.1874994617780951E-04   3.4722699346358326E+00
 SKALA_GPW| Active atom-composite tau range   1.8858884509272795E-03   3.0904842683843094E+02
 SKALA_GPW| Active atom-composite tau integral   2.2424336707920565E+02
 SKALA_GPW| Active atom-composite max gradient   2.3950340962374145E+01
    11 P_Mix/Diag. 0.10E+00   51.3     0.41830997      -295.0880038452  4.20E-02
 SKALA_GPW| Atom-composite cross support/maxima   0.000000000000E+00   0.000000000000E+00   0.000000000000E+00   0.000000000000E+00
 SKALA_GPW| Active atom-composite XC energy  -4.3956102674343114E+01
 SKALA_GPW| Active atom-composite electrons   6.4049671761998212E+01
 SKALA_GPW| Active atom-composite density range   7.4561231828225438E-04   3.4740234536844912E+00
 SKALA_GPW| Active atom-composite tau range   1.9079312144944167E-03   3.0925883289237049E+02
 SKALA_GPW| Active atom-composite tau integral   2.2439760243027763E+02
 SKALA_GPW| Active atom-composite max gradient   2.3965019851978763E+01
    12 P_Mix/Diag. 0.10E+00   55.9     0.37616583      -295.0502376021  3.78E-02
 SKALA_GPW| Atom-composite cross support/maxima   0.000000000000E+00   0.000000000000E+00   0.000000000000E+00   0.000000000000E+00
 SKALA_GPW| Active atom-composite XC energy  -4.3973265635668753E+01
 SKALA_GPW| Active atom-composite electrons   6.4049586496130217E+01
 SKALA_GPW| Active atom-composite density range   6.7959720421735309E-04   3.4755955826074567E+00
 SKALA_GPW| Active atom-composite tau range   1.9285698849359854E-03   3.0944801955525236E+02
 SKALA_GPW| Active atom-composite tau integral   2.2453403864826583E+02
 SKALA_GPW| Active atom-composite max gradient   2.3978200574776793E+01
    13 P_Mix/Diag. 0.10E+00   53.9     0.33818571      -295.0162852055  3.40E-02
 SKALA_GPW| Atom-composite cross support/maxima   0.000000000000E+00   0.000000000000E+00   0.000000000000E+00   0.000000000000E+00
 SKALA_GPW| Active atom-composite XC energy  -4.3988337767561987E+01
 SKALA_GPW| Active atom-composite electrons   6.4049515671642098E+01
 SKALA_GPW| Active atom-composite density range   6.1999802412300293E-04   3.4770043982807985E+00
 SKALA_GPW| Active atom-composite tau range   1.9478021388813691E-03   3.0961808745193844E+02
 SKALA_GPW| Active atom-composite tau integral   2.2465483171620400E+02
 SKALA_GPW| Active atom-composite max gradient   2.3990032698904844E+01
    14 P_Mix/Diag. 0.10E+00   54.8     0.30398376      -294.9857602871  3.05E-02
 SKALA_GPW| Atom-composite cross support/maxima   0.000000000000E+00   0.000000000000E+00   0.000000000000E+00   0.000000000000E+00
 SKALA_GPW| Active atom-composite XC energy  -4.4001586697047642E+01
 SKALA_GPW| Active atom-composite electrons   6.4049456796683117E+01
 SKALA_GPW| Active atom-composite density range   5.6618070407881966E-04   3.4782664775411822E+00
 SKALA_GPW| Active atom-composite tau range   1.9656519945208139E-03   3.0977094955397041E+02
 SKALA_GPW| Active atom-composite tau integral   2.2476186176636557E+02
 SKALA_GPW| Active atom-composite max gradient   2.4000652656173962E+01
    15 P_Mix/Diag. 0.10E+00   50.6     0.27321019      -294.9583146549  2.74E-02
 SKALA_GPW| Atom-composite cross support/maxima   0.000000000000E+00   0.000000000000E+00   0.000000000000E+00   0.000000000000E+00
 SKALA_GPW| Active atom-composite XC energy  -4.4013243409066810E+01
 SKALA_GPW| Active atom-composite electrons   6.4049407822584826E+01
 SKALA_GPW| Active atom-composite density range   5.1757656904804193E-04   3.4793968242214413E+00
 SKALA_GPW| Active atom-composite tau range   1.9821623942456686E-03   3.0990833215997111E+02
 SKALA_GPW| Active atom-composite tau integral   2.2485676752271254E+02
 SKALA_GPW| Active atom-composite max gradient   2.4010183491339273E+01
    16 P_Mix/Diag. 0.10E+00   53.0     0.24554806      -294.9336352468  2.47E-02
 SKALA_GPW| Atom-composite cross support/maxima   0.000000000000E+00   0.000000000000E+00   0.000000000000E+00   0.000000000000E+00
 SKALA_GPW| Active atom-composite XC energy  -4.4023508711105563E+01
 SKALA_GPW| Active atom-composite electrons   6.4049367046868014E+01
 SKALA_GPW| Active atom-composite density range   4.7367346696219816E-04   3.4804089274063768E+00
 SKALA_GPW| Active atom-composite tau range   1.9973875670311766E-03   3.1003178624466375E+02
 SKALA_GPW| Active atom-composite tau integral   2.2494098124584809E+02
 SKALA_GPW| Active atom-composite max gradient   2.4018735575904422E+01
    17 P_Mix/Diag. 0.10E+00   51.7     0.22069422      -294.9114409375  2.22E-02
 SKALA_GPW| Atom-composite cross support/maxima   0.000000000000E+00   0.000000000000E+00   0.000000000000E+00   0.000000000000E+00
 SKALA_GPW| Active atom-composite XC energy  -4.4032557382053994E+01
 SKALA_GPW| Active atom-composite electrons   6.4049333058287431E+01
 SKALA_GPW| Active atom-composite density range   4.3401003346345735E-04   3.4813149373953722E+00
 SKALA_GPW| Active atom-composite tau range   2.0113897185167428E-03   3.1014270892576980E+02
 SKALA_GPW| Active atom-composite tau integral   2.2501575668666746E+02
 SKALA_GPW| Active atom-composite max gradient   2.4026408216221338E+01
    18 P_Mix/Diag. 0.10E+00   56.5     0.19835940      -294.8914796778  2.00E-02
 SKALA_GPW| Atom-composite cross support/maxima   0.000000000000E+00   0.000000000000E+00   0.000000000000E+00   0.000000000000E+00
 SKALA_GPW| Active atom-composite XC energy  -4.4040540577882055E+01
 SKALA_GPW| Active atom-composite electrons   6.4049304701591225E+01
 SKALA_GPW| Active atom-composite density range   3.9817284432310212E-04   3.4821258145329157E+00
 SKALA_GPW| Active atom-composite tau range   2.0242378141718514E-03   3.1024236140230596E+02
 SKALA_GPW| Active atom-composite tau integral   2.2508219061040009E+02
 SKALA_GPW| Active atom-composite max gradient   2.4033290970014470E+01
    19 P_Mix/Diag. 0.10E+00   54.0     0.17827905      -294.8735253500  1.80E-02
 SKALA_GPW| Atom-composite cross support/maxima   0.000000000000E+00   0.000000000000E+00   0.000000000000E+00   0.000000000000E+00
 SKALA_GPW| Active atom-composite XC energy  -4.4047589146678312E+01
 SKALA_GPW| Active atom-composite electrons   6.4049281037090040E+01
 SKALA_GPW| Active atom-composite density range   3.6579218598425587E-04   3.4828514328611426E+00
 SKALA_GPW| Active atom-composite tau range   2.0360054103176328E-03   3.1033188148173525E+02
 SKALA_GPW| Active atom-composite tau integral   2.2514124264091188E+02
 SKALA_GPW| Active atom-composite max gradient   2.4039464556118659E+01
    20 P_Mix/Diag. 0.10E+00   56.6     0.16021967      -294.8573754107  1.61E-02
 SKALA_GPW| Atom-composite cross support/maxima   0.000000000000E+00   0.000000000000E+00   0.000000000000E+00   0.000000000000E+00
 SKALA_GPW| Active atom-composite XC energy  -4.4053816369903636E+01
 SKALA_GPW| Active atom-composite electrons   6.4049261297281248E+01
 SKALA_GPW| Active atom-composite density range   3.3653648622199308E-04   3.4835006753082811E+00
 SKALA_GPW| Active atom-composite tau range   2.0467677720178959E-03   3.1041229482058577E+02
 SKALA_GPW| Active atom-composite tau integral   2.2519375458478953E+02
 SKALA_GPW| Active atom-composite max gradient   2.4045001654023793E+01
    21 P_Mix/Diag. 0.10E+00   52.6     0.14397686      -294.8428479555  1.45E-02
 SKALA_GPW| Atom-composite cross support/maxima   0.000000000000E+00   0.000000000000E+00   0.000000000000E+00   0.000000000000E+00
 SKALA_GPW| Active atom-composite XC energy  -4.4059321004861410E+01
 SKALA_GPW| Active atom-composite electrons   6.4049244848067048E+01
 SKALA_GPW| Active atom-composite density range   3.1010689417346210E-04   3.4840815201544983E+00
 SKALA_GPW| Active atom-composite tau range   2.0565991897030858E-03   3.1048452479753956E+02
 SKALA_GPW| Active atom-composite tau integral   2.2524046735706582E+02
 SKALA_GPW| Active atom-composite max gradient   2.4049967618224159E+01
    22 P_Mix/Diag. 0.10E+00   52.8     0.12937001      -294.8297796388  1.31E-02
 SKALA_GPW| Atom-composite cross support/maxima   0.000000000000E+00   0.000000000000E+00   0.000000000000E+00   0.000000000000E+00
 SKALA_GPW| Active atom-composite XC energy  -4.4064189260485790E+01
 SKALA_GPW| Active atom-composite electrons   6.4049231159824942E+01
 SKALA_GPW| Active atom-composite density range   2.8623305018014828E-04   3.4846011242370856E+00
 SKALA_GPW| Active atom-composite tau range   2.0655711798912894E-03   3.1054940195727477E+02
 SKALA_GPW| Active atom-composite tau integral   2.2528203486525368E+02
 SKALA_GPW| Active atom-composite max gradient   2.4054421154528914E+01
    23 P_Mix/Diag. 0.10E+00   55.8     0.11623698      -294.8180234210  1.18E-02
 SKALA_GPW| Atom-composite cross support/maxima   0.000000000000E+00   0.000000000000E+00   0.000000000000E+00   0.000000000000E+00
 SKALA_GPW| Active atom-composite XC energy  -4.4068497034750699E+01
 SKALA_GPW| Active atom-composite electrons   6.4049219787324276E+01
 SKALA_GPW| Active atom-composite density range   2.6467000597614861E-04   3.4850659059543543E+00
 SKALA_GPW| Active atom-composite tau range   2.0737515742845708E-03   3.1060767326787669E+02
 SKALA_GPW| Active atom-composite tau integral   2.2531903534150476E+02
 SKALA_GPW| Active atom-composite max gradient   2.4058414987102200E+01
    24 P_Mix/Diag. 0.10E+00   63.1     0.10443076      -294.8074473605  1.06E-02
 SKALA_GPW| Atom-composite cross support/maxima   0.000000000000E+00   0.000000000000E+00   0.000000000000E+00   0.000000000000E+00
 SKALA_GPW| Active atom-composite XC energy  -4.4072310803698578E+01
 SKALA_GPW| Active atom-composite electrons   6.4049210355789043E+01
 SKALA_GPW| Active atom-composite density range   2.4519594271524715E-04   3.4854816221024567E+00
 SKALA_GPW| Active atom-composite tau range   2.0812042130743027E-03   3.1066001057907766E+02
 SKALA_GPW| Active atom-composite tau integral   2.2535198058879692E+02
 SKALA_GPW| Active atom-composite max gradient   2.4061996477984597E+01
    25 P_Mix/Diag. 0.10E+00   54.9     0.09381804      -294.7979326595  9.51E-03
 SKALA_GPW| Atom-composite cross support/maxima   0.000000000000E+00   0.000000000000E+00   0.000000000000E+00   0.000000000000E+00
 SKALA_GPW| Active atom-composite XC energy  -4.4075689079929035E+01
 SKALA_GPW| Active atom-composite electrons   6.4049202549972350E+01
 SKALA_GPW| Active atom-composite density range   2.2761022328399158E-04   3.4858534343999632E+00
 SKALA_GPW| Active atom-composite tau range   2.0879888837110842E-03   3.1070701813657445E+02
 SKALA_GPW| Active atom-composite tau integral   2.2538132387947189E+02
 SKALA_GPW| Active atom-composite max gradient   2.4065208165272136E+01
    26 DIIS/Diag.  0.49E-05   58.9     0.08331114      -294.7893726416  8.56E-03
 SKALA_GPW| Atom-composite cross support/maxima   0.000000000000E+00   0.000000000000E+00   0.000000000000E+00   0.000000000000E+00
 SKALA_GPW| Active atom-composite XC energy  -4.4102656494329146E+01
 SKALA_GPW| Active atom-composite electrons   6.4049173537022014E+01
 SKALA_GPW| Active atom-composite density range   6.5736734865709051E-05   3.4890513403378138E+00
 SKALA_GPW| Active atom-composite tau range   2.1537593490243492E-03   3.1112400031338740E+02
 SKALA_GPW| Active atom-composite tau integral   2.2562653959852048E+02
 SKALA_GPW| Active atom-composite max gradient   2.4093373320010301E+01
    27 DIIS/Diag.  0.51E-04   53.4     0.00013009      -294.7124811573  7.69E-02
 SKALA_GPW| Atom-composite cross support/maxima   0.000000000000E+00   0.000000000000E+00   0.000000000000E+00   0.000000000000E+00
 SKALA_GPW| Active atom-composite XC energy  -4.4102637142946676E+01
 SKALA_GPW| Active atom-composite electrons   6.4049173784916619E+01
 SKALA_GPW| Active atom-composite density range   6.5809818553470847E-05   3.4890586497814731E+00
 SKALA_GPW| Active atom-composite tau range   2.1537405752983271E-03   3.1112424365126287E+02
 SKALA_GPW| Active atom-composite tau integral   2.2562677117131918E+02
 SKALA_GPW| Active atom-composite max gradient   2.4093407607921353E+01
    28 DIIS/Diag.  0.67E-04   57.7     0.00013398      -294.7124808507  3.07E-07
 SKALA_GPW| Atom-composite cross support/maxima   0.000000000000E+00   0.000000000000E+00   0.000000000000E+00   0.000000000000E+00
 SKALA_GPW| Active atom-composite XC energy  -4.4102820235315349E+01
 SKALA_GPW| Active atom-composite electrons   6.4049171826485207E+01
 SKALA_GPW| Active atom-composite density range   6.5956569683801872E-05   3.4890640282196301E+00
 SKALA_GPW| Active atom-composite tau range   2.1535263128969907E-03   3.1112447959107209E+02
 SKALA_GPW| Active atom-composite tau integral   2.2562759920849240E+02
 SKALA_GPW| Active atom-composite max gradient   2.4093435199914449E+01
    29 DIIS/Diag.  0.65E-04   51.0     0.00291574      -294.7124807294  1.21E-07
 SKALA_GPW| Atom-composite cross support/maxima   0.000000000000E+00   0.000000000000E+00   0.000000000000E+00   0.000000000000E+00
 SKALA_GPW| Active atom-composite XC energy  -4.4106173627050353E+01
 SKALA_GPW| Active atom-composite electrons   6.4049135779022933E+01
 SKALA_GPW| Active atom-composite density range   6.9021763242067897E-05   3.4891882423980509E+00
 SKALA_GPW| Active atom-composite tau range   2.1494426474537084E-03   3.1112956045247591E+02
 SKALA_GPW| Active atom-composite tau integral   2.2564383412202676E+02
 SKALA_GPW| Active atom-composite max gradient   2.4094053673327792E+01
    30 DIIS/Diag.  0.41E-03   49.4     0.00415490      -294.7124658512  1.49E-05
 SKALA_GPW| Atom-composite cross support/maxima   0.000000000000E+00   0.000000000000E+00   0.000000000000E+00   0.000000000000E+00
 SKALA_GPW| Active atom-composite XC energy  -4.4103057061565181E+01
 SKALA_GPW| Active atom-composite electrons   6.4049168973700205E+01
 SKALA_GPW| Active atom-composite density range   6.5320429420951643E-05   3.4889955988095318E+00
 SKALA_GPW| Active atom-composite tau range   2.1536571873233077E-03   3.1112233212647112E+02
 SKALA_GPW| Active atom-composite tau integral   2.2562561712613396E+02
 SKALA_GPW| Active atom-composite max gradient   2.4093126344164066E+01
    31 DIIS/Diag.  0.25E-05   57.3     0.00008802      -294.7124823057 -1.65E-05
 SKALA_GPW| Atom-composite cross support/maxima   0.000000000000E+00   0.000000000000E+00   0.000000000000E+00   0.000000000000E+00
 SKALA_GPW| Active atom-composite XC energy  -4.4103099158107682E+01
 SKALA_GPW| Active atom-composite electrons   6.4049171377407006E+01
 SKALA_GPW| Active atom-composite density range   6.5295557040599537E-05   3.4890388143315412E+00
 SKALA_GPW| Active atom-composite tau range   2.1539017006606681E-03   3.1112646423242035E+02
 SKALA_GPW| Active atom-composite tau integral   2.2562729926475271E+02
 SKALA_GPW| Active atom-composite max gradient   2.4093444403170572E+01
    32 DIIS/Diag.  0.13E-06   53.1     0.00003105      -294.7124823183 -1.26E-08
 SKALA_GPW| Atom-composite cross support/maxima   0.000000000000E+00   0.000000000000E+00   0.000000000000E+00   0.000000000000E+00
 SKALA_GPW| Active atom-composite XC energy  -4.4103015450406289E+01
 SKALA_GPW| Active atom-composite electrons   6.4049171218405462E+01
 SKALA_GPW| Active atom-composite density range   6.5292793688118765E-05   3.4890199423175026E+00
 SKALA_GPW| Active atom-composite tau range   2.1538855586889800E-03   3.1112475117159619E+02
 SKALA_GPW| Active atom-composite tau integral   2.2562634445317860E+02
 SKALA_GPW| Active atom-composite max gradient   2.4093309820768553E+01
    33 DIIS/Diag.  0.56E-08   50.5     0.00000592      -294.7124823388 -2.05E-08
 SKALA_GPW| Atom-composite cross support/maxima   0.000000000000E+00   0.000000000000E+00   0.000000000000E+00   0.000000000000E+00
 SKALA_GPW| Active atom-composite XC energy  -4.4103040172319609E+01
 SKALA_GPW| Active atom-composite electrons   6.4049171172668053E+01
 SKALA_GPW| Active atom-composite density range   6.5292622058191129E-05   3.4890238979086927E+00
 SKALA_GPW| Active atom-composite tau range   2.1538818768999561E-03   3.1112511450590677E+02
 SKALA_GPW| Active atom-composite tau integral   2.2562656722962873E+02
 SKALA_GPW| Active atom-composite max gradient   2.4093338221450171E+01
    34 DIIS/Diag.  0.69E-10   55.1     0.00000045      -294.7124823471 -8.23E-09

  *** SCF run converged in    34 steps ***


  Electronic density on regular grids:        -63.9999990851        0.0000009149
  Core density on regular grids:               64.0000000000       -0.0000000000
  Hard and soft densities (Lebedev):           -0.0000000000       -0.0000000000
  Total Rho_soft + Rho1_hard - Rho1_soft      -63.9999990851
  Total charge density (r-space):               0.0000009148
  Total Rho_soft + Rho0_soft (g-space):         0.0000009148

  Overlap energy of the core charge distribution:               0.00000000000000
  Self energy of the core charge distribution:               -682.29444718789387
  Core Hamiltonian energy:                                    196.31983961170943
  Hartree energy:                                             235.58468902701372
  Exchange-correlation energy:                                  0.00000000000000
  Dispersion energy:                                           -0.21952362556866

  GAPW| Exc from hard and soft atomic rho1:                   -44.10304017231961
  GAPW| local Eh = 1 center integrals:                          0.00000000000000

  Total energy:                                              -294.71248234705899

  outer SCF iter =    1 RMS gradient =   0.00E+00 energy =       -294.7124823471
  outer SCF loop converged in   1 iterations or   34 steps


 !-----------------------------------------------------------------------------!
                     Mulliken Population Analysis

 #  Atom  Element  Kind  Atomic population                           Net charge
       1     Mg       1          8.551357                              1.448643
       2     Mg       1          8.551312                              1.448688
       3     Mg       1          8.551312                              1.448688
       4     Mg       1          8.551312                              1.448688
       5     S        2          7.448668                             -1.448668
       6     S        2          7.448668                             -1.448668
       7     S        2          7.448668                             -1.448668
       8     S        2          7.448702                             -1.448702
 # Total charge                             64.000000                  0.000000

 !-----------------------------------------------------------------------------!

 !-----------------------------------------------------------------------------!
                           Hirshfeld Charges

  #Atom  Element  Kind  Ref Charge     Population                    Net charge
      1       Mg     1      10.000         11.030                        -1.030
      2       Mg     1      10.000         11.030                        -1.030
      3       Mg     1      10.000         11.030                        -1.030
      4       Mg     1      10.000         11.030                        -1.030
      5       S      2       6.000          4.970                         1.030
      6       S      2       6.000          4.970                         1.030
      7       S      2       6.000          4.970                         1.030
      8       S      2       6.000          4.970                         1.030

  Total Charge                                                            0.000
 !-----------------------------------------------------------------------------!

 ENERGY| Total FORCE_EVAL ( QS ) energy [hartree]           -294.712482347058994

 -------------------------------------------------------------------------------
 -                                                                             -
 -                                DBCSR STATISTICS                             -
 -                                                                             -
 -------------------------------------------------------------------------------
 COUNTER                                    TOTAL       BLAS       SMM       ACC
 flops inhomo. stacks                           0       0.0%      0.0%      0.0%
 flops total                         0.000000E+00       0.0%      0.0%      0.0%
 flops max/rank                      0.000000E+00       0.0%      0.0%      0.0%
 matmuls inhomo. stacks                         0       0.0%      0.0%      0.0%
 matmuls total                                  0       0.0%      0.0%      0.0%
 number of processed stacks                     0       0.0%      0.0%      0.0%
 average stack size                                     0.0       0.0       0.0
 marketing flops                     0.000000E+00
 -------------------------------------------------------------------------------
 -                                                                             -
 -                      DBCSR MESSAGE PASSING PERFORMANCE                      -
 -                                                                             -
 -------------------------------------------------------------------------------
 ROUTINE             CALLS      AVE VOLUME [Bytes]
 MP_Bcast                1                     12.
 MP_Allreduce           19                     21.
 MP_Alltoall         34028                 183458.
 -------------------------------------------------------------------------------

 -------------------------------------------------------------------------------
 -                                                                             -
 -                                GRID STATISTICS                              -
 -                                                                             -
 -------------------------------------------------------------------------------
 LP    KERNEL             BACKEND                              COUNT     PERCENT
 6     collocate ortho    CPU                                 377580      15.32%
 6     integrate ortho    CPU                                 366792      14.88%
 4     collocate ortho    CPU                                 295540      11.99%
 4     integrate ortho    CPU                                 287096      11.65%
 5     collocate ortho    CPU                                 247520      10.04%
 7     collocate ortho    CPU                                 247520      10.04%
 5     integrate ortho    CPU                                 240448       9.76%
 7     integrate ortho    CPU                                 240448       9.76%
 8     collocate ortho    CPU                                  82040       3.33%
 8     integrate ortho    CPU                                  79696       3.23%
 0     collocate general  CPU                                     16       0.00%
 0     integrate general  CPU                                      8       0.00%
 -------------------------------------------------------------------------------

 -------------------------------------------------------------------------------
 -                                                                             -
 -                          OFFLOAD MEMPOOL STATISTICS                         -
 -                                                                             -
 -------------------------------------------------------------------------------
 Memory consumption                Number of allocations  Used [MiB]  Size [MiB]
 Host                                                  8          41    89936231
 -------------------------------------------------------------------------------

 MEMORY| Estimated peak process memory [MiB]                                2145

 -------------------------------------------------------------------------------
 ----                             MULTIGRID INFO                            ----
 -------------------------------------------------------------------------------
 count for grid        1:          19071          cutoff [a.u.]          400.00
 count for grid        2:          17923          cutoff [a.u.]          133.33
 count for grid        3:          10428          cutoff [a.u.]           44.44
 count for grid        4:          11180          cutoff [a.u.]           14.81
 count for grid        5:           2041          cutoff [a.u.]            4.94
 total gridlevel count  :          60643

 -------------------------------------------------------------------------------
 -                                                                             -
 -                         MESSAGE PASSING PERFORMANCE                         -
 -                                                                             -
 -------------------------------------------------------------------------------

 ROUTINE             CALLS      AVE VOLUME [Bytes]
 MP_Group                5
 MP_Bcast            12397                    192.
 MP_Allreduce        28668                  69179.
 MP_Sync                 5
 MP_Wait             10300
 MP_ISend            14420                  40399.
 MP_IRecv            14420                  40399.
 -------------------------------------------------------------------------------


 -------------------------------------------------------------------------------
 -                                                                             -
 -                           R E F E R E N C E S                               -
 -                                                                             -
 -------------------------------------------------------------------------------
 
 CP2K version 2026.2 (Development Version), the CP2K developers group (2026).
 CP2K is freely available from https://www.cp2k.org/ .
 
 M. Iannuzzi, J. Wilhelm, F. Stein, A. Bussy, H. Elgabarty, D. Golze, A. Hehn, 
 M. Graml, S. Marek, B. Sertcan Gökmen, C. Schran, H. Forbert, R. Z. 
 Khaliullin, A. Kozhevnikov, M. Taillefumier, R. Meli, V. V. Rybkin, M. Brehm, 
 R. Schade, O. Schütt, J. V. Pototschnig, H. Mirhosseini, A. Knüpfer, D. Marx, 
 M. Krack, J. Hutter, T. D. Kühne.
 J. Phys. Chem. B 130, 1237-1310 (2026).
 The CP2K Program Package Made Simple.
 https://doi.org/10.1021/acs.jpcb.5c05851

 L. Wittmann, I. Gordiy, M. Friede, B. Helmich-Paris, S. Grimme, A. Hansen, M. 
 Bursch.
 Phys. Chem. Chem. Phys. 26, 21379-21394 (2024).
 Extension of the D3 and D4 London dispersion corrections to the full actinides 
 series.
 https://doi.org/10.1039/d4cp01514b

 T. D. Kühne, M. Iannuzzi, M. Del Ben, V. V. Rybkin, P. Seewald, F. Stein, T. 
 Laino, R. Z. Khaliullin, O. Schütt, F. Schiffmann, D. Golze, J. Wilhelm, S. 
 Chulkov, M. H. Bani-Hashemian, V. Weber, U. Borstnik, M. Taillefumier, A. S. 
 Jakobovits, A. Lazzaro, H. Pabst, T. Müller, R. Schade, M. Guidon, S. 
 Andermatt, N. Holmberg, G. K. Schenter, A. Hehn, A. Bussy, F. Belleflamme, G. 
 Tabacchi, A. Glöß, M. Lass, I. Bethune, C. J. Mundy, C. Plessl, M. Watkins, 
 J. VandeVondele, M. Krack, J. Hutter.
 J. Chem. Phys. 152, 194103 (2020).
 CP2K: An electronic structure and molecular dynamics software package - 
 Quickstep: Efficient and accurate electronic structure calculations.
 https://doi.org/10.1063/5.0007045

 L. Goerigk, A. Hansen, C. Bauer, S. Ehrlich, A. Najibi, S. Grimme.
 Phys. Chem. Chem. Phys. 19, 32184-32215 (2017).
 A look at the density functional theory zoo with the advanced GMTKN55 database 
 for general main group thermochemistry, kinetics and noncovalent interactions.
 https://doi.org/10.1039/C7CP04913G

 O. Schuett, P. Messmer, J. Hutter, J. VandeVondele.
 Electronic Structure Calculations on Graphics Processing Units, 173-190 (2016).
 GPU-Accelerated Sparse Matrix-Matrix Multiplication for Linear Scaling Density 
 Functional Theory.
 https://doi.org/10.1002/9781118670712.ch8

 U. Borstnik, J. VandeVondele, V. Weber, J. Hutter.
 Parallel Comput. 40, 47-58 (2014).
 Sparse matrix multiplication: The distributed block-compressed sparse row 
 library.
 https://doi.org/10.1016/j.parco.2014.03.012

 S. Grimme, S. Ehrlich, L. Goerigk.
 J. Comput. Chem. 32, 1456 (2011).
 Effect of the damping function in dispersion corrected density functional 
 theory.
 https://doi.org/10.1002/jcc.21759

 S. Grimme, J. Antony, S. Ehrlich, H. Krieg.
 J. Chem. Phys. 132, 154104 (2010).
 A consistent and accurate ab initio parametrization of density functional 
 dispersion correction (DFT-D) for the 94 elements H-Pu.
 https://doi.org/10.1063/1.3382344

 J. VandeVondele, J. Hutter.
 J. Chem. Phys. 127, 114105 (2007).
 Gaussian basis sets for accurate calculations on molecular systems in gas and 
 condensed phases.
 https://doi.org/10.1063/1.2770708

 M. Krack.
 Theor. Chem. Acc. 114, 145-152 (2005).
 Pseudopotentials for H to Kr optimized for gradient-corrected 
 exchange-correlation functionals.
 https://doi.org/10.1007/s00214-005-0655-y

 M. Frigo, S. G. Johnson.
 Proc. IEEE 93, 216-231 (2005).
 The design and implementation of FFTW3.
 https://doi.org/10.1109/JPROC.2004.840301

 M. Krack, M. Parrinello.
 Phys. Chem. Chem. Phys. 2, 2105-2112 (2000).
 All-electron ab-initio molecular dynamics.
 https://doi.org/10.1039/b001167n

 G. Lippert, J. Hutter, M. Parrinello.
 Theor. Chem. Acc. 103, 124-140 (1999).
 The Gaussian and augmented-plane-wave density functional method for ab initio 
 molecular dynamics simulations.
 https://doi.org/10.1007/s002140050523

 C. Hartwigsen, S. Goedecker, J. Hutter.
 Phys. Rev. B 58, 3641-3662 (1998).
 Relativistic separable dual-space Gaussian pseudopotentials from H to Rn.
 https://doi.org/10.1103/PhysRevB.58.3641

 S. Goedecker, M. Teter, J. Hutter.
 Phys. Rev. B 54, 1703-1710 (1996).
 Separable dual-space Gaussian pseudopotentials.
 https://doi.org/10.1103/PhysRevB.54.1703

 C.-L. Fu, K.-M. Ho.
 Phys. Rev. B 28, 5480-5486 (1983).
 First-principles calculation of the equilibrium ground-state properties of 
 transition metals: Applications to Nb and Mo.
 https://doi.org/10.1103/PhysRevB.28.5480

 T. G. Worlton, J. L. Warren.
 Comput. Phys. Commun. 3, 88-117 (1972).
 Group-theoretical analysis of lattice vibrations.
 https://doi.org/10.1016/0010-4655(72)90058-6


 -------------------------------------------------------------------------------
 -                                                                             -
 -                                T I M I N G                                  -
 -                                                                             -
 -------------------------------------------------------------------------------
 SUBROUTINE                       CALLS  ASD         SELF TIME        TOTAL TIME
                                MAXIMUM       AVERAGE  MAXIMUM  AVERAGE  MAXIMUM
 CP2K                                 1  1.0    0.009    0.009 1882.923 1882.923
 qs_energies                          1  2.0    0.001    0.001 1882.658 1882.658
 scf_env_do_scf                       1  3.0    0.000    0.000 1881.628 1881.628
 scf_env_do_scf_inner_loop           34  4.0    0.012    0.012 1881.627 1881.627
 qs_ks_update_qs_env                 34  5.0    0.001    0.001 1821.787 1821.787
 rebuild_ks_matrix                   34  6.0    0.000    0.000 1821.114 1821.114
 qs_ks_build_kohn_sham_matrix        34  7.0    0.019    0.019 1821.113 1821.113
 calculate_vxc_atom                  34  8.0  570.891  570.891 1799.808 1799.808
 skala_atom_torch_backward          102  9.0  736.185  736.185  736.185  736.185
 skala_atom_torch_forward           102  9.0    0.097    0.097  486.632  486.632
 torch_model_forward_mol_tensor     102 10.0  486.535  486.535  486.535  486.535
 qs_scf_new_mos_kp                   34  5.0    0.001    0.001   47.733   47.733
 do_general_diag_kp                  34  6.0    0.045    0.045   47.732   47.732
 -------------------------------------------------------------------------------

 The number of warnings for this run is : 2
 
 -------------------------------------------------------------------------------
  **** **** ******  **  PROGRAM ENDED AT                 2026-09-01 02:11:56.049
 ***** ** ***  *** **   PROGRAM RAN ON                                     terok
 **    ****   ******    PROGRAM RAN BY                                  kuehne88
 ***** **    ** ** **   PROGRAM PROCESS ID                                459889
  **** **  *******  **  PROGRAM STOPPED IN /home/kuehne88/work/native-skala-tero
                                           k/goldzak12/runs/production/hybrid-di
                                           rect/MgS/v01
