 DBCSR| CPU Multiplication driver                                           BLAS (U)
 DBCSR| Multrec recursion limit                                              512 (U)
 DBCSR| Multiplication stack size                                           1000 (D)
 DBCSR| Maximum elements for images                                    UNLIMITED (U)
 DBCSR| Multiplicative factor virtual images                                   1 (U)
 DBCSR| Use multiplication densification                                       T (D)
 DBCSR| Multiplication size stacks                                             3 (U)
 DBCSR| Use memory pool for CPU allocation                                     F (U)
 DBCSR| Number of 3D layers                                               SINGLE (U)
 DBCSR| Use MPI memory allocation                                              F (U)
 DBCSR| Use RMA algorithm                                                      F (U)
 DBCSR| Use Communication thread                                               T (U)
 DBCSR| Communication thread load                                             15 (D)
 DBCSR| MPI: My process id                                                     0
 DBCSR| MPI: Number of processes                                               1
 DBCSR| OMP: Current number of threads                                        20
 DBCSR| OMP: Max number of threads                                            20
 DBCSR| Split modifier for TAS multiplication algorithm                  1.0E+00 (U)


  **** **** ******  **  PROGRAM STARTED AT               2026-09-03 10:58:03.148
 ***** ** ***  *** **   PROGRAM STARTED ON                                 terok
 **    ****   ******    PROGRAM STARTED BY                              kuehne88
 ***** **    ** ** **   PROGRAM PROCESS ID                               1791941
  **** **  *******  **  PROGRAM STARTED IN /home/kuehne88/work/native-skala-tero
                                           k/goldzak12/runs/recovery-bulk-ot-ful
                                           l-all-step0005-outer4-wave63-20260903
                                           -terok/production/gapwxc-gth/Si/v09

 CP2K| version string:                 CP2K version 2026.2 (Development Version)
 CP2K| source code revision number:                                   3a700727ed
 CP2K| cp2kflags: omp fftw3 gauxc gauxc_mpi gauxc_onedft gauxc_host parallel sca
 CP2K|            lapack mpi_f08 openblas libtorch libtorch_cuda
 CP2K| is freely available from                            https://www.cp2k.org/
 CP2K| Program compiled at                                   2026-09-02 15:08:12
 CP2K| Program compiled on                                                 terok
 CP2K| Program compiled for                                               x86_64
 CP2K| Data directory path      /home/kuehne88/work/native-skala-terok/cp2k/data
 CP2K| Input file name                                          actual-input.inp

 GLOBAL| Force Environment number                                              1
 GLOBAL| Basis set file name                             BASIS_MOLOPT_UZH_2026.2
 GLOBAL| Potential file name                                POTENTIAL_UZH_2026.2
 GLOBAL| MM Potential file name                                     MM_POTENTIAL
 GLOBAL| Coordinate file name                                      __STD_INPUT__
 GLOBAL| Method name                                                        CP2K
 GLOBAL| Project name                       G12_Si_gapwxc-gth_v1p0777777778_k444
 GLOBAL| Run type                                                         ENERGY
 GLOBAL| FFT library                                                       FFTW3
 GLOBAL| Diagonalization library                                       ScaLAPACK
 GLOBAL| Cholesky decomposition library                                ScaLAPACK
 GLOBAL| DGEMM library                                                      BLAS
 GLOBAL| Direct generalized diagonalization requested                          F
 GLOBAL| Orthonormality check for eigenvectors                          DISABLED
 GLOBAL| Matrix multiplication library                                 ScaLAPACK
 GLOBAL| All-to-all communication in single precision                          F
 GLOBAL| FFTs using library dependent lengths                                  F
 GLOBAL| Grid backend                                                       AUTO
 GLOBAL| Global print level                                               MEDIUM
 GLOBAL| MPI I/O enabled                                                       T
 GLOBAL| Total number of message passing processes                             1
 GLOBAL| Number of distributed systems (nodes)                                 1
 GLOBAL| Number of threads for this process                                   20
 GLOBAL| This output is from process                                           0
 GLOBAL| OpenMP stack size per thread (OMP_STACKSIZE)                       512M
 GLOBAL| CPU model name                                       AMD EPYC Processor

 MEMORY| system memory details [Kb]
 MEMORY|                        rank 0           min           max       average
 MEMORY| MemTotal            528104844     528104844     528104844     528104844
 MEMORY| MemFree             243969748     243969748     243969748     243969748
 MEMORY| Buffers                   664           664           664           664
 MEMORY| Cached              218109724     218109724     218109724     218109724
 MEMORY| Slab                 30369156      30369156      30369156      30369156
 MEMORY| SReclaimable         25331768      25331768      25331768      25331768
 MEMORY| MemLikelyFree       487411904     487411904     487411904     487411904


 *** Fundamental physical constants (SI units) ***

 *** Literature: B. J. Mohr and B. N. Taylor,
 ***             CODATA recommended values of the fundamental physical
 ***             constants: 2006, Web Version 5.1
 ***             http://physics.nist.gov/constants

 Speed of light in vacuum [m/s]                             2.99792458000000E+08
 Magnetic constant or permeability of vacuum [N/A**2]       1.25663706143592E-06
 Electric constant or permittivity of vacuum [F/m]          8.85418781762039E-12
 Planck constant (h) [J*s]                                  6.62606896000000E-34
 Planck constant (h-bar) [J*s]                              1.05457162825177E-34
 Elementary charge [C]                                      1.60217648700000E-19
 Electron mass [kg]                                         9.10938215000000E-31
 Electron g factor [ ]                                     -2.00231930436220E+00
 Proton mass [kg]                                           1.67262163700000E-27
 Fine-structure constant                                    7.29735253760000E-03
 Rydberg constant [1/m]                                     1.09737315685270E+07
 Avogadro constant [1/mol]                                  6.02214179000000E+23
 Boltzmann constant [J/K]                                   1.38065040000000E-23
 Atomic mass unit [kg]                                      1.66053878200000E-27
 Bohr radius [m]                                            5.29177208590000E-11

 *** Conversion factors ***

 [u] -> [a.u.]                                              1.82288848426455E+03
 [Angstrom] -> [Bohr] = [a.u.]                              1.88972613288564E+00
 [a.u.] = [Bohr] -> [Angstrom]                              5.29177208590000E-01
 [a.u.] -> [s]                                              2.41888432650478E-17
 [a.u.] -> [fs]                                             2.41888432650478E-02
 [a.u.] -> [J]                                              4.35974393937059E-18
 [a.u.] -> [N]                                              8.23872205491840E-08
 [a.u.] -> [K]                                              3.15774647902944E+05
 [a.u.] -> [kJ/mol]                                         2.62549961709828E+03
 [a.u.] -> [kcal/mol]                                       6.27509468713739E+02
 [a.u.] -> [Pa]                                             2.94210107994716E+13
 [a.u.] -> [bar]                                            2.94210107994716E+08
 [a.u.] -> [atm]                                            2.90362800883016E+08
 [a.u.] -> [eV]                                             2.72113838565563E+01
 [a.u.] -> [Hz]                                             6.57968392072181E+15
 [a.u.] -> [1/cm] (wave numbers)                            2.19474631370540E+05
 [a.u./Bohr**2] -> [1/cm]                                   5.14048714338585E+03
 

 CELL| Volume [angstrom^3]:                                           171.698874
 CELL| Vector a [angstrom]:       5.558     0.000     0.000   |a| =     5.558050
 CELL| Vector b [angstrom]:       0.000     5.558     0.000   |b| =     5.558050
 CELL| Vector c [angstrom]:       0.000     0.000     5.558   |c| =     5.558050
 CELL| Angle (b,c), alpha [degree]:                                    90.000000
 CELL| Angle (a,c), beta  [degree]:                                    90.000000
 CELL| Angle (a,b), gamma [degree]:                                    90.000000
 CELL| Numerically orthorhombic:                                             YES
 CELL| Periodicity                                                           XYZ

 CELL_REF| Volume [angstrom^3]:                                       171.698874
 CELL_REF| Vector a [angstrom     5.558     0.000     0.000   |a| =     5.558050
 CELL_REF| Vector b [angstrom     0.000     5.558     0.000   |b| =     5.558050
 CELL_REF| Vector c [angstrom     0.000     0.000     5.558   |c| =     5.558050
 CELL_REF| Angle (b,c), alpha [degree]:                                90.000000
 CELL_REF| Angle (a,c), beta  [degree]:                                90.000000
 CELL_REF| Angle (a,b), gamma [degree]:                                90.000000
 CELL_REF| Numerically orthorhombic:                                         YES
 CELL_REF| Periodicity                                                       XYZ

 GENERATE|  Preliminary Number of Bonds generated:                             0
 GENERATE|  Achieved consistency in connectivity generation.

 *** WARNING in cryssym.F:203 :: Symmetry library SPGLIB not available ***


 *******************************************************************************
 *******************************************************************************
 **                                                                           **
 **     #####                         ##              ##                      **
 **    ##   ##            ##          ##              ##                      **
 **   ##     ##                       ##            ######                    **
 **   ##     ##  ##   ##  ##   #####  ##  ##   ####   ##    #####    #####    **
 **   ##     ##  ##   ##  ##  ##      ## ##   ##      ##   ##   ##  ##   ##   **
 **   ##  ## ##  ##   ##  ##  ##      ####     ###    ##   ######   ######    **
 **    ##  ###   ##   ##  ##  ##      ## ##      ##   ##   ##       ##        **
 **     #######   #####   ##   #####  ##  ##  ####    ##    #####   ##        **
 **           ##                                                    ##        **
 **                                                                           **
 **                                                ... make the atoms dance   **
 **                                                                           **
 **            Copyright (C) by CP2K developers group (2000-2026)             **
 **                      J. Chem. Phys. 152, 194103 (2020)                    **
 **                                                                           **
 *******************************************************************************

 DFT| Spin restricted Kohn-Sham (RKS) calculation                            RKS
 DFT| Multiplicity                                                             1
 DFT| Number of spin states                                                    1
 DFT| Charge                                                                   0
 DFT| Self-interaction correction (SIC)                                       NO
 DFT| Cutoffs: density                                              1.000000E-10
 DFT|          gradient                                             1.000000E-10
 DFT|          tau                                                  1.000000E-10
 DFT|          cutoff_smoothing_range                               0.000000E+00
 DFT| XC density smoothing                                                  NONE
 DFT| XC derivatives                                                          PW

 FUNCTIONAL| GAUXC:
 FUNCTIONAL| Functional computed by GauXC Skala model SKALA                     

 vdW POTENTIAL|                                                   Pair Potential
 vdW POTENTIAL|          DFT-D3 (Version 3.1)
 vdW POTENTIAL|          Potential Form: S. Grimme et al, JCP 132: 154104 (2010)
 vdW POTENTIAL|          BJ Damping: S. Grimme et al, JCC 32: 1456 (2011)
 vdW POTENTIAL|          Cutoff Radius [Bohr]:                             37.79
 vdW POTENTIAL|          s6 Scaling Factor:                               1.0000
 vdW POTENTIAL|          a1 Damping Factor:                               0.3981
 vdW POTENTIAL|          s8 Scaling Factor:                               1.9889
 vdW POTENTIAL|          a2 Damping Factor:                               4.4211
 vdW POTENTIAL|          Cutoff for CN calculation:                   0.1000E-05

 QS| Method:                                                             GAPW_XC
 QS| Density plane wave grid type                        NON-SPHERICAL FULLSPACE
 QS| Number of grid levels:                                                    5
 QS| Density cutoff [a.u.]:                                                400.0
 QS| Multi grid cutoff [a.u.]: 1) grid level                               400.0
 QS|                           2) grid level                               133.3
 QS|                           3) grid level                                44.4
 QS|                           4) grid level                                14.8
 QS|                           5) grid level                                 4.9
 QS| Grid level progression factor:                                          3.0
 QS| Relative density cutoff [a.u.]:                                        30.0
 QS| Interaction thresholds: eps_pgf_orb:                                1.0E-06
 QS|                         eps_filter_matrix:                          0.0E+00
 QS|                         eps_core_charge:                            1.0E-14
 QS|                         eps_rho_gspace:                             1.0E-12
 QS|                         eps_rho_rspace:                             1.0E-12
 QS|                         eps_gvg_rspace:                             1.0E-06
 QS|                         eps_ppl:                                    1.0E-02
 QS|                         eps_ppnl:                                   1.0E-08
 QS| GAPW_XC|      One center basis extended with primitives (small:s)
 QS| GAPW_XC|                eps_fit:                                    1.0E-04
 QS| GAPW_XC|                eps_iso:                                    1.0E-12
 QS| GAPW_XC|                eps_svd:                                    1.0E-08
 QS| GAPW_XC|atom-r-grid: quadrature:                 GC_LOG                        
 QS| GAPW_XC|   atom-s-grid:  max l :                                          6


 ATOMIC KIND INFORMATION

  1. Atomic kind: Si                                    Number of atoms:       8

     Orbital Basis Set                                   TZV2P-MOLOPT-PBE-GTH-q4

       Number of orbital shell sets:                                           1
       Number of orbital shells:                                               9
       Number of primitive Cartesian functions:                                4
       Number of Cartesian basis functions:                                   34
       Number of spherical basis functions:                                   29
       Norm type:                                                              2

       Normalised Cartesian orbitals:

                        Set   Shell   Orbital            Exponent    Coefficient

                          1       1    2s                1.225726       0.396008
                                                         0.420991      -0.156102
                                                         0.169524      -0.164194
                                                         0.047522       0.001359

                          1       2    3s                1.225726      -0.314955
                                                         0.420991       0.115254
                                                         0.169524      -0.070030
                                                         0.047522      -0.053096

                          1       3    4s                1.225726      -0.770932
                                                         0.420991       0.139640
                                                         0.169524      -0.125600
                                                         0.047522       0.070994

                          1       4    3px               1.225726       0.193725
                                                         0.420991      -0.297086
                                                         0.169524      -0.078660
                                                         0.047522       0.000093
                          1       4    3py               1.225726       0.193725
                                                         0.420991      -0.297086
                                                         0.169524      -0.078660
                                                         0.047522       0.000093
                          1       4    3pz               1.225726       0.193725
                                                         0.420991      -0.297086
                                                         0.169524      -0.078660
                                                         0.047522       0.000093

                          1       5    4px               1.225726       0.165208
                                                         0.420991      -0.261223
                                                         0.169524       0.105025
                                                         0.047522       0.021509
                          1       5    4py               1.225726       0.165208
                                                         0.420991      -0.261223
                                                         0.169524       0.105025
                                                         0.047522       0.021509
                          1       5    4pz               1.225726       0.165208
                                                         0.420991      -0.261223
                                                         0.169524       0.105025
                                                         0.047522       0.021509

                          1       6    5px               1.225726      -1.548058
                                                         0.420991       0.146763
                                                         0.169524      -0.083355
                                                         0.047522       0.028085
                          1       6    5py               1.225726      -1.548058
                                                         0.420991       0.146763
                                                         0.169524      -0.083355
                                                         0.047522       0.028085
                          1       6    5pz               1.225726      -1.548058
                                                         0.420991       0.146763
                                                         0.169524      -0.083355
                                                         0.047522       0.028085

                          1       7    4dx2              1.225726       0.452920
                                                         0.420991       0.207665
                                                         0.169524       0.027528
                                                         0.047522       0.000294
                          1       7    4dxy              1.225726       0.784480
                                                         0.420991       0.359686
                                                         0.169524       0.047680
                                                         0.047522       0.000509
                          1       7    4dxz              1.225726       0.784480
                                                         0.420991       0.359686
                                                         0.169524       0.047680
                                                         0.047522       0.000509
                          1       7    4dy2              1.225726       0.452920
                                                         0.420991       0.207665
                                                         0.169524       0.027528
                                                         0.047522       0.000294
                          1       7    4dyz              1.225726       0.784480
                                                         0.420991       0.359686
                                                         0.169524       0.047680
                                                         0.047522       0.000509
                          1       7    4dz2              1.225726       0.452920
                                                         0.420991       0.207665
                                                         0.169524       0.027528
                                                         0.047522       0.000294

                          1       8    5dx2              1.225726      -2.995584
                                                         0.420991       0.255705
                                                         0.169524      -0.031782
                                                         0.047522       0.000380
                          1       8    5dxy              1.225726      -5.188503
                                                         0.420991       0.442894
                                                         0.169524      -0.055048
                                                         0.047522       0.000659
                          1       8    5dxz              1.225726      -5.188503
                                                         0.420991       0.442894
                                                         0.169524      -0.055048
                                                         0.047522       0.000659
                          1       8    5dy2              1.225726      -2.995584
                                                         0.420991       0.255705
                                                         0.169524      -0.031782
                                                         0.047522       0.000380
                          1       8    5dyz              1.225726      -5.188503
                                                         0.420991       0.442894
                                                         0.169524      -0.055048
                                                         0.047522       0.000659
                          1       8    5dz2              1.225726      -2.995584
                                                         0.420991       0.255705
                                                         0.169524      -0.031782
                                                         0.047522       0.000380

                          1       9    5fx3              1.225726       0.367804
                                                         0.420991       0.134089
                                                         0.169524       0.010284
                                                         0.047522      -0.000037
                          1       9    5fx2y             1.225726       0.822434
                                                         0.420991       0.299833
                                                         0.169524       0.022995
                                                         0.047522      -0.000084
                          1       9    5fx2z             1.225726       0.822434
                                                         0.420991       0.299833
                                                         0.169524       0.022995
                                                         0.047522      -0.000084
                          1       9    5fxy2             1.225726       0.822434
                                                         0.420991       0.299833
                                                         0.169524       0.022995
                                                         0.047522      -0.000084
                          1       9    5fxyz             1.225726       1.424498
                                                         0.420991       0.519326
                                                         0.169524       0.039829
                                                         0.047522      -0.000145
                          1       9    5fxz2             1.225726       0.822434
                                                         0.420991       0.299833
                                                         0.169524       0.022995
                                                         0.047522      -0.000084
                          1       9    5fy3              1.225726       0.367804
                                                         0.420991       0.134089
                                                         0.169524       0.010284
                                                         0.047522      -0.000037
                          1       9    5fy2z             1.225726       0.822434
                                                         0.420991       0.299833
                                                         0.169524       0.022995
                                                         0.047522      -0.000084
                          1       9    5fyz2             1.225726       0.822434
                                                         0.420991       0.299833
                                                         0.169524       0.022995
                                                         0.047522      -0.000084
                          1       9    5fz3              1.225726       0.367804
                                                         0.420991       0.134089
                                                         0.169524       0.010284
                                                         0.047522      -0.000037

       Atomic covalent radius [Angstrom]:                                  1.110

       Atomic van der Waals radius [Angstrom]:                             2.100

     The atoms of this atomic kind are PAW atoms (GAPW):
       Hard Gaussian function radius:                                      1.900
       Rho0 radius:                                                        1.900
       Maximum GTO radius used for PAW projector construction:            24.566

     GAPW Soft Basis Set                            TZV2P-MOLOPT-PBE-GTH-q4_soft

       Number of orbital shell sets:                                           1
       Number of orbital shells:                                               9
       Number of primitive Cartesian functions:                                4
       Number of Cartesian basis functions:                                   34
       Number of spherical basis functions:                                   29
       Norm type:                                                              2

       Normalised Cartesian orbitals:

                        Set   Shell   Orbital            Exponent    Coefficient

                          1       1    2s                1.225726       0.396008
                                                         0.420991      -0.156102
                                                         0.169524      -0.164194
                                                         0.047522       0.001359

                          1       2    3s                1.225726      -0.314955
                                                         0.420991       0.115254
                                                         0.169524      -0.070030
                                                         0.047522      -0.053096

                          1       3    4s                1.225726      -0.770932
                                                         0.420991       0.139640
                                                         0.169524      -0.125600
                                                         0.047522       0.070994

                          1       4    3px               1.225726       0.193725
                                                         0.420991      -0.297086
                                                         0.169524      -0.078660
                                                         0.047522       0.000093
                          1       4    3py               1.225726       0.193725
                                                         0.420991      -0.297086
                                                         0.169524      -0.078660
                                                         0.047522       0.000093
                          1       4    3pz               1.225726       0.193725
                                                         0.420991      -0.297086
                                                         0.169524      -0.078660
                                                         0.047522       0.000093

                          1       5    4px               1.225726       0.165208
                                                         0.420991      -0.261223
                                                         0.169524       0.105025
                                                         0.047522       0.021509
                          1       5    4py               1.225726       0.165208
                                                         0.420991      -0.261223
                                                         0.169524       0.105025
                                                         0.047522       0.021509
                          1       5    4pz               1.225726       0.165208
                                                         0.420991      -0.261223
                                                         0.169524       0.105025
                                                         0.047522       0.021509

                          1       6    5px               1.225726      -1.548058
                                                         0.420991       0.146763
                                                         0.169524      -0.083355
                                                         0.047522       0.028085
                          1       6    5py               1.225726      -1.548058
                                                         0.420991       0.146763
                                                         0.169524      -0.083355
                                                         0.047522       0.028085
                          1       6    5pz               1.225726      -1.548058
                                                         0.420991       0.146763
                                                         0.169524      -0.083355
                                                         0.047522       0.028085

                          1       7    4dx2              1.225726       0.452920
                                                         0.420991       0.207665
                                                         0.169524       0.027528
                                                         0.047522       0.000294
                          1       7    4dxy              1.225726       0.784480
                                                         0.420991       0.359686
                                                         0.169524       0.047680
                                                         0.047522       0.000509
                          1       7    4dxz              1.225726       0.784480
                                                         0.420991       0.359686
                                                         0.169524       0.047680
                                                         0.047522       0.000509
                          1       7    4dy2              1.225726       0.452920
                                                         0.420991       0.207665
                                                         0.169524       0.027528
                                                         0.047522       0.000294
                          1       7    4dyz              1.225726       0.784480
                                                         0.420991       0.359686
                                                         0.169524       0.047680
                                                         0.047522       0.000509
                          1       7    4dz2              1.225726       0.452920
                                                         0.420991       0.207665
                                                         0.169524       0.027528
                                                         0.047522       0.000294

                          1       8    5dx2              1.225726      -2.995584
                                                         0.420991       0.255705
                                                         0.169524      -0.031782
                                                         0.047522       0.000380
                          1       8    5dxy              1.225726      -5.188503
                                                         0.420991       0.442894
                                                         0.169524      -0.055048
                                                         0.047522       0.000659
                          1       8    5dxz              1.225726      -5.188503
                                                         0.420991       0.442894
                                                         0.169524      -0.055048
                                                         0.047522       0.000659
                          1       8    5dy2              1.225726      -2.995584
                                                         0.420991       0.255705
                                                         0.169524      -0.031782
                                                         0.047522       0.000380
                          1       8    5dyz              1.225726      -5.188503
                                                         0.420991       0.442894
                                                         0.169524      -0.055048
                                                         0.047522       0.000659
                          1       8    5dz2              1.225726      -2.995584
                                                         0.420991       0.255705
                                                         0.169524      -0.031782
                                                         0.047522       0.000380

                          1       9    5fx3              1.225726       0.367804
                                                         0.420991       0.134089
                                                         0.169524       0.010284
                                                         0.047522      -0.000037
                          1       9    5fx2y             1.225726       0.822434
                                                         0.420991       0.299833
                                                         0.169524       0.022995
                                                         0.047522      -0.000084
                          1       9    5fx2z             1.225726       0.822434
                                                         0.420991       0.299833
                                                         0.169524       0.022995
                                                         0.047522      -0.000084
                          1       9    5fxy2             1.225726       0.822434
                                                         0.420991       0.299833
                                                         0.169524       0.022995
                                                         0.047522      -0.000084
                          1       9    5fxyz             1.225726       1.424498
                                                         0.420991       0.519326
                                                         0.169524       0.039829
                                                         0.047522      -0.000145
                          1       9    5fxz2             1.225726       0.822434
                                                         0.420991       0.299833
                                                         0.169524       0.022995
                                                         0.047522      -0.000084
                          1       9    5fy3              1.225726       0.367804
                                                         0.420991       0.134089
                                                         0.169524       0.010284
                                                         0.047522      -0.000037
                          1       9    5fy2z             1.225726       0.822434
                                                         0.420991       0.299833
                                                         0.169524       0.022995
                                                         0.047522      -0.000084
                          1       9    5fyz2             1.225726       0.822434
                                                         0.420991       0.299833
                                                         0.169524       0.022995
                                                         0.047522      -0.000084
                          1       9    5fz3              1.225726       0.367804
                                                         0.420991       0.134089
                                                         0.169524       0.010284
                                                         0.047522      -0.000037

     GTH Potential information for                                    GTH-PBE-q4

       Description:                       Goedecker-Teter-Hutter pseudopotential
                                           Goedecker et al., PRB 54, 1703 (1996)
                                          Hartwigsen et al., PRB 58, 3641 (1998)
                                                      Krack, TCA 114, 145 (2005)

       Gaussian exponent of the core charge distribution:               2.582849
       Electronic configuration (s p d ...):                       2   2   0   0

       Parameters of the local part of the GTH pseudopotential:

                          rloc        C1          C2          C3          C4
                        0.439983   -6.269270

       Parameters of the non-local part of the GTH pseudopotential:

                   l      r(l)      h(i,j,l)

                   0    0.435635    8.951852   -2.706271
                                   -2.706271    3.493787
                   1    0.497958    2.431277


 MOLECULE KIND INFORMATION


 All atoms are their own molecule, skipping detailed information


 TOTAL NUMBERS AND MAXIMUM NUMBERS

  Total number of            - Atomic kinds:                                   1
                             - Atoms:                                          8
                             - Shell sets:                                     8
                             - Shells:                                        72
                             - Primitive Cartesian functions:                 32
                             - Cartesian basis functions:                    272
                             - Spherical basis functions:                    232

  Maximum angular momentum of- Orbital basis functions:                        3
                             - Local part of the GTH pseudopotential:          0
                             - Non-local part of the GTH pseudopotential:      2


 MODULE QUICKSTEP: ATOMIC COORDINATES IN ANGSTROM

   Atom Kind Element         X             Y             Z       Z(eff)     Mass
      1    1 Si   14      0.000000      0.000000      0.000000   4.0000  28.0855
      2    1 Si   14      0.000000      2.779025      2.779025   4.0000  28.0855
      3    1 Si   14      2.779025      0.000000      2.779025   4.0000  28.0855
      4    1 Si   14      2.779025      2.779025      0.000000   4.0000  28.0855
      5    1 Si   14      1.389513      1.389513      1.389513   4.0000  28.0855
      6    1 Si   14      1.389513      4.168538      4.168538   4.0000  28.0855
      7    1 Si   14      4.168538      1.389513      4.168538   4.0000  28.0855
      8    1 Si   14      4.168538      4.168538      1.389513   4.0000  28.0855



 SCF PARAMETERS         Density guess:                                   RESTART
                        --------------------------------------------------------
                        max_scf:                                              50
                        max_scf_history:                                       0
                        max_diis:                                              4
                        --------------------------------------------------------
                        eps_scf:                                        5.00E-07
                        eps_scf_history:                                0.00E+00
                        eps_diis:                                       0.00E+00
                        eps_eigval:                                     1.00E-05
                        --------------------------------------------------------
                        level_shift [a.u.]:                             0.000000
                        --------------------------------------------------------
                        Outer loop SCF in use 
                        No variables optimised in outer loop
                        eps_scf                                         5.00E-07
                        max_scf                                                4
                        No outer loop optimization
                        step_size                                       5.00E-01

 PW_GRID| Information for grid number                                          1
 PW_GRID| Cutoff [a.u.]                                                    400.0
 PW_GRID| spherical cutoff:                                                   NO
 PW_GRID|   Bounds   1            -48      47                Points:          96
 PW_GRID|   Bounds   2            -48      47                Points:          96
 PW_GRID|   Bounds   3            -48      47                Points:          96
 PW_GRID| Volume element (a.u.^3)  0.1310E-02     Volume (a.u.^3)      1158.6814
 PW_GRID| Grid span                                                    FULLSPACE

 PW_GRID| Information for grid number                                          2
 PW_GRID| Number of the reference grid                                         1
 PW_GRID| Cutoff [a.u.]                                                    133.3
 PW_GRID| spherical cutoff:                                                   NO
 PW_GRID|   Bounds   1            -30      29                Points:          60
 PW_GRID|   Bounds   2            -30      29                Points:          60
 PW_GRID|   Bounds   3            -30      29                Points:          60
 PW_GRID| Volume element (a.u.^3)  0.5364E-02     Volume (a.u.^3)      1158.6814
 PW_GRID| Grid span                                                    FULLSPACE

 PW_GRID| Information for grid number                                          3
 PW_GRID| Number of the reference grid                                         1
 PW_GRID| Cutoff [a.u.]                                                     44.4
 PW_GRID| spherical cutoff:                                                   NO
 PW_GRID|   Bounds   1            -16      15                Points:          32
 PW_GRID|   Bounds   2            -16      15                Points:          32
 PW_GRID|   Bounds   3            -16      15                Points:          32
 PW_GRID| Volume element (a.u.^3)  0.3536E-01     Volume (a.u.^3)      1158.6814
 PW_GRID| Grid span                                                    FULLSPACE

 PW_GRID| Information for grid number                                          4
 PW_GRID| Number of the reference grid                                         1
 PW_GRID| Cutoff [a.u.]                                                     14.8
 PW_GRID| spherical cutoff:                                                   NO
 PW_GRID|   Bounds   1            -10       9                Points:          20
 PW_GRID|   Bounds   2            -10       9                Points:          20
 PW_GRID|   Bounds   3            -10       9                Points:          20
 PW_GRID| Volume element (a.u.^3)  0.1448         Volume (a.u.^3)      1158.6814
 PW_GRID| Grid span                                                    FULLSPACE

 PW_GRID| Information for grid number                                          5
 PW_GRID| Number of the reference grid                                         1
 PW_GRID| Cutoff [a.u.]                                                      4.9
 PW_GRID| spherical cutoff:                                                   NO
 PW_GRID|   Bounds   1             -6       5                Points:          12
 PW_GRID|   Bounds   2             -6       5                Points:          12
 PW_GRID|   Bounds   3             -6       5                Points:          12
 PW_GRID| Volume element (a.u.^3)  0.6705         Volume (a.u.^3)      1158.6814
 PW_GRID| Grid span                                                    FULLSPACE

 POISSON| Solver                                                        PERIODIC
 POISSON| Periodicity                                                        XYZ

 RS_GRID| Information for grid number                                          1
 RS_GRID|   Bounds   1            -48      47                Points:          96
 RS_GRID|   Bounds   2            -48      47                Points:          96
 RS_GRID|   Bounds   3            -48      47                Points:          96

 RS_GRID| Information for grid number                                          2
 RS_GRID|   Bounds   1            -30      29                Points:          60
 RS_GRID|   Bounds   2            -30      29                Points:          60
 RS_GRID|   Bounds   3            -30      29                Points:          60

 RS_GRID| Information for grid number                                          3
 RS_GRID|   Bounds   1            -16      15                Points:          32
 RS_GRID|   Bounds   2            -16      15                Points:          32
 RS_GRID|   Bounds   3            -16      15                Points:          32

 RS_GRID| Information for grid number                                          4
 RS_GRID|   Bounds   1            -10       9                Points:          20
 RS_GRID|   Bounds   2            -10       9                Points:          20
 RS_GRID|   Bounds   3            -10       9                Points:          20

 RS_GRID| Information for grid number                                          5
 RS_GRID|   Bounds   1             -6       5                Points:          12
 RS_GRID|   Bounds   2             -6       5                Points:          12
 RS_GRID|   Bounds   3             -6       5                Points:          12

 *******************************************************************************
                                    Kpoints
 *******************************************************************************
 BRILLOUIN| K-point scheme                                        Monkhorst-Pack
 BRILLOUIN| K-Point grid                                             4    4    4
 BRILLOUIN| Gamma-centered k-point mesh                                     ON
 BRILLOUIN| K-point symmetry accuracy                               0.100000E-07
 BRILLOUIN| K-Point point group symmetrization                                ON
 BRILLOUIN| Restrict symmetry to inversion                                    ON
 BRILLOUIN| Wavefunction type                                            COMPLEX
 BRILLOUIN| List of Kpoints [2 Pi/Bohr]                                       36
 BRILLOUIN| Number           Weight            X              Y              Z
 BRILLOUIN|     1           0.03125       -0.25000       -0.25000       -0.25000
 BRILLOUIN|     2           0.03125       -0.25000       -0.25000        0.00000
 BRILLOUIN|     3           0.03125       -0.25000       -0.25000        0.25000
 BRILLOUIN|     4           0.03125       -0.25000       -0.25000        0.50000
 BRILLOUIN|     5           0.03125       -0.25000        0.00000       -0.25000
 BRILLOUIN|     6           0.03125       -0.25000        0.00000        0.00000
 BRILLOUIN|     7           0.03125       -0.25000        0.00000        0.25000
 BRILLOUIN|     8           0.03125       -0.25000        0.00000        0.50000
 BRILLOUIN|     9           0.03125       -0.25000        0.25000       -0.25000
 BRILLOUIN|    10           0.03125       -0.25000        0.25000        0.00000
 BRILLOUIN|    11           0.03125       -0.25000        0.25000        0.25000
 BRILLOUIN|    12           0.03125       -0.25000        0.25000        0.50000
 BRILLOUIN|    13           0.03125       -0.25000        0.50000       -0.25000
 BRILLOUIN|    14           0.03125       -0.25000        0.50000        0.00000
 BRILLOUIN|    15           0.03125       -0.25000        0.50000        0.25000
 BRILLOUIN|    16           0.03125       -0.25000        0.50000        0.50000
 BRILLOUIN|    17           0.03125        0.00000       -0.25000       -0.25000
 BRILLOUIN|    18           0.03125        0.00000       -0.25000        0.00000
 BRILLOUIN|    19           0.03125        0.00000       -0.25000        0.25000
 BRILLOUIN|    20           0.03125        0.00000       -0.25000        0.50000
 BRILLOUIN|    21           0.03125        0.00000        0.00000       -0.25000
 BRILLOUIN|    22           0.01562        0.00000        0.00000        0.00000
 BRILLOUIN|    23           0.01562        0.00000        0.00000        0.50000
 BRILLOUIN|    24           0.03125        0.00000        0.50000       -0.25000
 BRILLOUIN|    25           0.01562        0.00000        0.50000        0.00000
 BRILLOUIN|    26           0.01562        0.00000        0.50000        0.50000
 BRILLOUIN|    27           0.03125        0.50000       -0.25000       -0.25000
 BRILLOUIN|    28           0.03125        0.50000       -0.25000        0.00000
 BRILLOUIN|    29           0.03125        0.50000       -0.25000        0.25000
 BRILLOUIN|    30           0.03125        0.50000       -0.25000        0.50000
 BRILLOUIN|    31           0.03125        0.50000        0.00000       -0.25000
 BRILLOUIN|    32           0.01562        0.50000        0.00000        0.00000
 BRILLOUIN|    33           0.01562        0.50000        0.00000        0.50000
 BRILLOUIN|    34           0.03125        0.50000        0.50000       -0.25000
 BRILLOUIN|    35           0.01562        0.50000        0.50000        0.00000
 BRILLOUIN|    36           0.01562        0.50000        0.50000        0.50000
 *******************************************************************************

 Extrapolation method: initial_guess

 Number of electrons:                                                         32
 Number of occupied orbitals:                                                 16
 Number of molecular orbitals:                                                16

 Number of orbital functions:                                                232
 Number of independent orbital functions:                                    232


 SCF WAVEFUNCTION OPTIMIZATION

  ----------------------------------- OT ---------------------------------------
  Minimizer      : DIIS                : direct inversion
                                         in the iterative subspace
                                         using   7 DIIS vectors
                                         safer DIIS on
  Preconditioner : FULL_ALL            : diagonalization, state selective
  Precond_solver : DEFAULT
  stepsize       :    0.00500000                  energy_gap     :    0.00100000
  ortho_irac     : CHOL                           irac_degree    :             4
  max_irac       :            50                  eps_irac       :   0.10000E-09
  eps_irac_switch:   0.10000E-01                  eps_irac_quick_exit: 0.100E-04
  on_the_fly_loc : F
  ----------------------------------- OT ---------------------------------------

  Step     Update method      Time    Convergence         Total energy    Change
  ------------------------------------------------------------------------------

 *** WARNING in qs_ks_methods.F:773 :: Native SKALA grid evaluation with   ***
 *** k-points is using the CPU TorchScript path. Use a mutually compatible ***
 *** BLAS, ScaLAPACK, OpenMP, and LibTorch runtime stack, or select        ***
 *** NATIVE_GRID_USE_CUDA T.                                               ***

 SKALA_GPW| Atom-composite cross support/maxima   0.000000000000E+00   0.000000000000E+00   0.000000000000E+00   0.000000000000E+00
 SKALA_GPW| Active atom-composite XC energy  -9.5023128637949874E+00
 SKALA_GPW| Active atom-composite electrons   3.2036712432327889E+01
 SKALA_GPW| Active atom-composite density range   1.6596145109279588E-05   4.2667222157465517E-02
 SKALA_GPW| Active atom-composite tau range   6.7869557911610142E-04   3.9670391337804062E-02
 SKALA_GPW| Active atom-composite tau integral   1.2641773259777217E+01
 SKALA_GPW| Active atom-composite max gradient   3.8020998358161681E-02
 K-point OT: rebuilding physical virtual subspace by full KS diagonalization.

  ----------------------------------- OT ---------------------------------------
  Minimizer      : DIIS                : direct inversion
                                         in the iterative subspace
                                         using   7 DIIS vectors
                                         safer DIIS on
  Preconditioner : FULL_ALL            : diagonalization, state selective
  Precond_solver : DEFAULT
  stepsize       :    0.00500000                  energy_gap     :    0.00100000
  ortho_irac     : CHOL                           irac_degree    :             4
  max_irac       :            50                  eps_irac       :   0.10000E-09
  eps_irac_switch:   0.10000E-01                  eps_irac_quick_exit: 0.100E-04
  on_the_fly_loc : F
  ----------------------------------- OT ---------------------------------------

  Step     Update method      Time    Convergence         Total energy    Change
  ------------------------------------------------------------------------------
     1 OT INIT     0.50E-02  169.6     0.00000500       -31.3879118204 -3.14E+01
 SKALA_GPW| Atom-composite cross support/maxima   0.000000000000E+00   0.000000000000E+00   0.000000000000E+00   0.000000000000E+00
 SKALA_GPW| Active atom-composite XC energy  -9.5170353142691226E+00
 SKALA_GPW| Active atom-composite electrons   3.2036640316173894E+01
 SKALA_GPW| Active atom-composite density range   1.3692196257719508E-05   4.2689696608755316E-02
 SKALA_GPW| Active atom-composite tau range   6.7627742050442141E-04   3.0871229718424813E-02
 SKALA_GPW| Active atom-composite tau integral   1.2382211000431280E+01
 SKALA_GPW| Active atom-composite max gradient   3.8024976289673773E-02
     2 OT DIIS     0.50E-02  109.8     0.00002498       -31.6029768051 -2.15E-01
 SKALA_GPW| Atom-composite cross support/maxima   0.000000000000E+00   0.000000000000E+00   0.000000000000E+00   0.000000000000E+00
 SKALA_GPW| Active atom-composite XC energy  -9.5170359713672745E+00
 SKALA_GPW| Active atom-composite electrons   3.2036640263434755E+01
 SKALA_GPW| Active atom-composite density range   1.3691542939659774E-05   4.2689705367111357E-02
 SKALA_GPW| Active atom-composite tau range   6.7627794928810003E-04   3.0871241007283799E-02
 SKALA_GPW| Active atom-composite tau integral   1.2382198943367923E+01
 SKALA_GPW| Active atom-composite max gradient   3.8024992514838103E-02
     3 OT SD       0.50E-02  107.9     0.00002499       -31.6029776446 -8.39E-07
 SKALA_GPW| Atom-composite cross support/maxima   0.000000000000E+00   0.000000000000E+00   0.000000000000E+00   0.000000000000E+00
 SKALA_GPW| Active atom-composite XC energy  -9.5170366247183225E+00
 SKALA_GPW| Active atom-composite electrons   3.2036640210768240E+01
 SKALA_GPW| Active atom-composite density range   1.3690891588757574E-05   4.2689714090650872E-02
 SKALA_GPW| Active atom-composite tau range   6.7627848169190868E-04   3.0871252217442840E-02
 SKALA_GPW| Active atom-composite tau integral   1.2382186873246701E+01
 SKALA_GPW| Active atom-composite max gradient   3.8025008696116379E-02
     4 OT SD       0.50E-02  105.0     0.00002501       -31.6029784833 -8.39E-07
 SKALA_GPW| Atom-composite cross support/maxima   0.000000000000E+00   0.000000000000E+00   0.000000000000E+00   0.000000000000E+00
 SKALA_GPW| Active atom-composite XC energy  -9.5170372584177407E+00
 SKALA_GPW| Active atom-composite electrons   3.2036640158177278E+01
 SKALA_GPW| Active atom-composite density range   1.3690242270881683E-05   4.2689722766030162E-02
 SKALA_GPW| Active atom-composite tau range   6.7627901778056284E-04   3.0871263315614777E-02
 SKALA_GPW| Active atom-composite tau integral   1.2382174789675936E+01
 SKALA_GPW| Active atom-composite max gradient   3.8025024815797517E-02
     5 OT SD       0.50E-02  121.1     0.00002502       -31.6029793056 -8.22E-07
 SKALA_GPW| Atom-composite cross support/maxima   0.000000000000E+00   0.000000000000E+00   0.000000000000E+00   0.000000000000E+00
 SKALA_GPW| Active atom-composite XC energy  -9.5170379044614872E+00
 SKALA_GPW| Active atom-composite electrons   3.2036640105660545E+01
 SKALA_GPW| Active atom-composite density range   1.3689594922383981E-05   4.2689731406455413E-02
 SKALA_GPW| Active atom-composite tau range   6.7627955746348153E-04   3.0871274335199487E-02
 SKALA_GPW| Active atom-composite tau integral   1.2382162693090072E+01
 SKALA_GPW| Active atom-composite max gradient   3.8025040891764887E-02
     6 OT SD       0.50E-02  107.5     0.00002503       -31.6029801432 -8.38E-07
 SKALA_GPW| Atom-composite cross support/maxima   0.000000000000E+00   0.000000000000E+00   0.000000000000E+00   0.000000000000E+00
 SKALA_GPW| Active atom-composite XC energy  -9.5170385562953665E+00
 SKALA_GPW| Active atom-composite electrons   3.2036640053217425E+01
 SKALA_GPW| Active atom-composite density range   1.3688949628222845E-05   4.2689740001465110E-02
 SKALA_GPW| Active atom-composite tau range   6.7628010078822089E-04   3.0871285248891930E-02
 SKALA_GPW| Active atom-composite tau integral   1.2382150583281600E+01
 SKALA_GPW| Active atom-composite max gradient   3.8025056909417619E-02
     7 OT DIIS     0.50E-02  102.2     0.00002504       -31.6029809897 -8.46E-07
 SKALA_GPW| Atom-composite cross support/maxima   0.000000000000E+00   0.000000000000E+00   0.000000000000E+00   0.000000000000E+00
 SKALA_GPW| Active atom-composite XC energy  -9.5165435989760265E+00
 SKALA_GPW| Active atom-composite electrons   3.2036647841772428E+01
 SKALA_GPW| Active atom-composite density range   1.3968160289467166E-05   4.2683336879391853E-02
 SKALA_GPW| Active atom-composite tau range   6.7699662207489823E-04   3.0855555523973052E-02
 SKALA_GPW| Active atom-composite tau integral   1.2378366575087133E+01
 SKALA_GPW| Active atom-composite max gradient   3.8017412105043245E-02
     8 OT SD       0.50E-02  110.5     0.00002632       -31.6031417402 -1.61E-04
 SKALA_GPW| Atom-composite cross support/maxima   0.000000000000E+00   0.000000000000E+00   0.000000000000E+00   0.000000000000E+00
 SKALA_GPW| Active atom-composite XC energy  -9.5165447994735661E+00
 SKALA_GPW| Active atom-composite electrons   3.2036647784316997E+01
 SKALA_GPW| Active atom-composite density range   1.3967197646441240E-05   4.2683405351766908E-02
 SKALA_GPW| Active atom-composite tau range   6.7699683166524917E-04   3.0855714871555664E-02
 SKALA_GPW| Active atom-composite tau integral   1.2378355943767110E+01
 SKALA_GPW| Active atom-composite max gradient   3.8017502683913393E-02
     9 OT SD       0.50E-02  107.6     0.00002631       -31.6031426805 -9.40E-07
 SKALA_GPW| Atom-composite cross support/maxima   0.000000000000E+00   0.000000000000E+00   0.000000000000E+00   0.000000000000E+00
 SKALA_GPW| Active atom-composite XC energy  -9.5165459822397338E+00
 SKALA_GPW| Active atom-composite electrons   3.2036647726961675E+01
 SKALA_GPW| Active atom-composite density range   1.3966237715315282E-05   4.2683473257590476E-02
 SKALA_GPW| Active atom-composite tau range   6.7699704583417417E-04   3.0855872834797855E-02
 SKALA_GPW| Active atom-composite tau integral   1.2378345295551044E+01
 SKALA_GPW| Active atom-composite max gradient   3.8017592559055659E-02
    10 OT DIIS     0.50E-02  110.9     0.00002629       -31.6031436076 -9.27E-07
 SKALA_GPW| Atom-composite cross support/maxima   0.000000000000E+00   0.000000000000E+00   0.000000000000E+00   0.000000000000E+00
 SKALA_GPW| Active atom-composite XC energy  -9.5150977819040712E+00
 SKALA_GPW| Active atom-composite electrons   3.2036682527023920E+01
 SKALA_GPW| Active atom-composite density range   1.4738728085460989E-05   4.2700999975874607E-02
 SKALA_GPW| Active atom-composite tau range   6.7885688017456955E-04   3.0902749464271483E-02
 SKALA_GPW| Active atom-composite tau integral   1.2370747411070212E+01
 SKALA_GPW| Active atom-composite max gradient   3.8038994944716097E-02
    11 OT SD       0.50E-02  105.3     0.00002155       -31.6033964679 -2.53E-04
 SKALA_GPW| Atom-composite cross support/maxima   0.000000000000E+00   0.000000000000E+00   0.000000000000E+00   0.000000000000E+00
 SKALA_GPW| Active atom-composite XC energy  -9.5150987440693324E+00
 SKALA_GPW| Active atom-composite electrons   3.2036682459906913E+01
 SKALA_GPW| Active atom-composite density range   1.4736560900342920E-05   4.2700885761558303E-02
 SKALA_GPW| Active atom-composite tau range   6.7885675255966512E-04   3.0902474921929476E-02
 SKALA_GPW| Active atom-composite tau integral   1.2370736132084357E+01
 SKALA_GPW| Active atom-composite max gradient   3.8038868794944850E-02
    12 OT SD       0.50E-02  107.5     0.00002148       -31.6033970701 -6.02E-07
 SKALA_GPW| Atom-composite cross support/maxima   0.000000000000E+00   0.000000000000E+00   0.000000000000E+00   0.000000000000E+00
 SKALA_GPW| Active atom-composite XC energy  -9.5150997359949692E+00
 SKALA_GPW| Active atom-composite electrons   3.2036682392735081E+01
 SKALA_GPW| Active atom-composite density range   1.4734398044530902E-05   4.2700772763784048E-02
 SKALA_GPW| Active atom-composite tau range   6.7885661646361988E-04   3.0902203214115860E-02
 SKALA_GPW| Active atom-composite tau integral   1.2370724916756572E+01
 SKALA_GPW| Active atom-composite max gradient   3.8038744055498279E-02
    13 OT DIIS     0.50E-02  116.5     0.00002142       -31.6033976921 -6.22E-07
 SKALA_GPW| Atom-composite cross support/maxima   0.000000000000E+00   0.000000000000E+00   0.000000000000E+00   0.000000000000E+00
 SKALA_GPW| Active atom-composite XC energy  -9.5165636313162967E+00
 SKALA_GPW| Active atom-composite electrons   3.2036631869946085E+01
 SKALA_GPW| Active atom-composite density range   1.3086786675142325E-05   4.2693769454924577E-02
 SKALA_GPW| Active atom-composite tau range   6.7750630865415890E-04   3.0887595858701707E-02
 SKALA_GPW| Active atom-composite tau integral   1.2371331108019930E+01
 SKALA_GPW| Active atom-composite max gradient   3.8036815084719643E-02
    14 OT DIIS     0.50E-02  106.0     0.00001522       -31.6034906264 -9.29E-05
 SKALA_GPW| Atom-composite cross support/maxima   0.000000000000E+00   0.000000000000E+00   0.000000000000E+00   0.000000000000E+00
 SKALA_GPW| Active atom-composite XC energy  -9.5150598942986697E+00
 SKALA_GPW| Active atom-composite electrons   3.2036655237393305E+01
 SKALA_GPW| Active atom-composite density range   1.2748348324772365E-05   4.2685888946050320E-02
 SKALA_GPW| Active atom-composite tau range   6.7937407773432338E-04   3.0875006926246052E-02
 SKALA_GPW| Active atom-composite tau integral   1.2361556888557994E+01
 SKALA_GPW| Active atom-composite max gradient   3.8030218768075136E-02
    15 OT DIIS     0.50E-02  109.7     0.00001006       -31.6035474833 -5.69E-05
 SKALA_GPW| Atom-composite cross support/maxima   0.000000000000E+00   0.000000000000E+00   0.000000000000E+00   0.000000000000E+00
 SKALA_GPW| Active atom-composite XC energy  -9.5161444660377512E+00
 SKALA_GPW| Active atom-composite electrons   3.2036626883459320E+01
 SKALA_GPW| Active atom-composite density range   1.2915868132933449E-05   4.2693673563627806E-02
 SKALA_GPW| Active atom-composite tau range   6.7836566198809455E-04   3.0881612123181638E-02
 SKALA_GPW| Active atom-composite tau integral   1.2365075530292488E+01
 SKALA_GPW| Active atom-composite max gradient   3.8036850503000486E-02
    16 OT DIIS     0.50E-02  101.8     0.00000801       -31.6035618581 -1.44E-05
 SKALA_GPW| Atom-composite cross support/maxima   0.000000000000E+00   0.000000000000E+00   0.000000000000E+00   0.000000000000E+00
 SKALA_GPW| Active atom-composite XC energy  -9.5169633741082453E+00
 SKALA_GPW| Active atom-composite electrons   3.2036610869767983E+01
 SKALA_GPW| Active atom-composite density range   1.3419442683196076E-05   4.2692862354933400E-02
 SKALA_GPW| Active atom-composite tau range   6.7745992548500942E-04   3.0873042300249273E-02
 SKALA_GPW| Active atom-composite tau integral   1.2369341776169762E+01
 SKALA_GPW| Active atom-composite max gradient   3.8033723572841384E-02
    17 OT DIIS     0.50E-02  123.7     0.00000535       -31.6035661093 -4.25E-06
 SKALA_GPW| Atom-composite cross support/maxima   0.000000000000E+00   0.000000000000E+00   0.000000000000E+00   0.000000000000E+00
 SKALA_GPW| Active atom-composite XC energy  -9.5167528248197026E+00
 SKALA_GPW| Active atom-composite electrons   3.2036614417332736E+01
 SKALA_GPW| Active atom-composite density range   1.3467175277163472E-05   4.2690339300111346E-02
 SKALA_GPW| Active atom-composite tau range   6.7771336096092622E-04   3.0867075455074857E-02
 SKALA_GPW| Active atom-composite tau integral   1.2368095796073481E+01
 SKALA_GPW| Active atom-composite max gradient   3.8030767776129064E-02
    18 OT DIIS     0.50E-02  111.4     0.00000498       -31.6035713747 -5.27E-06
 SKALA_GPW| Atom-composite cross support/maxima   0.000000000000E+00   0.000000000000E+00   0.000000000000E+00   0.000000000000E+00
 SKALA_GPW| Active atom-composite XC energy  -9.5183433323417965E+00
 SKALA_GPW| Active atom-composite electrons   3.2036579117053257E+01
 SKALA_GPW| Active atom-composite density range   1.3466173758638189E-05   4.2698298114391478E-02
 SKALA_GPW| Active atom-composite tau range   6.7619492049102517E-04   3.0851811046039433E-02
 SKALA_GPW| Active atom-composite tau integral   1.2374741459343360E+01
 SKALA_GPW| Active atom-composite max gradient   3.8031010708629569E-02
    19 OT DIIS     0.50E-02  116.4     0.00001046       -31.6035730927 -1.72E-06
 SKALA_GPW| Atom-composite cross support/maxima   0.000000000000E+00   0.000000000000E+00   0.000000000000E+00   0.000000000000E+00
 SKALA_GPW| Active atom-composite XC energy  -9.5187025993292771E+00
 SKALA_GPW| Active atom-composite electrons   3.2036569197681715E+01
 SKALA_GPW| Active atom-composite density range   1.3484478156677972E-05   4.2717250161948883E-02
 SKALA_GPW| Active atom-composite tau range   6.7601532455423556E-04   3.0883285425984522E-02
 SKALA_GPW| Active atom-composite tau integral   1.2375055439718357E+01
 SKALA_GPW| Active atom-composite max gradient   3.8050622714343438E-02
    20 OT DIIS     0.50E-02  107.8     0.00000146       -31.6035941395 -2.10E-05
 SKALA_GPW| Atom-composite cross support/maxima   0.000000000000E+00   0.000000000000E+00   0.000000000000E+00   0.000000000000E+00
 SKALA_GPW| Active atom-composite XC energy  -9.5187111327807692E+00
 SKALA_GPW| Active atom-composite electrons   3.2036569259620286E+01
 SKALA_GPW| Active atom-composite density range   1.3480217030103239E-05   4.2718119410863849E-02
 SKALA_GPW| Active atom-composite tau range   6.7600367804385815E-04   3.0885421224904175E-02
 SKALA_GPW| Active atom-composite tau integral   1.2375144094331054E+01
 SKALA_GPW| Active atom-composite max gradient   3.8051666353075705E-02
    21 OT SD       0.50E-02  110.1     0.00000133       -31.6035941945 -5.50E-08
 SKALA_GPW| Atom-composite cross support/maxima   0.000000000000E+00   0.000000000000E+00   0.000000000000E+00   0.000000000000E+00
 SKALA_GPW| Active atom-composite XC energy  -9.5187110866873841E+00
 SKALA_GPW| Active atom-composite electrons   3.2036569258996572E+01
 SKALA_GPW| Active atom-composite density range   1.3480239369426632E-05   4.2718100541589435E-02
 SKALA_GPW| Active atom-composite tau range   6.7600361249713439E-04   3.0885409883770757E-02
 SKALA_GPW| Active atom-composite tau integral   1.2375144146737364E+01
 SKALA_GPW| Active atom-composite max gradient   3.8051655614726725E-02
    22 OT DIIS     0.50E-02  111.4     0.00000133       -31.6035942002 -5.69E-09
 SKALA_GPW| Atom-composite cross support/maxima   0.000000000000E+00   0.000000000000E+00   0.000000000000E+00   0.000000000000E+00
 SKALA_GPW| Active atom-composite XC energy  -9.5187717878035265E+00
 SKALA_GPW| Active atom-composite electrons   3.2036566674455493E+01
 SKALA_GPW| Active atom-composite density range   1.3452613683784858E-05   4.2705971339955767E-02
 SKALA_GPW| Active atom-composite tau range   6.7586437902613641E-04   3.0879643064321415E-02
 SKALA_GPW| Active atom-composite tau integral   1.2375557546744844E+01
 SKALA_GPW| Active atom-composite max gradient   3.8045531508678024E-02
    23 OT DIIS     0.50E-02  104.9     0.00000078       -31.6035955529 -1.35E-06
 SKALA_GPW| Atom-composite cross support/maxima   0.000000000000E+00   0.000000000000E+00   0.000000000000E+00   0.000000000000E+00
 SKALA_GPW| Active atom-composite XC energy  -9.5187748318474803E+00
 SKALA_GPW| Active atom-composite electrons   3.2036566570716474E+01
 SKALA_GPW| Active atom-composite density range   1.3449169634143381E-05   4.2706090150999666E-02
 SKALA_GPW| Active atom-composite tau range   6.7586123965107767E-04   3.0880155496737238E-02
 SKALA_GPW| Active atom-composite tau integral   1.2375560096307707E+01
 SKALA_GPW| Active atom-composite max gradient   3.8045775229098348E-02
    24 OT DIIS     0.50E-02  102.0     0.00000077       -31.6035955559 -2.98E-09
 SKALA_GPW| Atom-composite cross support/maxima   0.000000000000E+00   0.000000000000E+00   0.000000000000E+00   0.000000000000E+00
 SKALA_GPW| Active atom-composite XC energy  -9.5187768335411036E+00
 SKALA_GPW| Active atom-composite electrons   3.2036566496934711E+01
 SKALA_GPW| Active atom-composite density range   1.3444914572600277E-05   4.2706023961194862E-02
 SKALA_GPW| Active atom-composite tau range   6.7585869690998848E-04   3.0880059517406806E-02
 SKALA_GPW| Active atom-composite tau integral   1.2375561490193125E+01
 SKALA_GPW| Active atom-composite max gradient   3.8045737358219478E-02
    25 OT DIIS     0.50E-02  113.7     0.00000076       -31.6035955666 -1.07E-08
 SKALA_GPW| Atom-composite cross support/maxima   0.000000000000E+00   0.000000000000E+00   0.000000000000E+00   0.000000000000E+00
 SKALA_GPW| Active atom-composite XC energy  -9.5187679004065409E+00
 SKALA_GPW| Active atom-composite electrons   3.2036566744916826E+01
 SKALA_GPW| Active atom-composite density range   1.3437794263237707E-05   4.2705918896854315E-02
 SKALA_GPW| Active atom-composite tau range   6.7586549519999689E-04   3.0880024401342770E-02
 SKALA_GPW| Active atom-composite tau integral   1.2375535467605506E+01
 SKALA_GPW| Active atom-composite max gradient   3.8045715201684295E-02
    26 OT DIIS     0.50E-02  103.3     0.00000076       -31.6035955782 -1.16E-08
 SKALA_GPW| Atom-composite cross support/maxima   0.000000000000E+00   0.000000000000E+00   0.000000000000E+00   0.000000000000E+00
 SKALA_GPW| Active atom-composite XC energy  -9.5187292638199672E+00
 SKALA_GPW| Active atom-composite electrons   3.2036567803300777E+01
 SKALA_GPW| Active atom-composite density range   1.3436882795176317E-05   4.2705585396409874E-02
 SKALA_GPW| Active atom-composite tau range   6.7589864614274551E-04   3.0879977228895312E-02
 SKALA_GPW| Active atom-composite tau integral   1.2375430897558934E+01
 SKALA_GPW| Active atom-composite max gradient   3.8045540648681174E-02
    27 OT SD       0.50E-02  103.2     0.00000076       -31.6035955817 -3.44E-09
 SKALA_GPW| Atom-composite cross support/maxima   0.000000000000E+00   0.000000000000E+00   0.000000000000E+00   0.000000000000E+00
 SKALA_GPW| Active atom-composite XC energy  -9.5187292198935918E+00
 SKALA_GPW| Active atom-composite electrons   3.2036567803849110E+01
 SKALA_GPW| Active atom-composite density range   1.3436908719039994E-05   4.2705585803089488E-02
 SKALA_GPW| Active atom-composite tau range   6.7589863963914447E-04   3.0879983880432234E-02
 SKALA_GPW| Active atom-composite tau integral   1.2375430832318335E+01
 SKALA_GPW| Active atom-composite max gradient   3.8045546353848186E-02
    28 OT DIIS     0.50E-02  104.8     0.00000076       -31.6035955837 -2.03E-09
 SKALA_GPW| Atom-composite cross support/maxima   0.000000000000E+00   0.000000000000E+00   0.000000000000E+00   0.000000000000E+00
 SKALA_GPW| Active atom-composite XC energy  -9.5186686244870771E+00
 SKALA_GPW| Active atom-composite electrons   3.2036568190052080E+01
 SKALA_GPW| Active atom-composite density range   1.3472063103428791E-05   4.2702713114847912E-02
 SKALA_GPW| Active atom-composite tau range   6.7586517108138874E-04   3.0890695405523715E-02
 SKALA_GPW| Active atom-composite tau integral   1.2375396473420398E+01
 SKALA_GPW| Active atom-composite max gradient   3.8051896441325311E-02
    29 OT DIIS     0.50E-02  102.4     0.00000110       -31.6035962480 -6.64E-07
 SKALA_GPW| Atom-composite cross support/maxima   0.000000000000E+00   0.000000000000E+00   0.000000000000E+00   0.000000000000E+00
 SKALA_GPW| Active atom-composite XC energy  -9.5186916914098845E+00
 SKALA_GPW| Active atom-composite electrons   3.2036567502739828E+01
 SKALA_GPW| Active atom-composite density range   1.3439390385506678E-05   4.2701986948164024E-02
 SKALA_GPW| Active atom-composite tau range   6.7583809231393992E-04   3.0888243122955423E-02
 SKALA_GPW| Active atom-composite tau integral   1.2375451764981147E+01
 SKALA_GPW| Active atom-composite max gradient   3.8051072019238109E-02
    30 OT SD       0.50E-02  107.3     0.00000037       -31.6035963405 -9.25E-08

  *** SCF run converged in    30 steps ***


  Electronic density on regular grids:        -32.0000000000       -0.0000000000
  Core density on regular grids:               31.9999999999       -0.0000000001
  Total charge density on r-space grids:       -0.0000000001
  Total charge density g-space grids:          -0.0000000001

  Overlap energy of the core charge distribution:               0.00000000001512
  Self energy of the core charge distribution:                -82.06718048728062
  Core Hamiltonian energy:                                     17.09311418703593
  Hartree energy:                                              43.05163374296978
  Exchange-correlation energy:                                  0.00000000000000
  Dispersion energy:                                           -0.16247209187215

  GAPW_XC| Exc from hard and soft atomic rho1:                 -9.51869169140988

  Total energy:                                               -31.60359634054183

  outer SCF iter =    1 RMS gradient =   0.37E-06 energy =        -31.6035963405
  outer SCF loop converged in   1 iterations or   30 steps


 !-----------------------------------------------------------------------------!
                     Mulliken Population Analysis

 #  Atom  Element  Kind  Atomic population                           Net charge
       1     Si       1          3.955021                              0.044979
       2     Si       1          3.993990                              0.006010
       3     Si       1          3.993856                              0.006144
       4     Si       1          3.993977                              0.006023
       5     Si       1          4.012753                             -0.012753
       6     Si       1          4.016785                             -0.016785
       7     Si       1          4.016802                             -0.016802
       8     Si       1          4.016816                             -0.016816
 # Total charge                             32.000000                 -0.000000

 !-----------------------------------------------------------------------------!

 !-----------------------------------------------------------------------------!
                           Hirshfeld Charges

  #Atom  Element  Kind  Ref Charge     Population                    Net charge
      1       Si     1       4.000          3.986                         0.014
      2       Si     1       4.000          4.000                        -0.000
      3       Si     1       4.000          4.000                        -0.000
      4       Si     1       4.000          4.000                        -0.000
      5       Si     1       4.000          4.003                        -0.003
      6       Si     1       4.000          4.003                        -0.003
      7       Si     1       4.000          4.003                        -0.003
      8       Si     1       4.000          4.003                        -0.003

  Total Charge                                                           -0.000
 !-----------------------------------------------------------------------------!

 ENERGY| Total FORCE_EVAL ( QS ) energy [hartree]            -31.603596340541831

 -------------------------------------------------------------------------------
 -                                                                             -
 -                                DBCSR STATISTICS                             -
 -                                                                             -
 -------------------------------------------------------------------------------
 COUNTER                                    TOTAL       BLAS       SMM       ACC
 flops    16 x    16 x    16             73138176     100.0%      0.0%      0.0%     
 flops    40 x    16 x    16            268369920     100.0%      0.0%      0.0%     
 flops    64 x    16 x    16           1288175616     100.0%      0.0%      0.0%     
 flops    16 x    16 x   232           2069692416     100.0%      0.0%      0.0%     
 flops    40 x    16 x   232           8039301120     100.0%      0.0%      0.0%     
 flops    64 x    16 x   232          38588645376     100.0%      0.0%      0.0%     
 flops inhomo. stacks                           0       0.0%      0.0%      0.0%
 flops total                        50.327323E+09     100.0%      0.0%      0.0%
 flops max/rank                     50.327323E+09     100.0%      0.0%      0.0%
 matmuls inhomo. stacks                         0       0.0%      0.0%      0.0%
 matmuls total                             187056     100.0%      0.0%      0.0%
 number of processed stacks                187056     100.0%      0.0%      0.0%
 average stack size                                     1.0       0.0       0.0
 marketing flops                    50.309784E+09
 -------------------------------------------------------------------------------
 # multiplications                          66528
 max memory usage/rank              29.528691E+09
 # max total images/rank                        1
 # max 3D layers                                1
 # MPI messages exchanged                       0
 -------------------------------------------------------------------------------
 -                                                                             -
 -                      DBCSR MESSAGE PASSING PERFORMANCE                      -
 -                                                                             -
 -------------------------------------------------------------------------------
 ROUTINE             CALLS      AVE VOLUME [Bytes]
 MP_Bcast                7                     12.
 MP_Allreduce       332671                      8.
 MP_Alltoall        592393                  55232.
 MP_ISend           266112                    115.
 MP_IRecv           266112                    115.
 -------------------------------------------------------------------------------

 -------------------------------------------------------------------------------
 -                                                                             -
 -                                GRID STATISTICS                              -
 -                                                                             -
 -------------------------------------------------------------------------------
 LP    KERNEL             BACKEND                              COUNT     PERCENT
 6     collocate ortho    CPU                                1278688      33.88%
 6     integrate ortho    CPU                                1237440      32.79%
 8     collocate ortho    CPU                                 639344      16.94%
 8     integrate ortho    CPU                                 618720      16.39%
 0     collocate general  CPU                                     24       0.00%
 0     integrate general  CPU                                      8       0.00%
 -------------------------------------------------------------------------------

 -------------------------------------------------------------------------------
 -                                                                             -
 -                          OFFLOAD MEMPOOL STATISTICS                         -
 -                                                                             -
 -------------------------------------------------------------------------------
 Memory consumption                Number of allocations  Used [MiB]  Size [MiB]
 Host                                                  9         137    90217504
 -------------------------------------------------------------------------------

 MEMORY| Estimated peak process memory [MiB]                                2522

 -------------------------------------------------------------------------------
 ----                             MULTIGRID INFO                            ----
 -------------------------------------------------------------------------------
 count for grid        1:              0          cutoff [a.u.]          400.00
 count for grid        2:           2031          cutoff [a.u.]          133.33
 count for grid        3:          12496          cutoff [a.u.]           44.44
 count for grid        4:          22963          cutoff [a.u.]           14.81
 count for grid        5:          10418          cutoff [a.u.]            4.94
 total gridlevel count  :          47908

 -------------------------------------------------------------------------------
 -                                                                             -
 -                         MESSAGE PASSING PERFORMANCE                         -
 -                                                                             -
 -------------------------------------------------------------------------------

 ROUTINE             CALLS      AVE VOLUME [Bytes]
 MP_Group               35
 MP_Bcast            40641                   4631.
 MP_Allreduce        76539                  61211.
 MP_Sync                 5
 MP_Wait             24120
 MP_ISend            33768                  61519.
 MP_IRecv            33768                  61519.
 -------------------------------------------------------------------------------


 -------------------------------------------------------------------------------
 -                                                                             -
 -                           R E F E R E N C E S                               -
 -                                                                             -
 -------------------------------------------------------------------------------
 
 CP2K version 2026.2 (Development Version), the CP2K developers group (2026).
 CP2K is freely available from https://www.cp2k.org/ .
 
 M. Iannuzzi, J. Wilhelm, F. Stein, A. Bussy, H. Elgabarty, D. Golze, A. Hehn, 
 M. Graml, S. Marek, B. Sertcan Gökmen, C. Schran, H. Forbert, R. Z. 
 Khaliullin, A. Kozhevnikov, M. Taillefumier, R. Meli, V. V. Rybkin, M. Brehm, 
 R. Schade, O. Schütt, J. V. Pototschnig, H. Mirhosseini, A. Knüpfer, D. Marx, 
 M. Krack, J. Hutter, T. D. Kühne.
 J. Phys. Chem. B 130, 1237-1310 (2026).
 The CP2K Program Package Made Simple.
 https://doi.org/10.1021/acs.jpcb.5c05851

 L. Wittmann, I. Gordiy, M. Friede, B. Helmich-Paris, S. Grimme, A. Hansen, M. 
 Bursch.
 Phys. Chem. Chem. Phys. 26, 21379-21394 (2024).
 Extension of the D3 and D4 London dispersion corrections to the full actinides 
 series.
 https://doi.org/10.1039/d4cp01514b

 T. D. Kühne, M. Iannuzzi, M. Del Ben, V. V. Rybkin, P. Seewald, F. Stein, T. 
 Laino, R. Z. Khaliullin, O. Schütt, F. Schiffmann, D. Golze, J. Wilhelm, S. 
 Chulkov, M. H. Bani-Hashemian, V. Weber, U. Borstnik, M. Taillefumier, A. S. 
 Jakobovits, A. Lazzaro, H. Pabst, T. Müller, R. Schade, M. Guidon, S. 
 Andermatt, N. Holmberg, G. K. Schenter, A. Hehn, A. Bussy, F. Belleflamme, G. 
 Tabacchi, A. Glöß, M. Lass, I. Bethune, C. J. Mundy, C. Plessl, M. Watkins, 
 J. VandeVondele, M. Krack, J. Hutter.
 J. Chem. Phys. 152, 194103 (2020).
 CP2K: An electronic structure and molecular dynamics software package - 
 Quickstep: Efficient and accurate electronic structure calculations.
 https://doi.org/10.1063/5.0007045

 L. Goerigk, A. Hansen, C. Bauer, S. Ehrlich, A. Najibi, S. Grimme.
 Phys. Chem. Chem. Phys. 19, 32184-32215 (2017).
 A look at the density functional theory zoo with the advanced GMTKN55 database 
 for general main group thermochemistry, kinetics and noncovalent interactions.
 https://doi.org/10.1039/C7CP04913G

 O. Schuett, P. Messmer, J. Hutter, J. VandeVondele.
 Electronic Structure Calculations on Graphics Processing Units, 173-190 (2016).
 GPU-Accelerated Sparse Matrix-Matrix Multiplication for Linear Scaling Density 
 Functional Theory.
 https://doi.org/10.1002/9781118670712.ch8

 U. Borstnik, J. VandeVondele, V. Weber, J. Hutter.
 Parallel Comput. 40, 47-58 (2014).
 Sparse matrix multiplication: The distributed block-compressed sparse row 
 library.
 https://doi.org/10.1016/j.parco.2014.03.012

 S. Grimme, S. Ehrlich, L. Goerigk.
 J. Comput. Chem. 32, 1456 (2011).
 Effect of the damping function in dispersion corrected density functional 
 theory.
 https://doi.org/10.1002/jcc.21759

 S. Grimme, J. Antony, S. Ehrlich, H. Krieg.
 J. Chem. Phys. 132, 154104 (2010).
 A consistent and accurate ab initio parametrization of density functional 
 dispersion correction (DFT-D) for the 94 elements H-Pu.
 https://doi.org/10.1063/1.3382344

 V. Weber, J. VandeVondele, J. Hutter, A. M. N. Niklasson.
 J. Chem. Phys. 128, 084113 (2008).
 Direct energy functional minimization under orthogonality constraints.
 https://doi.org/10.1063/1.2841077

 J. VandeVondele, J. Hutter.
 J. Chem. Phys. 127, 114105 (2007).
 Gaussian basis sets for accurate calculations on molecular systems in gas and 
 condensed phases.
 https://doi.org/10.1063/1.2770708

 M. Krack.
 Theor. Chem. Acc. 114, 145-152 (2005).
 Pseudopotentials for H to Kr optimized for gradient-corrected 
 exchange-correlation functionals.
 https://doi.org/10.1007/s00214-005-0655-y

 M. Frigo, S. G. Johnson.
 Proc. IEEE 93, 216-231 (2005).
 The design and implementation of FFTW3.
 https://doi.org/10.1109/JPROC.2004.840301

 J. VandeVondele, J. Hutter.
 J. Chem. Phys. 118, 4365-4369 (2003).
 An efficient orbital transformation method for electronic structure 
 calculations.
 https://doi.org/10.1063/1.1543154

 C. Hartwigsen, S. Goedecker, J. Hutter.
 Phys. Rev. B 58, 3641-3662 (1998).
 Relativistic separable dual-space Gaussian pseudopotentials from H to Rn.
 https://doi.org/10.1103/PhysRevB.58.3641

 S. Goedecker, M. Teter, J. Hutter.
 Phys. Rev. B 54, 1703-1710 (1996).
 Separable dual-space Gaussian pseudopotentials.
 https://doi.org/10.1103/PhysRevB.54.1703

 C.-L. Fu, K.-M. Ho.
 Phys. Rev. B 28, 5480-5486 (1983).
 First-principles calculation of the equilibrium ground-state properties of 
 transition metals: Applications to Nb and Mo.
 https://doi.org/10.1103/PhysRevB.28.5480


 -------------------------------------------------------------------------------
 -                                                                             -
 -                                T I M I N G                                  -
 -                                                                             -
 -------------------------------------------------------------------------------
 SUBROUTINE                       CALLS  ASD         SELF TIME        TOTAL TIME
                                MAXIMUM       AVERAGE  MAXIMUM  AVERAGE  MAXIMUM
 CP2K                                 1  1.0    0.011    0.011 3351.877 3351.877
 qs_energies                          1  2.0    0.001    0.001 3351.460 3351.460
 scf_env_do_scf                       1  3.0    0.000    0.000 3326.124 3326.124
 scf_env_do_scf_inner_loop           31  4.0    0.017    0.017 3303.562 3303.562
 qs_ks_update_qs_env                 31  5.0    0.001    0.001 3016.718 3016.718
 rebuild_ks_matrix                   30  6.0    0.000    0.000 3015.894 3015.894
 qs_ks_build_kohn_sham_matrix        30  7.0    0.020    0.020 3015.894 3015.894
 calculate_vxc_atom                  30  8.0  509.787  509.787 2917.028 2917.028
 skala_atom_torch_backward           90  9.0  645.117  645.117  645.117  645.117
 calc_tau_atom                      720  9.0  556.582  556.582  556.582  556.582
 skala_atom_torch_forward            90  9.0    0.456    0.456  451.111  451.111
 torch_model_forward_mol_tensor      90 10.0  450.656  450.656  450.656  450.656
 gaVxcgb_GC                         480  9.0  385.977  385.977  385.977  385.977
 dgaVtaudgb                         480  9.0  324.875  324.875  324.875  324.875
 qs_scf_new_mos_kp                   31  5.0    0.001    0.001  198.533  198.533
 qs_scf_loop_do_ot_kp                31  6.0    0.080    0.080  198.533  198.533
 dbcsr_multiply_generic           66528  8.0    2.701    2.701   94.462   94.462
 qs_rho_update_rho_low               31  5.0    0.005    0.005   88.852   88.852
 do_general_diag_kp                  33  6.9    0.062    0.062   81.134   81.134
 qs_ot_get_orbitals_ref_complex    2232  7.0    0.132    0.132   69.828   69.828
 calculate_rho_atom_coeff            31  6.0   68.041   68.041   68.042   68.042
 -------------------------------------------------------------------------------

 The number of warnings for this run is : 2
 
 -------------------------------------------------------------------------------
  **** **** ******  **  PROGRAM ENDED AT                 2026-09-03 11:53:56.755
 ***** ** ***  *** **   PROGRAM RAN ON                                     terok
 **    ****   ******    PROGRAM RAN BY                                  kuehne88
 ***** **    ** ** **   PROGRAM PROCESS ID                               1791941
  **** **  *******  **  PROGRAM STOPPED IN /home/kuehne88/work/native-skala-tero
                                           k/goldzak12/runs/recovery-bulk-ot-ful
                                           l-all-step0005-outer4-wave63-20260903
                                           -terok/production/gapwxc-gth/Si/v09
