 DBCSR| CPU Multiplication driver                                           BLAS (U)
 DBCSR| Multrec recursion limit                                              512 (U)
 DBCSR| Multiplication stack size                                           1000 (D)
 DBCSR| Maximum elements for images                                    UNLIMITED (U)
 DBCSR| Multiplicative factor virtual images                                   1 (U)
 DBCSR| Use multiplication densification                                       T (D)
 DBCSR| Multiplication size stacks                                             3 (U)
 DBCSR| Use memory pool for CPU allocation                                     F (U)
 DBCSR| OMP: Current number of threads                                        32
 DBCSR| OMP: Max number of threads                                            32
 DBCSR| Split modifier for TAS multiplication algorithm                  1.0E+00 (U)


  **** **** ******  **  PROGRAM STARTED AT               2026-09-15 13:01:15.576
 ***** ** ***  *** **   PROGRAM STARTED ON                                cge015
 **    ****   ******    PROGRAM STARTED BY                              kuehne88
 ***** **    ** ** **   PROGRAM PROCESS ID                                506677
  **** **  *******  **  PROGRAM STARTED IN /bigdata/casus/fwuk/shared/kuehne88-n
                                           ative-skala/diet-ae-basis-controls-20
                                           260915/runs/ADIM6-2/AD3/qzvpp

 CP2K| version string:                 CP2K version 2026.2 (Development Version)
 CP2K| source code revision number:                                   37aedacbb3
 CP2K| cp2kflags: omp fftw3 spglib openblas libtorch libtorch_cuda              
 CP2K| is freely available from                            https://www.cp2k.org/
 CP2K| Program compiled at                                   2026-09-08 17:20:25
 CP2K| Program compiled on                                                ctu003
 CP2K| Program compiled for                                               x86_64
 CP2K| Data directory path            /home/kuehne88/cp2k-native-skala/cp2k/data
 CP2K| Input file name                                          actual-input.inp

 GLOBAL| Force Environment number                                              1
 GLOBAL| Basis set file name                             BASIS_MOLOPT_UZH_2026.2
 GLOBAL| Potential file name                                POTENTIAL_UZH_2026.2
 GLOBAL| MM Potential file name                                     MM_POTENTIAL
 GLOBAL| Coordinate file name                                      __STD_INPUT__
 GLOBAL| Method name                                                        CP2K
 GLOBAL| Project name                                      diet_2d569978ed_qzvpp
 GLOBAL| Run type                                                         ENERGY
 GLOBAL| FFT library                                                       FFTW3
 GLOBAL| Diagonalization library                                       ScaLAPACK
 GLOBAL| Cholesky decomposition library                                ScaLAPACK
 GLOBAL| DGEMM library                                                      BLAS
 GLOBAL| Direct generalized diagonalization requested                          F
 GLOBAL| Orthonormality check for eigenvectors                          DISABLED
 GLOBAL| Matrix multiplication library                                 ScaLAPACK
 GLOBAL| All-to-all communication in single precision                          F
 GLOBAL| Grid backend                                                       AUTO
 GLOBAL| Global print level                                               MEDIUM
 GLOBAL| MPI I/O enabled                                                       T
 GLOBAL| Total number of message passing processes                             1
 GLOBAL| Number of distributed systems (nodes)                                 1
 GLOBAL| Number of threads for this process                                   32
 GLOBAL| This output is from process                                           0
 GLOBAL| OpenMP stack size per thread (OMP_STACKSIZE)                       256M
 GLOBAL| CPU model name                          AMD EPYC 9654 96-Core Processor

 MEMORY| system memory details [Kb]
 MEMORY|                        rank 0           min           max       average
 MEMORY| MemTotal           1584927792    1584927792    1584927792    1584927792
 MEMORY| MemFree            1539395080    1539395080    1539395080    1539395080
 MEMORY| Buffers                     0             0             0             0
 MEMORY| Cached                8085592       8085592       8085592       8085592
 MEMORY| Slab                  2568804       2568804       2568804       2568804
 MEMORY| SReclaimable           468680        468680        468680        468680
 MEMORY| MemLikelyFree      1547949352    1547949352    1547949352    1547949352


 *** Fundamental physical constants (SI units) ***

 *** Literature: B. J. Mohr and B. N. Taylor,
 ***             CODATA recommended values of the fundamental physical
 ***             constants: 2006, Web Version 5.1
 ***             http://physics.nist.gov/constants

 Speed of light in vacuum [m/s]                             2.99792458000000E+08
 Magnetic constant or permeability of vacuum [N/A**2]       1.25663706143592E-06
 Electric constant or permittivity of vacuum [F/m]          8.85418781762039E-12
 Planck constant (h) [J*s]                                  6.62606896000000E-34
 Planck constant (h-bar) [J*s]                              1.05457162825177E-34
 Elementary charge [C]                                      1.60217648700000E-19
 Electron mass [kg]                                         9.10938215000000E-31
 Electron g factor [ ]                                     -2.00231930436220E+00
 Proton mass [kg]                                           1.67262163700000E-27
 Fine-structure constant                                    7.29735253760000E-03
 Rydberg constant [1/m]                                     1.09737315685270E+07
 Avogadro constant [1/mol]                                  6.02214179000000E+23
 Boltzmann constant [J/K]                                   1.38065040000000E-23
 Atomic mass unit [kg]                                      1.66053878200000E-27
 Bohr radius [m]                                            5.29177208590000E-11

 *** Conversion factors ***

 [u] -> [a.u.]                                              1.82288848426455E+03
 [Angstrom] -> [Bohr] = [a.u.]                              1.88972613288564E+00
 [a.u.] = [Bohr] -> [Angstrom]                              5.29177208590000E-01
 [a.u.] -> [s]                                              2.41888432650478E-17
 [a.u.] -> [fs]                                             2.41888432650478E-02
 [a.u.] -> [J]                                              4.35974393937059E-18
 [a.u.] -> [N]                                              8.23872205491840E-08
 [a.u.] -> [K]                                              3.15774647902944E+05
 [a.u.] -> [kJ/mol]                                         2.62549961709828E+03
 [a.u.] -> [kcal/mol]                                       6.27509468713739E+02
 [a.u.] -> [Pa]                                             2.94210107994716E+13
 [a.u.] -> [bar]                                            2.94210107994716E+08
 [a.u.] -> [atm]                                            2.90362800883016E+08
 [a.u.] -> [eV]                                             2.72113838565563E+01
 [a.u.] -> [Hz]                                             6.57968392072181E+15
 [a.u.] -> [1/cm] (wave numbers)                            2.19474631370540E+05
 [a.u./Bohr**2] -> [1/cm]                                   5.14048714338585E+03
 

 CELL| Volume [angstrom^3]:                                         26040.000000
 CELL| Vector a [angstrom]:      28.000     0.000     0.000   |a| =    28.000000
 CELL| Vector b [angstrom]:       0.000    31.000     0.000   |b| =    31.000000
 CELL| Vector c [angstrom]:       0.000     0.000    30.000   |c| =    30.000000
 CELL| Angle (b,c), alpha [degree]:                                    90.000000
 CELL| Angle (a,c), beta  [degree]:                                    90.000000
 CELL| Angle (a,b), gamma [degree]:                                    90.000000
 CELL| Numerically orthorhombic:                                             YES
 CELL| Periodicity                                                          NONE

 CELL_REF| Volume [angstrom^3]:                                     26040.000000
 CELL_REF| Vector a [angstrom    28.000     0.000     0.000   |a| =    28.000000
 CELL_REF| Vector b [angstrom     0.000    31.000     0.000   |b| =    31.000000
 CELL_REF| Vector c [angstrom     0.000     0.000    30.000   |c| =    30.000000
 CELL_REF| Angle (b,c), alpha [degree]:                                90.000000
 CELL_REF| Angle (a,c), beta  [degree]:                                90.000000
 CELL_REF| Angle (a,b), gamma [degree]:                                90.000000
 CELL_REF| Numerically orthorhombic:                                         YES
 CELL_REF| Periodicity                                                      NONE

 GENERATE|  Preliminary Number of Bonds generated:                             0
 GENERATE|  Achieved consistency in connectivity generation.

 *******************************************************************************
 *******************************************************************************
 **                                                                           **
 **     #####                         ##              ##                      **
 **    ##   ##            ##          ##              ##                      **
 **   ##     ##                       ##            ######                    **
 **   ##     ##  ##   ##  ##   #####  ##  ##   ####   ##    #####    #####    **
 **   ##     ##  ##   ##  ##  ##      ## ##   ##      ##   ##   ##  ##   ##   **
 **   ##  ## ##  ##   ##  ##  ##      ####     ###    ##   ######   ######    **
 **    ##  ###   ##   ##  ##  ##      ## ##      ##   ##   ##       ##        **
 **     #######   #####   ##   #####  ##  ##  ####    ##    #####   ##        **
 **           ##                                                    ##        **
 **                                                                           **
 **                                                ... make the atoms dance   **
 **                                                                           **
 **            Copyright (C) by CP2K developers group (2000-2026)             **
 **                      J. Chem. Phys. 152, 194103 (2020)                    **
 **                                                                           **
 *******************************************************************************

 DFT| Spin restricted Kohn-Sham (RKS) calculation                            RKS
 DFT| Multiplicity                                                             1
 DFT| Number of spin states                                                    1
 DFT| Charge                                                                   0
 DFT| Self-interaction correction (SIC)                                       NO
 DFT| Cutoffs: density                                              1.000000E-10
 DFT|          gradient                                             1.000000E-10
 DFT|          tau                                                  1.000000E-10
 DFT|          cutoff_smoothing_range                               0.000000E+00
 DFT| XC density smoothing                                                  NONE
 DFT| XC derivatives                                                          PW

 FUNCTIONAL| GAUXC:
 FUNCTIONAL| Functional computed by GauXC Skala model SKALA                     

 vdW POTENTIAL|                                                   Pair Potential
 vdW POTENTIAL|          DFT-D3 (Version 3.1)
 vdW POTENTIAL|          Potential Form: S. Grimme et al, JCP 132: 154104 (2010)
 vdW POTENTIAL|          BJ Damping: S. Grimme et al, JCC 32: 1456 (2011)
 vdW POTENTIAL|          Cutoff Radius [Bohr]:                             37.79
 vdW POTENTIAL|          s6 Scaling Factor:                               1.0000
 vdW POTENTIAL|          a1 Damping Factor:                               0.3981
 vdW POTENTIAL|          s8 Scaling Factor:                               1.9889
 vdW POTENTIAL|          a2 Damping Factor:                               4.4211
 vdW POTENTIAL|          Cutoff for CN calculation:                   0.1000E-05

 QS| Method:                                                                GAPW
 QS| Density plane wave grid type                        NON-SPHERICAL FULLSPACE
 QS| Number of grid levels:                                                    5
 QS| Density cutoff [a.u.]:                                                320.0
 QS| Multi grid cutoff [a.u.]: 1) grid level                               320.0
 QS|                           2) grid level                               106.7
 QS|                           3) grid level                                35.6
 QS|                           4) grid level                                11.9
 QS|                           5) grid level                                 4.0
 QS| Grid level progression factor:                                          3.0
 QS| Relative density cutoff [a.u.]:                                        30.0
 QS| Interaction thresholds: eps_pgf_orb:                                1.0E-07
 QS|                         eps_filter_matrix:                          0.0E+00
 QS|                         eps_core_charge:                            1.0E-16
 QS|                         eps_rho_gspace:                             1.0E-14
 QS|                         eps_rho_rspace:                             1.0E-14
 QS|                         eps_gvg_rspace:                             1.0E-07
 QS|                         eps_ppl:                                    1.0E-02
 QS|                         eps_ppnl:                                   1.0E-09
 QS| GAPW|      XC integration using accurate scheme: Ref. exponent     6.000000
 QS| GAPW|      One center basis extended with primitives (small:s)
 QS| GAPW|                   eps_fit:                                    1.0E-04
 QS| GAPW|                   eps_iso:                                    1.0E-12
 QS| GAPW|                   eps_svd:                                    1.0E-08
 QS| GAPW|                   eps_cpc:                                    1.0E-14
 QS| GAPW|   atom-r-grid: quadrature:                                     GC_LOG
 QS| GAPW|      atom-s-grid:  max l :                                          8
 QS| GAPW|      max_l_rho0 :                                                   4


 ATOMIC KIND INFORMATION

  1. Atomic kind: C                                     Number of atoms:       6

     Orbital Basis Set                                       QZVPP-MOLOPT-PBE-ae

       Number of orbital shell sets:                                           3
       Number of orbital shells:                                              17
       Number of primitive Cartesian functions:                               17
       Number of Cartesian basis functions:                                   72
       Number of spherical basis functions:                                   57
       Norm type:                                                              2

       Normalised Cartesian orbitals:

                        Set   Shell   Orbital            Exponent    Coefficient

                          1       1    1s            67025.107019       0.301273
                                                     10039.963354       0.840959
                                                      2284.844403       1.414087
                                                       647.155825       1.978250
                                                       211.194000       3.614759
                                                        76.386303       5.885133
                                                        29.429391       1.640818
                                                        12.033162       2.449859

                          2       1    1s              105.226643       2.019983
                                                        24.915833       4.884210
                                                         7.802292       0.922134
                                                         3.210992       0.077285
                                                         1.569670       0.127026

                          2       2    2s              105.226643      -2.503665
                                                        24.915833      -1.789628
                                                         7.802292       1.285480
                                                         3.210992       1.243151
                                                         1.569670       0.060045

                          2       3    2px             105.226643       2.754378
                                                        24.915833       3.821590
                                                         7.802292       3.687249
                                                         3.210992       1.952607
                                                         1.569670       1.401337
                          2       3    2py             105.226643       2.754378
                                                        24.915833       3.821590
                                                         7.802292       3.687249
                                                         3.210992       1.952607
                                                         1.569670       1.401337
                          2       3    2pz             105.226643       2.754378
                                                        24.915833       3.821590
                                                         7.802292       3.687249
                                                         3.210992       1.952607
                                                         1.569670       1.401337

                          3       1    1s                2.478506       1.727996
                                                         0.780870      -0.199624
                                                         0.292233      -0.067737
                                                         0.098416      -0.035850

                          3       2    2s                2.478506       0.315394
                                                         0.780870       0.280386
                                                         0.292233       0.076689
                                                         0.098416       0.022112

                          3       3    3s                2.478506      -0.182490
                                                         0.780870      -0.398499
                                                         0.292233       0.703297
                                                         0.098416      -0.230017

                          3       4    4s                2.478506       0.165589
                                                         0.780870      -0.388414
                                                         0.292233       0.135344
                                                         0.098416       0.109946

                          3       5    2px               2.478506       0.260970
                                                         0.780870       0.517259
                                                         0.292233       0.107296
                                                         0.098416       0.022701
                          3       5    2py               2.478506       0.260970
                                                         0.780870       0.517259
                                                         0.292233       0.107296
                                                         0.098416       0.022701
                          3       5    2pz               2.478506       0.260970
                                                         0.780870       0.517259
                                                         0.292233       0.107296
                                                         0.098416       0.022701

                          3       6    3px               2.478506       2.223364
                                                         0.780870      -0.845189
                                                         0.292233       0.096053
                                                         0.098416       0.070691
                          3       6    3py               2.478506       2.223364
                                                         0.780870      -0.845189
                                                         0.292233       0.096053
                                                         0.098416       0.070691
                          3       6    3pz               2.478506       2.223364
                                                         0.780870      -0.845189
                                                         0.292233       0.096053
                                                         0.098416       0.070691

                          3       7    4px               2.478506      -1.017055
                                                         0.780870       0.605594
                                                         0.292233      -0.564035
                                                         0.098416       0.101323
                          3       7    4py               2.478506      -1.017055
                                                         0.780870       0.605594
                                                         0.292233      -0.564035
                                                         0.098416       0.101323
                          3       7    4pz               2.478506      -1.017055
                                                         0.780870       0.605594
                                                         0.292233      -0.564035
                                                         0.098416       0.101323

                          3       8    3dx2              2.478506       2.448343
                                                         0.780870       0.653790
                                                         0.292233       0.040892
                                                         0.098416       0.003322
                          3       8    3dxy              2.478506       4.240655
                                                         0.780870       1.132397
                                                         0.292233       0.070827
                                                         0.098416       0.005754
                          3       8    3dxz              2.478506       4.240655
                                                         0.780870       1.132397
                                                         0.292233       0.070827
                                                         0.098416       0.005754
                          3       8    3dy2              2.478506       2.448343
                                                         0.780870       0.653790
                                                         0.292233       0.040892
                                                         0.098416       0.003322
                          3       8    3dyz              2.478506       4.240655
                                                         0.780870       1.132397
                                                         0.292233       0.070827
                                                         0.098416       0.005754
                          3       8    3dz2              2.478506       2.448343
                                                         0.780870       0.653790
                                                         0.292233       0.040892
                                                         0.098416       0.003322

                          3       9    4dx2              2.478506      -9.773314
                                                         0.780870       0.819539
                                                         0.292233      -0.068950
                                                         0.098416      -0.005958
                          3       9    4dxy              2.478506     -16.927876
                                                         0.780870       1.419484
                                                         0.292233      -0.119425
                                                         0.098416      -0.010320
                          3       9    4dxz              2.478506     -16.927876
                                                         0.780870       1.419484
                                                         0.292233      -0.119425
                                                         0.098416      -0.010320
                          3       9    4dy2              2.478506      -9.773314
                                                         0.780870       0.819539
                                                         0.292233      -0.068950
                                                         0.098416      -0.005958
                          3       9    4dyz              2.478506     -16.927876
                                                         0.780870       1.419484
                                                         0.292233      -0.119425
                                                         0.098416      -0.010320
                          3       9    4dz2              2.478506      -9.773314
                                                         0.780870       0.819539
                                                         0.292233      -0.068950
                                                         0.098416      -0.005958

                          3      10    5dx2              2.478506      -3.338505
                                                         0.780870      -0.174830
                                                         0.292233       0.240128
                                                         0.098416      -0.010366
                          3      10    5dxy              2.478506      -5.782460
                                                         0.780870      -0.302815
                                                         0.292233       0.415913
                                                         0.098416      -0.017954
                          3      10    5dxz              2.478506      -5.782460
                                                         0.780870      -0.302815
                                                         0.292233       0.415913
                                                         0.098416      -0.017954
                          3      10    5dy2              2.478506      -3.338505
                                                         0.780870      -0.174830
                                                         0.292233       0.240128
                                                         0.098416      -0.010366
                          3      10    5dyz              2.478506      -5.782460
                                                         0.780870      -0.302815
                                                         0.292233       0.415913
                                                         0.098416      -0.017954
                          3      10    5dz2              2.478506      -3.338505
                                                         0.780870      -0.174830
                                                         0.292233       0.240128
                                                         0.098416      -0.010366

                          3      11    4fx3              2.478506       8.481948
                                                         0.780870       0.343839
                                                         0.292233      -0.006792
                                                         0.098416       0.000929
                          3      11    4fx2y             2.478506      18.966213
                                                         0.780870       0.768847
                                                         0.292233      -0.015188
                                                         0.098416       0.002076
                          3      11    4fx2z             2.478506      18.966213
                                                         0.780870       0.768847
                                                         0.292233      -0.015188
                                                         0.098416       0.002076
                          3      11    4fxy2             2.478506      18.966213
                                                         0.780870       0.768847
                                                         0.292233      -0.015188
                                                         0.098416       0.002076
                          3      11    4fxyz             2.478506      32.850445
                                                         0.780870       1.331683
                                                         0.292233      -0.026307
                                                         0.098416       0.003596
                          3      11    4fxz2             2.478506      18.966213
                                                         0.780870       0.768847
                                                         0.292233      -0.015188
                                                         0.098416       0.002076
                          3      11    4fy3              2.478506       8.481948
                                                         0.780870       0.343839
                                                         0.292233      -0.006792
                                                         0.098416       0.000929
                          3      11    4fy2z             2.478506      18.966213
                                                         0.780870       0.768847
                                                         0.292233      -0.015188
                                                         0.098416       0.002076
                          3      11    4fyz2             2.478506      18.966213
                                                         0.780870       0.768847
                                                         0.292233      -0.015188
                                                         0.098416       0.002076
                          3      11    4fz3              2.478506       8.481948
                                                         0.780870       0.343839
                                                         0.292233      -0.006792
                                                         0.098416       0.000929

                          3      12    5fx3              2.478506      -4.423110
                                                         0.780870       0.717072
                                                         0.292233       0.037661
                                                         0.098416      -0.001713
                          3      12    5fx2y             2.478506      -9.890376
                                                         0.780870       1.603421
                                                         0.292233       0.084213
                                                         0.098416      -0.003831
                          3      12    5fx2z             2.478506      -9.890376
                                                         0.780870       1.603421
                                                         0.292233       0.084213
                                                         0.098416      -0.003831
                          3      12    5fxy2             2.478506      -9.890376
                                                         0.780870       1.603421
                                                         0.292233       0.084213
                                                         0.098416      -0.003831
                          3      12    5fxyz             2.478506     -17.130633
                                                         0.780870       2.777207
                                                         0.292233       0.145862
                                                         0.098416      -0.006636
                          3      12    5fxz2             2.478506      -9.890376
                                                         0.780870       1.603421
                                                         0.292233       0.084213
                                                         0.098416      -0.003831
                          3      12    5fy3              2.478506      -4.423110
                                                         0.780870       0.717072
                                                         0.292233       0.037661
                                                         0.098416      -0.001713
                          3      12    5fy2z             2.478506      -9.890376
                                                         0.780870       1.603421
                                                         0.292233       0.084213
                                                         0.098416      -0.003831
                          3      12    5fyz2             2.478506      -9.890376
                                                         0.780870       1.603421
                                                         0.292233       0.084213
                                                         0.098416      -0.003831
                          3      12    5fz3              2.478506      -4.423110
                                                         0.780870       0.717072
                                                         0.292233       0.037661
                                                         0.098416      -0.001713

                          3      13    5gx4              2.478506       5.558350
                                                         0.780870       0.445812
                                                         0.292233      -0.003241
                                                         0.098416      -0.000135
                          3      13    5gx3y             2.478506      14.706012
                                                         0.780870       1.179508
                                                         0.292233      -0.008575
                                                         0.098416      -0.000357
                          3      13    5gx3z             2.478506      14.706012
                                                         0.780870       1.179508
                                                         0.292233      -0.008575
                                                         0.098416      -0.000357
                          3      13    5gx2y2            2.478506      18.985380
                                                         0.780870       1.522738
                                                         0.292233      -0.011071
                                                         0.098416      -0.000460
                          3      13    5gx2yz            2.478506      32.883644
                                                         0.780870       2.637460
                                                         0.292233      -0.019175
                                                         0.098416      -0.000797
                          3      13    5gx2z2            2.478506      18.985380
                                                         0.780870       1.522738
                                                         0.292233      -0.011071
                                                         0.098416      -0.000460
                          3      13    5gxy3             2.478506      14.706012
                                                         0.780870       1.179508
                                                         0.292233      -0.008575
                                                         0.098416      -0.000357
                          3      13    5gxy2z            2.478506      32.883644
                                                         0.780870       2.637460
                                                         0.292233      -0.019175
                                                         0.098416      -0.000797
                          3      13    5gxyz2            2.478506      32.883644
                                                         0.780870       2.637460
                                                         0.292233      -0.019175
                                                         0.098416      -0.000797
                          3      13    5gxz3             2.478506      14.706012
                                                         0.780870       1.179508
                                                         0.292233      -0.008575
                                                         0.098416      -0.000357
                          3      13    5gy4              2.478506       5.558350
                                                         0.780870       0.445812
                                                         0.292233      -0.003241
                                                         0.098416      -0.000135
                          3      13    5gy3z             2.478506      14.706012
                                                         0.780870       1.179508
                                                         0.292233      -0.008575
                                                         0.098416      -0.000357
                          3      13    5gy2z2            2.478506      18.985380
                                                         0.780870       1.522738
                                                         0.292233      -0.011071
                                                         0.098416      -0.000460
                          3      13    5gyz3             2.478506      14.706012
                                                         0.780870       1.179508
                                                         0.292233      -0.008575
                                                         0.098416      -0.000357
                          3      13    5gz4              2.478506       5.558350
                                                         0.780870       0.445812
                                                         0.292233      -0.003241
                                                         0.098416      -0.000135

       Atomic covalent radius [Angstrom]:                                  0.770

       Atomic van der Waals radius [Angstrom]:                             1.700

     The atoms of this atomic kind are PAW atoms (GAPW):
       Hard Gaussian function radius:                                      1.520
       Rho0 radius:                                                        1.520
       Maximum GTO radius used for PAW projector construction:            24.566

     GAPW Soft Basis Set                                QZVPP-MOLOPT-PBE-ae_soft

       Number of orbital shell sets:                                           3
       Number of orbital shells:                                              17
       Number of primitive Cartesian functions:                                6
       Number of Cartesian basis functions:                                   72
       Number of spherical basis functions:                                   57
       Norm type:                                                              2

       Normalised Cartesian orbitals:

                        Set   Shell   Orbital            Exponent    Coefficient

                          1       1    1s         

                          2       1    1s                3.210992       0.077285
                                                         1.569670       0.127026

                          2       2    2s                3.210992       1.243151
                                                         1.569670       0.060045

                          2       3    2px               3.210992       1.952607
                                                         1.569670       1.401337
                          2       3    2py               3.210992       1.952607
                                                         1.569670       1.401337
                          2       3    2pz               3.210992       1.952607
                                                         1.569670       1.401337

                          3       1    1s                2.478506       1.727996
                                                         0.780870      -0.199624
                                                         0.292233      -0.067737
                                                         0.098416      -0.035850

                          3       2    2s                2.478506       0.315394
                                                         0.780870       0.280386
                                                         0.292233       0.076689
                                                         0.098416       0.022112

                          3       3    3s                2.478506      -0.182490
                                                         0.780870      -0.398499
                                                         0.292233       0.703297
                                                         0.098416      -0.230017

                          3       4    4s                2.478506       0.165589
                                                         0.780870      -0.388414
                                                         0.292233       0.135344
                                                         0.098416       0.109946

                          3       5    2px               2.478506       0.260970
                                                         0.780870       0.517259
                                                         0.292233       0.107296
                                                         0.098416       0.022701
                          3       5    2py               2.478506       0.260970
                                                         0.780870       0.517259
                                                         0.292233       0.107296
                                                         0.098416       0.022701
                          3       5    2pz               2.478506       0.260970
                                                         0.780870       0.517259
                                                         0.292233       0.107296
                                                         0.098416       0.022701

                          3       6    3px               2.478506       2.223364
                                                         0.780870      -0.845189
                                                         0.292233       0.096053
                                                         0.098416       0.070691
                          3       6    3py               2.478506       2.223364
                                                         0.780870      -0.845189
                                                         0.292233       0.096053
                                                         0.098416       0.070691
                          3       6    3pz               2.478506       2.223364
                                                         0.780870      -0.845189
                                                         0.292233       0.096053
                                                         0.098416       0.070691

                          3       7    4px               2.478506      -1.017055
                                                         0.780870       0.605594
                                                         0.292233      -0.564035
                                                         0.098416       0.101323
                          3       7    4py               2.478506      -1.017055
                                                         0.780870       0.605594
                                                         0.292233      -0.564035
                                                         0.098416       0.101323
                          3       7    4pz               2.478506      -1.017055
                                                         0.780870       0.605594
                                                         0.292233      -0.564035
                                                         0.098416       0.101323

                          3       8    3dx2              2.478506       2.448343
                                                         0.780870       0.653790
                                                         0.292233       0.040892
                                                         0.098416       0.003322
                          3       8    3dxy              2.478506       4.240655
                                                         0.780870       1.132397
                                                         0.292233       0.070827
                                                         0.098416       0.005754
                          3       8    3dxz              2.478506       4.240655
                                                         0.780870       1.132397
                                                         0.292233       0.070827
                                                         0.098416       0.005754
                          3       8    3dy2              2.478506       2.448343
                                                         0.780870       0.653790
                                                         0.292233       0.040892
                                                         0.098416       0.003322
                          3       8    3dyz              2.478506       4.240655
                                                         0.780870       1.132397
                                                         0.292233       0.070827
                                                         0.098416       0.005754
                          3       8    3dz2              2.478506       2.448343
                                                         0.780870       0.653790
                                                         0.292233       0.040892
                                                         0.098416       0.003322

                          3       9    4dx2              2.478506      -9.773314
                                                         0.780870       0.819539
                                                         0.292233      -0.068950
                                                         0.098416      -0.005958
                          3       9    4dxy              2.478506     -16.927876
                                                         0.780870       1.419484
                                                         0.292233      -0.119425
                                                         0.098416      -0.010320
                          3       9    4dxz              2.478506     -16.927876
                                                         0.780870       1.419484
                                                         0.292233      -0.119425
                                                         0.098416      -0.010320
                          3       9    4dy2              2.478506      -9.773314
                                                         0.780870       0.819539
                                                         0.292233      -0.068950
                                                         0.098416      -0.005958
                          3       9    4dyz              2.478506     -16.927876
                                                         0.780870       1.419484
                                                         0.292233      -0.119425
                                                         0.098416      -0.010320
                          3       9    4dz2              2.478506      -9.773314
                                                         0.780870       0.819539
                                                         0.292233      -0.068950
                                                         0.098416      -0.005958

                          3      10    5dx2              2.478506      -3.338505
                                                         0.780870      -0.174830
                                                         0.292233       0.240128
                                                         0.098416      -0.010366
                          3      10    5dxy              2.478506      -5.782460
                                                         0.780870      -0.302815
                                                         0.292233       0.415913
                                                         0.098416      -0.017954
                          3      10    5dxz              2.478506      -5.782460
                                                         0.780870      -0.302815
                                                         0.292233       0.415913
                                                         0.098416      -0.017954
                          3      10    5dy2              2.478506      -3.338505
                                                         0.780870      -0.174830
                                                         0.292233       0.240128
                                                         0.098416      -0.010366
                          3      10    5dyz              2.478506      -5.782460
                                                         0.780870      -0.302815
                                                         0.292233       0.415913
                                                         0.098416      -0.017954
                          3      10    5dz2              2.478506      -3.338505
                                                         0.780870      -0.174830
                                                         0.292233       0.240128
                                                         0.098416      -0.010366

                          3      11    4fx3              2.478506       8.481948
                                                         0.780870       0.343839
                                                         0.292233      -0.006792
                                                         0.098416       0.000929
                          3      11    4fx2y             2.478506      18.966213
                                                         0.780870       0.768847
                                                         0.292233      -0.015188
                                                         0.098416       0.002076
                          3      11    4fx2z             2.478506      18.966213
                                                         0.780870       0.768847
                                                         0.292233      -0.015188
                                                         0.098416       0.002076
                          3      11    4fxy2             2.478506      18.966213
                                                         0.780870       0.768847
                                                         0.292233      -0.015188
                                                         0.098416       0.002076
                          3      11    4fxyz             2.478506      32.850445
                                                         0.780870       1.331683
                                                         0.292233      -0.026307
                                                         0.098416       0.003596
                          3      11    4fxz2             2.478506      18.966213
                                                         0.780870       0.768847
                                                         0.292233      -0.015188
                                                         0.098416       0.002076
                          3      11    4fy3              2.478506       8.481948
                                                         0.780870       0.343839
                                                         0.292233      -0.006792
                                                         0.098416       0.000929
                          3      11    4fy2z             2.478506      18.966213
                                                         0.780870       0.768847
                                                         0.292233      -0.015188
                                                         0.098416       0.002076
                          3      11    4fyz2             2.478506      18.966213
                                                         0.780870       0.768847
                                                         0.292233      -0.015188
                                                         0.098416       0.002076
                          3      11    4fz3              2.478506       8.481948
                                                         0.780870       0.343839
                                                         0.292233      -0.006792
                                                         0.098416       0.000929

                          3      12    5fx3              2.478506      -4.423110
                                                         0.780870       0.717072
                                                         0.292233       0.037661
                                                         0.098416      -0.001713
                          3      12    5fx2y             2.478506      -9.890376
                                                         0.780870       1.603421
                                                         0.292233       0.084213
                                                         0.098416      -0.003831
                          3      12    5fx2z             2.478506      -9.890376
                                                         0.780870       1.603421
                                                         0.292233       0.084213
                                                         0.098416      -0.003831
                          3      12    5fxy2             2.478506      -9.890376
                                                         0.780870       1.603421
                                                         0.292233       0.084213
                                                         0.098416      -0.003831
                          3      12    5fxyz             2.478506     -17.130633
                                                         0.780870       2.777207
                                                         0.292233       0.145862
                                                         0.098416      -0.006636
                          3      12    5fxz2             2.478506      -9.890376
                                                         0.780870       1.603421
                                                         0.292233       0.084213
                                                         0.098416      -0.003831
                          3      12    5fy3              2.478506      -4.423110
                                                         0.780870       0.717072
                                                         0.292233       0.037661
                                                         0.098416      -0.001713
                          3      12    5fy2z             2.478506      -9.890376
                                                         0.780870       1.603421
                                                         0.292233       0.084213
                                                         0.098416      -0.003831
                          3      12    5fyz2             2.478506      -9.890376
                                                         0.780870       1.603421
                                                         0.292233       0.084213
                                                         0.098416      -0.003831
                          3      12    5fz3              2.478506      -4.423110
                                                         0.780870       0.717072
                                                         0.292233       0.037661
                                                         0.098416      -0.001713

                          3      13    5gx4              2.478506       5.558350
                                                         0.780870       0.445812
                                                         0.292233      -0.003241
                                                         0.098416      -0.000135
                          3      13    5gx3y             2.478506      14.706012
                                                         0.780870       1.179508
                                                         0.292233      -0.008575
                                                         0.098416      -0.000357
                          3      13    5gx3z             2.478506      14.706012
                                                         0.780870       1.179508
                                                         0.292233      -0.008575
                                                         0.098416      -0.000357
                          3      13    5gx2y2            2.478506      18.985380
                                                         0.780870       1.522738
                                                         0.292233      -0.011071
                                                         0.098416      -0.000460
                          3      13    5gx2yz            2.478506      32.883644
                                                         0.780870       2.637460
                                                         0.292233      -0.019175
                                                         0.098416      -0.000797
                          3      13    5gx2z2            2.478506      18.985380
                                                         0.780870       1.522738
                                                         0.292233      -0.011071
                                                         0.098416      -0.000460
                          3      13    5gxy3             2.478506      14.706012
                                                         0.780870       1.179508
                                                         0.292233      -0.008575
                                                         0.098416      -0.000357
                          3      13    5gxy2z            2.478506      32.883644
                                                         0.780870       2.637460
                                                         0.292233      -0.019175
                                                         0.098416      -0.000797
                          3      13    5gxyz2            2.478506      32.883644
                                                         0.780870       2.637460
                                                         0.292233      -0.019175
                                                         0.098416      -0.000797
                          3      13    5gxz3             2.478506      14.706012
                                                         0.780870       1.179508
                                                         0.292233      -0.008575
                                                         0.098416      -0.000357
                          3      13    5gy4              2.478506       5.558350
                                                         0.780870       0.445812
                                                         0.292233      -0.003241
                                                         0.098416      -0.000135
                          3      13    5gy3z             2.478506      14.706012
                                                         0.780870       1.179508
                                                         0.292233      -0.008575
                                                         0.098416      -0.000357
                          3      13    5gy2z2            2.478506      18.985380
                                                         0.780870       1.522738
                                                         0.292233      -0.011071
                                                         0.098416      -0.000460
                          3      13    5gyz3             2.478506      14.706012
                                                         0.780870       1.179508
                                                         0.292233      -0.008575
                                                         0.098416      -0.000357
                          3      13    5gz4              2.478506       5.558350
                                                         0.780870       0.445812
                                                         0.292233      -0.003241
                                                         0.098416      -0.000135

     AE Potential information for                                            ALL

       Description:                                       All-electron potential
                                          Krack, Parrinello, PCCP 2, 2105 (2000)

       Gaussian exponent of the core charge distribution:               4.109048
       Electronic configuration (s p d ...):                           4   2   0

  2. Atomic kind: H                                     Number of atoms:      16

     Orbital Basis Set                                       QZVPP-MOLOPT-PBE-ae

       Number of orbital shell sets:                                           2
       Number of orbital shells:                                              10
       Number of primitive Cartesian functions:                                8
       Number of Cartesian basis functions:                                   35
       Number of spherical basis functions:                                   30
       Norm type:                                                              2

       Normalised Cartesian orbitals:

                        Set   Shell   Orbital            Exponent    Coefficient

                          1       1    1s              190.541174       0.567744
                                                        28.485896       3.739611
                                                         6.826831       2.001669
                                                         1.919769      -0.029959

                          2       1    1s                3.130447      -1.377299
                                                         0.966277       1.394773
                                                         0.319288      -0.156078
                                                         0.106668      -0.030399

                          2       2    2s                3.130447       0.627930
                                                         0.966277       0.181305
                                                         0.319288       0.270118
                                                         0.106668      -0.141637

                          2       3    3s                3.130447       0.192674
                                                         0.966277       0.139459
                                                         0.319288       0.123455
                                                         0.106668       0.057384

                          2       4    2px               3.130447       5.209863
                                                         0.966277       0.306652
                                                         0.319288      -0.046374
                                                         0.106668       0.001892
                          2       4    2py               3.130447       5.209863
                                                         0.966277       0.306652
                                                         0.319288      -0.046374
                                                         0.106668       0.001892
                          2       4    2pz               3.130447       5.209863
                                                         0.966277       0.306652
                                                         0.319288      -0.046374
                                                         0.106668       0.001892

                          2       5    3px               3.130447      -3.914345
                                                         0.966277       2.603852
                                                         0.319288      -0.366926
                                                         0.106668       0.021211
                          2       5    3py               3.130447      -3.914345
                                                         0.966277       2.603852
                                                         0.319288      -0.366926
                                                         0.106668       0.021211
                          2       5    3pz               3.130447      -3.914345
                                                         0.966277       2.603852
                                                         0.319288      -0.366926
                                                         0.106668       0.021211

                          2       6    4px               3.130447       0.035970
                                                         0.966277       0.584401
                                                         0.319288       0.248663
                                                         0.106668      -0.011549
                          2       6    4py               3.130447       0.035970
                                                         0.966277       0.584401
                                                         0.319288       0.248663
                                                         0.106668      -0.011549
                          2       6    4pz               3.130447       0.035970
                                                         0.966277       0.584401
                                                         0.319288       0.248663
                                                         0.106668      -0.011549

                          2       7    3dx2              3.130447      12.003734
                                                         0.966277       0.024974
                                                         0.319288      -0.000993
                                                         0.106668       0.001171
                          2       7    3dxy              3.130447      20.791077
                                                         0.966277       0.043257
                                                         0.319288      -0.001719
                                                         0.106668       0.002027
                          2       7    3dxz              3.130447      20.791077
                                                         0.966277       0.043257
                                                         0.319288      -0.001719
                                                         0.106668       0.002027
                          2       7    3dy2              3.130447      12.003734
                                                         0.966277       0.024974
                                                         0.319288      -0.000993
                                                         0.106668       0.001171
                          2       7    3dyz              3.130447      20.791077
                                                         0.966277       0.043257
                                                         0.319288      -0.001719
                                                         0.106668       0.002027
                          2       7    3dz2              3.130447      12.003734
                                                         0.966277       0.024974
                                                         0.319288      -0.000993
                                                         0.106668       0.001171

                          2       8    4dx2              3.130447      -0.131032
                                                         0.966277       1.436860
                                                         0.319288       0.033800
                                                         0.106668      -0.003271
                          2       8    4dxy              3.130447      -0.226954
                                                         0.966277       2.488715
                                                         0.319288       0.058543
                                                         0.106668      -0.005666
                          2       8    4dxz              3.130447      -0.226954
                                                         0.966277       2.488715
                                                         0.319288       0.058543
                                                         0.106668      -0.005666
                          2       8    4dy2              3.130447      -0.131032
                                                         0.966277       1.436860
                                                         0.319288       0.033800
                                                         0.106668      -0.003271
                          2       8    4dyz              3.130447      -0.226954
                                                         0.966277       2.488715
                                                         0.319288       0.058543
                                                         0.106668      -0.005666
                          2       8    4dz2              3.130447      -0.131032
                                                         0.966277       1.436860
                                                         0.319288       0.033800
                                                         0.106668      -0.003271

                          2       9    4fx3              3.130447      10.892546
                                                         0.966277       0.904365
                                                         0.319288      -0.046765
                                                         0.106668      -0.000779
                          2       9    4fx2y             3.130447      24.356473
                                                         0.966277       2.022223
                                                         0.319288      -0.104570
                                                         0.106668      -0.001741
                          2       9    4fx2z             3.130447      24.356473
                                                         0.966277       2.022223
                                                         0.319288      -0.104570
                                                         0.106668      -0.001741
                          2       9    4fxy2             3.130447      24.356473
                                                         0.966277       2.022223
                                                         0.319288      -0.104570
                                                         0.106668      -0.001741
                          2       9    4fxyz             3.130447      42.186648
                                                         0.966277       3.502592
                                                         0.319288      -0.181121
                                                         0.106668      -0.003016
                          2       9    4fxz2             3.130447      24.356473
                                                         0.966277       2.022223
                                                         0.319288      -0.104570
                                                         0.106668      -0.001741
                          2       9    4fy3              3.130447      10.892546
                                                         0.966277       0.904365
                                                         0.319288      -0.046765
                                                         0.106668      -0.000779
                          2       9    4fy2z             3.130447      24.356473
                                                         0.966277       2.022223
                                                         0.319288      -0.104570
                                                         0.106668      -0.001741
                          2       9    4fyz2             3.130447      24.356473
                                                         0.966277       2.022223
                                                         0.319288      -0.104570
                                                         0.106668      -0.001741
                          2       9    4fz3              3.130447      10.892546
                                                         0.966277       0.904365
                                                         0.319288      -0.046765
                                                         0.106668      -0.000779

       Atomic covalent radius [Angstrom]:                                  0.320

       Atomic van der Waals radius [Angstrom]:                             1.090

     The atoms of this atomic kind are PAW atoms (GAPW):
       Hard Gaussian function radius:                                      1.000
       Rho0 radius:                                                        1.000
       Maximum GTO radius used for PAW projector construction:            24.566

     GAPW Soft Basis Set                                QZVPP-MOLOPT-PBE-ae_soft

       Number of orbital shell sets:                                           2
       Number of orbital shells:                                              10
       Number of primitive Cartesian functions:                                6
       Number of Cartesian basis functions:                                   35
       Number of spherical basis functions:                                   30
       Norm type:                                                              2

       Normalised Cartesian orbitals:

                        Set   Shell   Orbital            Exponent    Coefficient

                          1       1    1s                6.826831       2.001669
                                                         1.919769      -0.029959

                          2       1    1s                3.130447      -1.377299
                                                         0.966277       1.394773
                                                         0.319288      -0.156078
                                                         0.106668      -0.030399

                          2       2    2s                3.130447       0.627930
                                                         0.966277       0.181305
                                                         0.319288       0.270118
                                                         0.106668      -0.141637

                          2       3    3s                3.130447       0.192674
                                                         0.966277       0.139459
                                                         0.319288       0.123455
                                                         0.106668       0.057384

                          2       4    2px               3.130447       5.209863
                                                         0.966277       0.306652
                                                         0.319288      -0.046374
                                                         0.106668       0.001892
                          2       4    2py               3.130447       5.209863
                                                         0.966277       0.306652
                                                         0.319288      -0.046374
                                                         0.106668       0.001892
                          2       4    2pz               3.130447       5.209863
                                                         0.966277       0.306652
                                                         0.319288      -0.046374
                                                         0.106668       0.001892

                          2       5    3px               3.130447      -3.914345
                                                         0.966277       2.603852
                                                         0.319288      -0.366926
                                                         0.106668       0.021211
                          2       5    3py               3.130447      -3.914345
                                                         0.966277       2.603852
                                                         0.319288      -0.366926
                                                         0.106668       0.021211
                          2       5    3pz               3.130447      -3.914345
                                                         0.966277       2.603852
                                                         0.319288      -0.366926
                                                         0.106668       0.021211

                          2       6    4px               3.130447       0.035970
                                                         0.966277       0.584401
                                                         0.319288       0.248663
                                                         0.106668      -0.011549
                          2       6    4py               3.130447       0.035970
                                                         0.966277       0.584401
                                                         0.319288       0.248663
                                                         0.106668      -0.011549
                          2       6    4pz               3.130447       0.035970
                                                         0.966277       0.584401
                                                         0.319288       0.248663
                                                         0.106668      -0.011549

                          2       7    3dx2              3.130447      12.003734
                                                         0.966277       0.024974
                                                         0.319288      -0.000993
                                                         0.106668       0.001171
                          2       7    3dxy              3.130447      20.791077
                                                         0.966277       0.043257
                                                         0.319288      -0.001719
                                                         0.106668       0.002027
                          2       7    3dxz              3.130447      20.791077
                                                         0.966277       0.043257
                                                         0.319288      -0.001719
                                                         0.106668       0.002027
                          2       7    3dy2              3.130447      12.003734
                                                         0.966277       0.024974
                                                         0.319288      -0.000993
                                                         0.106668       0.001171
                          2       7    3dyz              3.130447      20.791077
                                                         0.966277       0.043257
                                                         0.319288      -0.001719
                                                         0.106668       0.002027
                          2       7    3dz2              3.130447      12.003734
                                                         0.966277       0.024974
                                                         0.319288      -0.000993
                                                         0.106668       0.001171

                          2       8    4dx2              3.130447      -0.131032
                                                         0.966277       1.436860
                                                         0.319288       0.033800
                                                         0.106668      -0.003271
                          2       8    4dxy              3.130447      -0.226954
                                                         0.966277       2.488715
                                                         0.319288       0.058543
                                                         0.106668      -0.005666
                          2       8    4dxz              3.130447      -0.226954
                                                         0.966277       2.488715
                                                         0.319288       0.058543
                                                         0.106668      -0.005666
                          2       8    4dy2              3.130447      -0.131032
                                                         0.966277       1.436860
                                                         0.319288       0.033800
                                                         0.106668      -0.003271
                          2       8    4dyz              3.130447      -0.226954
                                                         0.966277       2.488715
                                                         0.319288       0.058543
                                                         0.106668      -0.005666
                          2       8    4dz2              3.130447      -0.131032
                                                         0.966277       1.436860
                                                         0.319288       0.033800
                                                         0.106668      -0.003271

                          2       9    4fx3              3.130447      10.892546
                                                         0.966277       0.904365
                                                         0.319288      -0.046765
                                                         0.106668      -0.000779
                          2       9    4fx2y             3.130447      24.356473
                                                         0.966277       2.022223
                                                         0.319288      -0.104570
                                                         0.106668      -0.001741
                          2       9    4fx2z             3.130447      24.356473
                                                         0.966277       2.022223
                                                         0.319288      -0.104570
                                                         0.106668      -0.001741
                          2       9    4fxy2             3.130447      24.356473
                                                         0.966277       2.022223
                                                         0.319288      -0.104570
                                                         0.106668      -0.001741
                          2       9    4fxyz             3.130447      42.186648
                                                         0.966277       3.502592
                                                         0.319288      -0.181121
                                                         0.106668      -0.003016
                          2       9    4fxz2             3.130447      24.356473
                                                         0.966277       2.022223
                                                         0.319288      -0.104570
                                                         0.106668      -0.001741
                          2       9    4fy3              3.130447      10.892546
                                                         0.966277       0.904365
                                                         0.319288      -0.046765
                                                         0.106668      -0.000779
                          2       9    4fy2z             3.130447      24.356473
                                                         0.966277       2.022223
                                                         0.319288      -0.104570
                                                         0.106668      -0.001741
                          2       9    4fyz2             3.130447      24.356473
                                                         0.966277       2.022223
                                                         0.319288      -0.104570
                                                         0.106668      -0.001741
                          2       9    4fz3              3.130447      10.892546
                                                         0.966277       0.904365
                                                         0.319288      -0.046765
                                                         0.106668      -0.000779

     AE Potential information for                                            ALL

       Description:                                       All-electron potential
                                          Krack, Parrinello, PCCP 2, 2105 (2000)

       Gaussian exponent of the core charge distribution:              12.500000
       Electronic configuration (s p d ...):                           1   0   0


 MOLECULE KIND INFORMATION


 All atoms are their own molecule, skipping detailed information


 TOTAL NUMBERS AND MAXIMUM NUMBERS

  Total number of            - Atomic kinds:                                   2
                             - Atoms:                                         22
                             - Shell sets:                                    50
                             - Shells:                                       262
                             - Primitive Cartesian functions:                230
                             - Cartesian basis functions:                    992
                             - Spherical basis functions:                    822

  Maximum angular momentum of the orbital basis functions:                     4


 MODULE QUICKSTEP: ATOMIC COORDINATES IN ANGSTROM

   Atom Kind Element         X             Y             Z       Z(eff)     Mass
      1    1 C     6     14.420470     17.381770     15.000000   6.0000  12.0107
      2    1 C     6     13.579530     17.497290     16.268230   6.0000  12.0107
      3    1 C     6     13.579530     17.497290     13.731770   6.0000  12.0107
      4    2 H     1     15.190990     18.161260     15.000000   1.0000   1.0079
      5    2 H     1     14.952260     16.423390     15.000000   1.0000   1.0079
      6    2 H     1     14.195990     17.412610     17.167880   1.0000   1.0079
      7    2 H     1     12.820710     16.709330     16.304850   1.0000   1.0079
      8    2 H     1     13.061280     18.460660     16.304850   1.0000   1.0079
      9    2 H     1     14.195990     17.412610     12.832120   1.0000   1.0079
     10    2 H     1     12.820710     16.709330     13.695150   1.0000   1.0079
     11    2 H     1     13.061280     18.460660     13.695150   1.0000   1.0079
     12    1 C     6     13.579530     13.618230     15.000000   6.0000  12.0107
     13    1 C     6     14.420470     13.502710     13.731770   6.0000  12.0107
     14    1 C     6     14.420470     13.502710     16.268230   6.0000  12.0107
     15    2 H     1     13.047740     14.576610     15.000000   1.0000   1.0079
     16    2 H     1     12.809010     12.838740     15.000000   1.0000   1.0079
     17    2 H     1     13.804010     13.587390     12.832120   1.0000   1.0079
     18    2 H     1     14.938720     12.539340     13.695150   1.0000   1.0079
     19    2 H     1     15.179290     14.290670     13.695150   1.0000   1.0079
     20    2 H     1     13.804010     13.587390     17.167880   1.0000   1.0079
     21    2 H     1     14.938720     12.539340     16.304850   1.0000   1.0079
     22    2 H     1     15.179290     14.290670     16.304850   1.0000   1.0079



 SCF PARAMETERS         Density guess:                                    ATOMIC
                        --------------------------------------------------------
                        max_scf:                                             200
                        max_scf_history:                                       0
                        max_diis:                                              4
                        --------------------------------------------------------
                        eps_scf:                                        5.00E-07
                        eps_scf_history:                                0.00E+00
                        eps_diis:                                       0.00E+00
                        eps_eigval:                                     1.00E-05
                        --------------------------------------------------------
                        level_shift [a.u.]:                             0.000000
                        --------------------------------------------------------
                        Outer loop SCF in use 
                        No variables optimised in outer loop
                        eps_scf                                         5.00E-07
                        max_scf                                               20
                        No outer loop optimization
                        step_size                                       5.00E-01

 PW_GRID| Information for grid number                                          1
 PW_GRID| Cutoff [a.u.]                                                    320.0
 PW_GRID| spherical cutoff:                                                   NO
 PW_GRID|   Bounds   1           -216     215                Points:         432
 PW_GRID|   Bounds   2           -240     239                Points:         480
 PW_GRID|   Bounds   3           -240     239                Points:         480
 PW_GRID| Volume element (a.u.^3)  0.1766E-02     Volume (a.u.^3)    175726.6325
 PW_GRID| Grid span                                                    FULLSPACE

 PW_GRID| Information for grid number                                          2
 PW_GRID| Number of the reference grid                                         1
 PW_GRID| Cutoff [a.u.]                                                    106.7
 PW_GRID| spherical cutoff:                                                   NO
 PW_GRID|   Bounds   1           -128     127                Points:         256
 PW_GRID|   Bounds   2           -144     143                Points:         288
 PW_GRID|   Bounds   3           -135     134                Points:         270
 PW_GRID| Volume element (a.u.^3)  0.8828E-02     Volume (a.u.^3)    175726.6325
 PW_GRID| Grid span                                                    FULLSPACE

 PW_GRID| Information for grid number                                          3
 PW_GRID| Number of the reference grid                                         1
 PW_GRID| Cutoff [a.u.]                                                     35.6
 PW_GRID| spherical cutoff:                                                   NO
 PW_GRID|   Bounds   1            -72      71                Points:         144
 PW_GRID|   Bounds   2            -80      79                Points:         160
 PW_GRID|   Bounds   3            -80      79                Points:         160
 PW_GRID| Volume element (a.u.^3)  0.4767E-01     Volume (a.u.^3)    175726.6325
 PW_GRID| Grid span                                                    FULLSPACE

 PW_GRID| Information for grid number                                          4
 PW_GRID| Number of the reference grid                                         1
 PW_GRID| Cutoff [a.u.]                                                     11.9
 PW_GRID| spherical cutoff:                                                   NO
 PW_GRID|   Bounds   1            -45      44                Points:          90
 PW_GRID|   Bounds   2            -48      47                Points:          96
 PW_GRID|   Bounds   3            -45      44                Points:          90
 PW_GRID| Volume element (a.u.^3)  0.2260         Volume (a.u.^3)    175726.6325
 PW_GRID| Grid span                                                    FULLSPACE

 PW_GRID| Information for grid number                                          5
 PW_GRID| Number of the reference grid                                         1
 PW_GRID| Cutoff [a.u.]                                                      4.0
 PW_GRID| spherical cutoff:                                                   NO
 PW_GRID|   Bounds   1            -24      23                Points:          48
 PW_GRID|   Bounds   2            -27      26                Points:          54
 PW_GRID|   Bounds   3            -27      26                Points:          54
 PW_GRID| Volume element (a.u.^3)   1.255         Volume (a.u.^3)    175726.6325
 PW_GRID| Grid span                                                    FULLSPACE

 POISSON| Solver                                                        ANALYTIC
 POISSON| Periodicity                                                       NONE

 RS_GRID| Information for grid number                                          1
 RS_GRID|   Bounds   1           -216     215                Points:         432
 RS_GRID|   Bounds   2           -240     239                Points:         480
 RS_GRID|   Bounds   3           -240     239                Points:         480

 RS_GRID| Information for grid number                                          2
 RS_GRID|   Bounds   1           -128     127                Points:         256
 RS_GRID|   Bounds   2           -144     143                Points:         288
 RS_GRID|   Bounds   3           -135     134                Points:         270

 RS_GRID| Information for grid number                                          3
 RS_GRID|   Bounds   1            -72      71                Points:         144
 RS_GRID|   Bounds   2            -80      79                Points:         160
 RS_GRID|   Bounds   3            -80      79                Points:         160

 RS_GRID| Information for grid number                                          4
 RS_GRID|   Bounds   1            -45      44                Points:          90
 RS_GRID|   Bounds   2            -48      47                Points:          96
 RS_GRID|   Bounds   3            -45      44                Points:          90

 RS_GRID| Information for grid number                                          5
 RS_GRID|   Bounds   1            -24      23                Points:          48
 RS_GRID|   Bounds   2            -27      26                Points:          54
 RS_GRID|   Bounds   3            -27      26                Points:          54

 Extrapolation method: initial_guess

 Atomic guess: The first density matrix is obtained in terms of atomic orbitals
               and electronic configurations assigned to each atomic kind

 Guess for atomic kind: C

 Electronic structure
    Total number of core electrons                                          0.00
    Total number of valence electrons                                       6.00
    Total number of electrons                                               6.00
    Multiplicity                                                   not specified
    S      2.00  2.00
    P      2.00


 *******************************************************************************
                  Iteration          Convergence                     Energy [au]
 *******************************************************************************
                          1        0.121131                     -37.408025616402
                          2        0.889122E-01                 -37.412089819870
                          3        0.789064E-03                 -37.416439806797
                          4        0.203035E-03                 -37.416440414393
                          5        0.213319E-05                 -37.416440439405
                          6        0.301158E-06                 -37.416440439411

 Energy components [Hartree]           Total Energy ::          -37.416440439411
                                        Band Energy ::          -21.189318935860
                                     Kinetic Energy ::           37.251648416831
                                   Potential Energy ::          -74.668088856242
                                      Virial (-V/T) ::            2.004423751152
                                        Core Energy ::          -50.404666909255
                                          XC Energy ::           -4.740629627134
                                     Coulomb Energy ::           17.728856096978

 Orbital energies  State     L     Occupation   Energy[a.u.]          Energy[eV]

                       1     0          2.000      -9.921831         -269.986751
                       2     0          2.000      -0.488719          -13.298719

                       1     1          2.000      -0.184110           -5.009876


 Total Electron Density at R=0:                                       124.835849

 Guess for atomic kind: H

 Electronic structure
    Total number of core electrons                                          0.00
    Total number of valence electrons                                       1.00
    Total number of electrons                                               1.00
    Multiplicity                                                   not specified
    S      1.00


 *******************************************************************************
                  Iteration          Convergence                     Energy [au]
 *******************************************************************************
                          1        0.789755E-02                  -0.444208304322
                          2        0.114953E-02                  -0.444307779626
                          3        0.297298E-04                  -0.444310667039
                          4        0.544408E-08                  -0.444310669181

 Energy components [Hartree]           Total Energy ::           -0.444310669181
                                        Band Energy ::           -0.232721097962
                                     Kinetic Energy ::            0.428135755362
                                   Potential Energy ::           -0.872446424543
                                      Virial (-V/T) ::            2.037779871493
                                        Core Energy ::           -0.494332080896
                                          XC Energy ::           -0.231885855504
                                     Coulomb Energy ::            0.281907267219

 Orbital energies  State     L     Occupation   Energy[a.u.]          Energy[eV]

                       1     0          1.000      -0.232721           -6.332663


 Total Electron Density at R=0:                                         0.256258
 Re-scaling the density matrix to get the right number of electrons
                  # Electrons              Trace(P)               Scaling factor
                           52                52.000                        1.000

 Number of electrons:                                                         52
 Number of occupied orbitals:                                                 26
 Number of molecular orbitals:                                                26

 Number of orbital functions:                                                822
 Number of independent orbital functions:                                    822


 SCF WAVEFUNCTION OPTIMIZATION

  ----------------------------------- OT ---------------------------------------
  Minimizer      : DIIS                : direct inversion
                                         in the iterative subspace
                                         using   7 DIIS vectors
                                         safer DIIS on
  Preconditioner : FULL_ALL            : diagonalization, state selective
  Precond_solver : DEFAULT
  stepsize       :    0.10000000                  energy_gap     :    0.00100000
  eps_taylor     :   0.10000E-15                  max_taylor     :             4
  ----------------------------------- OT ---------------------------------------

  Step     Update method      Time    Convergence         Total energy    Change
  ------------------------------------------------------------------------------
 SKALA_GPW| Atom-composite cross support/maxima   2.179973238379E+00   5.875135949165E+01   7.026554939179E+02   1.046029916361E+03
 SKALA_GPW| Active atom-composite XC energy  -3.5732207029084407E+01
 SKALA_GPW| Active atom-composite electrons   5.2000101739144377E+01
 SKALA_GPW| Active atom-composite density range  -4.2110312930690947E-09   6.1289750528909437E+01
 SKALA_GPW| Active atom-composite tau range  -3.4261643723156709E-08   1.1279950030297771E+03
 SKALA_GPW| Active atom-composite tau integral   2.3068274581605547E+02
 SKALA_GPW| Active atom-composite max gradient   7.1313444916249091E+02
     1 OT DIIS     0.10E+00  212.0     0.06143516      -226.5015407180 -2.27E+02
 SKALA_GPW| Atom-composite cross support/maxima   2.179973238379E+00   6.060995116992E+01   7.299960880278E+02   1.095390767587E+03
 SKALA_GPW| Active atom-composite XC energy  -3.7212738851251622E+01
 SKALA_GPW| Active atom-composite electrons   5.2000078440250732E+01
 SKALA_GPW| Active atom-composite density range  -3.5726432303548686E-09   6.3406986714272492E+01
 SKALA_GPW| Active atom-composite tau range  -3.1232693871457384E-08   1.1766403440994923E+03
 SKALA_GPW| Active atom-composite tau integral   2.3832904522439992E+02
 SKALA_GPW| Active atom-composite max gradient   7.4051991026802659E+02
     2 OT DIIS     0.10E+00  177.4     0.03716353      -232.9070489229 -6.41E+00
 SKALA_GPW| Atom-composite cross support/maxima   2.179973238379E+00   6.142494055908E+01   7.464846666213E+02   1.131139855605E+03
 SKALA_GPW| Active atom-composite XC energy  -3.7998107286322785E+01
 SKALA_GPW| Active atom-composite electrons   5.2000056351531093E+01
 SKALA_GPW| Active atom-composite density range  -3.1798580803095305E-09   6.3971033309154876E+01
 SKALA_GPW| Active atom-composite tau range  -2.3149634613280350E-08   1.2062146026257337E+03
 SKALA_GPW| Active atom-composite tau integral   2.3901203806806950E+02
 SKALA_GPW| Active atom-composite max gradient   7.5285559431908541E+02
     3 OT DIIS     0.10E+00  173.5     0.01265475      -236.4572389444 -3.55E+00
 SKALA_GPW| Atom-composite cross support/maxima   2.179973238379E+00   6.120816846877E+01   7.444958014022E+02   1.129012468758E+03
 SKALA_GPW| Active atom-composite XC energy  -3.8019726610661941E+01
 SKALA_GPW| Active atom-composite electrons   5.2000053088683899E+01
 SKALA_GPW| Active atom-composite density range  -3.0286259122403520E-09   6.3724100145887938E+01
 SKALA_GPW| Active atom-composite tau range  -1.9802463679548967E-08   1.2012454430309178E+03
 SKALA_GPW| Active atom-composite tau integral   2.3813390658462325E+02
 SKALA_GPW| Active atom-composite max gradient   7.4998827196504101E+02
     4 OT DIIS     0.10E+00  175.9     0.00970517      -236.8293003998 -3.72E-01
 SKALA_GPW| Atom-composite cross support/maxima   2.179973238379E+00   6.101812433347E+01   7.428796201817E+02   1.127536818709E+03
 SKALA_GPW| Active atom-composite XC energy  -3.8098588801481569E+01
 SKALA_GPW| Active atom-composite electrons   5.2000050381042342E+01
 SKALA_GPW| Active atom-composite density range  -2.6313279954736181E-09   6.3544547161715286E+01
 SKALA_GPW| Active atom-composite tau range  -2.1063700975295612E-08   1.1980624307614889E+03
 SKALA_GPW| Active atom-composite tau integral   2.3764559978393120E+02
 SKALA_GPW| Active atom-composite max gradient   7.4806763803647243E+02
     5 OT DIIS     0.10E+00  175.7     0.00653756      -237.1877188917 -3.58E-01
 SKALA_GPW| Atom-composite cross support/maxima   2.179973238379E+00   6.098454560336E+01   7.427031502949E+02   1.127634404719E+03
 SKALA_GPW| Active atom-composite XC energy  -3.8155092710977108E+01
 SKALA_GPW| Active atom-composite electrons   5.2000049551036682E+01
 SKALA_GPW| Active atom-composite density range  -3.0222246523003179E-09   6.3488406611669397E+01
 SKALA_GPW| Active atom-composite tau range  -2.3943236186948407E-08   1.1964041740908369E+03
 SKALA_GPW| Active atom-composite tau integral   2.3758715267450248E+02
 SKALA_GPW| Active atom-composite max gradient   7.4735008841439219E+02
     6 OT DIIS     0.10E+00  172.5     0.00520861      -237.3776623742 -1.90E-01
 SKALA_GPW| Atom-composite cross support/maxima   2.179973238379E+00   6.099871614545E+01   7.428054923189E+02   1.127690596554E+03
 SKALA_GPW| Active atom-composite XC energy  -3.8178768015373372E+01
 SKALA_GPW| Active atom-composite electrons   5.2000048685947263E+01
 SKALA_GPW| Active atom-composite density range  -3.1713529205464802E-09   6.3485242865755929E+01
 SKALA_GPW| Active atom-composite tau range  -2.4350842052170533E-08   1.1957659695496511E+03
 SKALA_GPW| Active atom-composite tau integral   2.3754082501359900E+02
 SKALA_GPW| Active atom-composite max gradient   7.4719658287781544E+02
     7 OT SD       0.10E+00  177.9     0.00515601      -237.4914200488 -1.14E-01
 SKALA_GPW| Atom-composite cross support/maxima   2.179973238379E+00   6.099526911709E+01   7.427969488661E+02   1.127734702083E+03
 SKALA_GPW| Active atom-composite XC energy  -3.8199622322429995E+01
 SKALA_GPW| Active atom-composite electrons   5.2000047511089413E+01
 SKALA_GPW| Active atom-composite density range  -3.1398680424654228E-09   6.3465838307990907E+01
 SKALA_GPW| Active atom-composite tau range  -2.4171126037089858E-08   1.1954553024642782E+03
 SKALA_GPW| Active atom-composite tau integral   2.3752349677470519E+02
 SKALA_GPW| Active atom-composite max gradient   7.4699296319022358E+02
     8 OT SD       0.10E+00  174.7     0.00528258      -237.5487951235 -5.74E-02
 SKALA_GPW| Atom-composite cross support/maxima   2.179973238379E+00   6.098996370958E+01   7.427565733737E+02   1.127724531289E+03
 SKALA_GPW| Active atom-composite XC energy  -3.8222092898528864E+01
 SKALA_GPW| Active atom-composite electrons   5.2000046193572658E+01
 SKALA_GPW| Active atom-composite density range  -3.0829084816092897E-09   6.3444645168943310E+01
 SKALA_GPW| Active atom-composite tau range  -2.4053655765287429E-08   1.1950053466236566E+03
 SKALA_GPW| Active atom-composite tau integral   2.3751008626755797E+02
 SKALA_GPW| Active atom-composite max gradient   7.4674217193165725E+02
     9 OT SD       0.10E+00  172.9     0.00542067      -237.6091833036 -6.04E-02
 SKALA_GPW| Atom-composite cross support/maxima   2.179973238379E+00   6.098329594492E+01   7.426929699177E+02   1.127670129551E+03
 SKALA_GPW| Active atom-composite XC energy  -3.8246685920290723E+01
 SKALA_GPW| Active atom-composite electrons   5.2000044736342574E+01
 SKALA_GPW| Active atom-composite density range  -3.0025902804832328E-09   6.3423212365139086E+01
 SKALA_GPW| Active atom-composite tau range  -2.4432171961190358E-08   1.1945049154300668E+03
 SKALA_GPW| Active atom-composite tau integral   2.3749854863665936E+02
 SKALA_GPW| Active atom-composite max gradient   7.4647421794467311E+02
    10 OT DIIS     0.10E+00  175.2     0.00551123      -237.6725271040 -6.33E-02
 SKALA_GPW| Atom-composite cross support/maxima   2.179973238379E+00   6.095317237789E+01   7.424245449383E+02   1.127265755997E+03
 SKALA_GPW| Active atom-composite XC energy  -3.8277939916552597E+01
 SKALA_GPW| Active atom-composite electrons   5.2000042698654873E+01
 SKALA_GPW| Active atom-composite density range  -3.1014614314458461E-09   6.3448652443314607E+01
 SKALA_GPW| Active atom-composite tau range  -2.7443380568514523E-08   1.1949607526474822E+03
 SKALA_GPW| Active atom-composite tau integral   2.3741879954567656E+02
 SKALA_GPW| Active atom-composite max gradient   7.4672378697598094E+02
    11 OT SD       0.10E+00  173.8     0.00754054      -237.7471595899 -7.46E-02
 SKALA_GPW| Atom-composite cross support/maxima   2.179973238379E+00   6.097857415345E+01   7.427349699292E+02   1.127907165320E+03
 SKALA_GPW| Active atom-composite XC energy  -3.8324653221450667E+01
 SKALA_GPW| Active atom-composite electrons   5.2000040682615612E+01
 SKALA_GPW| Active atom-composite density range  -2.9445093398920576E-09   6.3368933431843523E+01
 SKALA_GPW| Active atom-composite tau range  -2.6175393514245138E-08   1.1926360484993768E+03
 SKALA_GPW| Active atom-composite tau integral   2.3746047663600856E+02
 SKALA_GPW| Active atom-composite max gradient   7.4555272532572781E+02
    12 OT SD       0.10E+00  174.9     0.00613242      -237.8550187638 -1.08E-01
 SKALA_GPW| Atom-composite cross support/maxima   2.179973238379E+00   6.096903777344E+01   7.425975628484E+02   1.127698656276E+03
 SKALA_GPW| Active atom-composite XC energy  -3.8357257432501363E+01
 SKALA_GPW| Active atom-composite electrons   5.2000038877714893E+01
 SKALA_GPW| Active atom-composite density range  -2.8650209923475764E-09   6.3358907707672863E+01
 SKALA_GPW| Active atom-composite tau range  -2.5707344724247177E-08   1.1919256842716447E+03
 SKALA_GPW| Active atom-composite tau integral   2.3745095762821018E+02
 SKALA_GPW| Active atom-composite max gradient   7.4518356842790297E+02
    13 OT DIIS     0.10E+00  174.0     0.00543048      -237.9303054957 -7.53E-02
 SKALA_GPW| Atom-composite cross support/maxima   2.179973238379E+00   6.091571452032E+01   7.419646818781E+02   1.126634178810E+03
 SKALA_GPW| Active atom-composite XC energy  -3.8396601746042201E+01
 SKALA_GPW| Active atom-composite electrons   5.2000035516156991E+01
 SKALA_GPW| Active atom-composite density range  -2.7252050655536950E-09   6.3338294927269686E+01
 SKALA_GPW| Active atom-composite tau range  -2.5103758455192554E-08   1.1913230526471521E+03
 SKALA_GPW| Active atom-composite tau integral   2.3731556172647623E+02
 SKALA_GPW| Active atom-composite max gradient   7.4498537870831137E+02
    14 OT SD       0.10E+00  174.0     0.00592403      -238.0638406395 -1.34E-01
 SKALA_GPW| Atom-composite cross support/maxima   2.179973238379E+00   6.094322619348E+01   7.423162312142E+02   1.127316912942E+03
 SKALA_GPW| Active atom-composite XC energy  -3.8429181597746307E+01
 SKALA_GPW| Active atom-composite electrons   5.2000034381435896E+01
 SKALA_GPW| Active atom-composite density range  -2.5759440605333867E-09   6.3332271323650211E+01
 SKALA_GPW| Active atom-composite tau range  -2.5296247666098600E-08   1.1899943414365594E+03
 SKALA_GPW| Active atom-composite tau integral   2.3735365416074322E+02
 SKALA_GPW| Active atom-composite max gradient   7.4439585713802046E+02
    15 OT DIIS     0.10E+00  175.5     0.00414630      -238.1257991874 -6.20E-02
 SKALA_GPW| Atom-composite cross support/maxima   2.179973238379E+00   6.092180848052E+01   7.419892719150E+02   1.126886646444E+03
 SKALA_GPW| Active atom-composite XC energy  -3.8458353714824071E+01
 SKALA_GPW| Active atom-composite electrons   5.2000031891027852E+01
 SKALA_GPW| Active atom-composite density range  -2.1751623709789014E-09   6.3309239369726754E+01
 SKALA_GPW| Active atom-composite tau range  -2.1773277161313032E-08   1.1888464320388166E+03
 SKALA_GPW| Active atom-composite tau integral   2.3720505032492704E+02
 SKALA_GPW| Active atom-composite max gradient   7.4408776870127974E+02
    16 OT DIIS     0.10E+00  174.7     0.00402566      -238.2332847861 -1.07E-01
 SKALA_GPW| Atom-composite cross support/maxima   2.179973238379E+00   6.089474784086E+01   7.416847027127E+02   1.126274097673E+03
 SKALA_GPW| Active atom-composite XC energy  -3.8461666985759976E+01
 SKALA_GPW| Active atom-composite electrons   5.2000033455774577E+01
 SKALA_GPW| Active atom-composite density range  -2.5758043750214309E-09   6.3282022657940267E+01
 SKALA_GPW| Active atom-composite tau range  -2.4062938644039068E-08   1.1887249059466371E+03
 SKALA_GPW| Active atom-composite tau integral   2.3733768261487259E+02
 SKALA_GPW| Active atom-composite max gradient   7.4377749399499965E+02
    17 OT DIIS     0.10E+00  173.2     0.00334867      -238.1968247229  3.65E-02
 SKALA_GPW| Atom-composite cross support/maxima   2.179973238379E+00   6.087546282511E+01   7.414011381727E+02   1.125758211553E+03
 SKALA_GPW| Active atom-composite XC energy  -3.8471231953432707E+01
 SKALA_GPW| Active atom-composite electrons   5.2000032555684534E+01
 SKALA_GPW| Active atom-composite density range  -2.3906823122901715E-09   6.3261716714558588E+01
 SKALA_GPW| Active atom-composite tau range  -2.3682843802271522E-08   1.1878072836195520E+03
 SKALA_GPW| Active atom-composite tau integral   2.3723960413368147E+02
 SKALA_GPW| Active atom-composite max gradient   7.4350880065697265E+02
    18 OT DIIS     0.10E+00  171.8     0.00138742      -238.2584878030 -6.17E-02
 SKALA_GPW| Atom-composite cross support/maxima   2.179973238379E+00   6.086027180228E+01   7.411669943060E+02   1.125318983576E+03
 SKALA_GPW| Active atom-composite XC energy  -3.8468568621478603E+01
 SKALA_GPW| Active atom-composite electrons   5.2000032688063378E+01
 SKALA_GPW| Active atom-composite density range  -2.0625210695976648E-09   6.3245722260184145E+01
 SKALA_GPW| Active atom-composite tau range  -2.0622089670809208E-08   1.1873734263451277E+03
 SKALA_GPW| Active atom-composite tau integral   2.3718918954459005E+02
 SKALA_GPW| Active atom-composite max gradient   7.4329548119594313E+02
    19 OT DIIS     0.10E+00  174.9     0.00072359      -238.2750587170 -1.66E-02
 SKALA_GPW| Atom-composite cross support/maxima   2.179973238379E+00   6.085535841807E+01   7.410835356364E+02   1.125170275056E+03
 SKALA_GPW| Active atom-composite XC energy  -3.8474794219404046E+01
 SKALA_GPW| Active atom-composite electrons   5.2000032562500145E+01
 SKALA_GPW| Active atom-composite density range  -2.0779591657616849E-09   6.3240613562889408E+01
 SKALA_GPW| Active atom-composite tau range  -2.0678354228032339E-08   1.1872072751792302E+03
 SKALA_GPW| Active atom-composite tau integral   2.3721533763513492E+02
 SKALA_GPW| Active atom-composite max gradient   7.4320745040376778E+02
    20 OT DIIS     0.10E+00  175.0     0.00053306      -238.2764567411 -1.40E-03
 SKALA_GPW| Atom-composite cross support/maxima   2.179973238379E+00   6.084275582542E+01   7.409129819455E+02   1.124877629831E+03
 SKALA_GPW| Active atom-composite XC energy  -3.8475903052351526E+01
 SKALA_GPW| Active atom-composite electrons   5.2000032575568156E+01
 SKALA_GPW| Active atom-composite density range  -2.0802145125454596E-09   6.3227611142997290E+01
 SKALA_GPW| Active atom-composite tau range  -2.0805549267150674E-08   1.1868835771255542E+03
 SKALA_GPW| Active atom-composite tau integral   2.3721120351482148E+02
 SKALA_GPW| Active atom-composite max gradient   7.4303121935474201E+02
    21 OT DIIS     0.10E+00  172.7     0.00055642      -238.2775676200 -1.11E-03
 SKALA_GPW| Atom-composite cross support/maxima   2.179973238379E+00   6.084143641267E+01   7.408908810861E+02   1.124828078869E+03
 SKALA_GPW| Active atom-composite XC energy  -3.8474700013447311E+01
 SKALA_GPW| Active atom-composite electrons   5.2000032592269108E+01
 SKALA_GPW| Active atom-composite density range  -2.0719153977146987E-09   6.3226195661028676E+01
 SKALA_GPW| Active atom-composite tau range  -2.0783200277127798E-08   1.1868072439543944E+03
 SKALA_GPW| Active atom-composite tau integral   2.3720310360712713E+02
 SKALA_GPW| Active atom-composite max gradient   7.4300182763396208E+02
    22 OT DIIS     0.10E+00  172.4     0.00031338      -238.2788881629 -1.32E-03
 SKALA_GPW| Atom-composite cross support/maxima   2.179973238379E+00   6.083993278481E+01   7.408722775990E+02   1.124799320556E+03
 SKALA_GPW| Active atom-composite XC energy  -3.8473563196942393E+01
 SKALA_GPW| Active atom-composite electrons   5.2000032676863810E+01
 SKALA_GPW| Active atom-composite density range  -2.0605005901170353E-09   6.3224622976769282E+01
 SKALA_GPW| Active atom-composite tau range  -2.0602626489990550E-08   1.1867688940470516E+03
 SKALA_GPW| Active atom-composite tau integral   2.3719657658679262E+02
 SKALA_GPW| Active atom-composite max gradient   7.4298167148905850E+02
    23 OT DIIS     0.10E+00  170.8     0.00025251      -238.2796658152 -7.78E-04
 SKALA_GPW| Atom-composite cross support/maxima   2.179973238379E+00   6.084221254536E+01   7.409000034015E+02   1.124840532334E+03
 SKALA_GPW| Active atom-composite XC energy  -3.8471507541089828E+01
 SKALA_GPW| Active atom-composite electrons   5.2000032752915331E+01
 SKALA_GPW| Active atom-composite density range  -2.0485134796205315E-09   6.3226940272552511E+01
 SKALA_GPW| Active atom-composite tau range  -2.0393034019454445E-08   1.1868136676278643E+03
 SKALA_GPW| Active atom-composite tau integral   2.3719102271782592E+02
 SKALA_GPW| Active atom-composite max gradient   7.4301065058356846E+02
    24 OT DIIS     0.10E+00  174.2     0.00017490      -238.2801441571 -4.78E-04
 SKALA_GPW| Atom-composite cross support/maxima   2.179973238379E+00   6.084033696742E+01   7.408723766547E+02   1.124789719878E+03
 SKALA_GPW| Active atom-composite XC energy  -3.8471686104424869E+01
 SKALA_GPW| Active atom-composite electrons   5.2000032756642888E+01
 SKALA_GPW| Active atom-composite density range  -2.0510988675745069E-09   6.3225006993010453E+01
 SKALA_GPW| Active atom-composite tau range  -2.0444484736997650E-08   1.1867622403766179E+03
 SKALA_GPW| Active atom-composite tau integral   2.3719203963201778E+02
 SKALA_GPW| Active atom-composite max gradient   7.4298340421045998E+02
    25 OT DIIS     0.10E+00  175.9     0.00013032      -238.2803057584 -1.62E-04
 SKALA_GPW| Atom-composite cross support/maxima   2.179973238379E+00   6.084024486666E+01   7.408683526276E+02   1.124777194354E+03
 SKALA_GPW| Active atom-composite XC energy  -3.8471462763058369E+01
 SKALA_GPW| Active atom-composite electrons   5.2000032780027915E+01
 SKALA_GPW| Active atom-composite density range  -2.0496073225527571E-09   6.3224899749918826E+01
 SKALA_GPW| Active atom-composite tau range  -2.0428826546056215E-08   1.1867499533513378E+03
 SKALA_GPW| Active atom-composite tau integral   2.3719172401533766E+02
 SKALA_GPW| Active atom-composite max gradient   7.4297845920251791E+02
    26 OT DIIS     0.10E+00  173.0     0.00010871      -238.2804593771 -1.54E-04
 SKALA_GPW| Atom-composite cross support/maxima   2.179973238379E+00   6.083913210486E+01   7.408488982452E+02   1.124736923991E+03
 SKALA_GPW| Active atom-composite XC energy  -3.8471743472163816E+01
 SKALA_GPW| Active atom-composite electrons   5.2000032778340383E+01
 SKALA_GPW| Active atom-composite density range  -2.0490693011087306E-09   6.3223737561382684E+01
 SKALA_GPW| Active atom-composite tau range  -2.0407987060856974E-08   1.1867121425728096E+03
 SKALA_GPW| Active atom-composite tau integral   2.3719275935460624E+02
 SKALA_GPW| Active atom-composite max gradient   7.4295834511425653E+02
    27 OT DIIS     0.10E+00  174.1     0.00009235      -238.2805701490 -1.11E-04
 SKALA_GPW| Atom-composite cross support/maxima   2.179973238379E+00   6.083913718846E+01   7.408454915675E+02   1.124725437922E+03
 SKALA_GPW| Active atom-composite XC energy  -3.8471575060349082E+01
 SKALA_GPW| Active atom-composite electrons   5.2000032793276056E+01
 SKALA_GPW| Active atom-composite density range  -2.0453117542159195E-09   6.3223722318010999E+01
 SKALA_GPW| Active atom-composite tau range  -2.0341003715589829E-08   1.1867058432029057E+03
 SKALA_GPW| Active atom-composite tau integral   2.3719221169071056E+02
 SKALA_GPW| Active atom-composite max gradient   7.4295345115674513E+02
    28 OT DIIS     0.10E+00  175.6     0.00007441      -238.2806781671 -1.08E-04
 SKALA_GPW| Atom-composite cross support/maxima   2.179973238379E+00   6.083855809392E+01   7.408361033365E+02   1.124707166444E+03
 SKALA_GPW| Active atom-composite XC energy  -3.8471572304013662E+01
 SKALA_GPW| Active atom-composite electrons   5.2000032801090931E+01
 SKALA_GPW| Active atom-composite density range  -2.0438984732810569E-09   6.3223115664626640E+01
 SKALA_GPW| Active atom-composite tau range  -2.0382166114354361E-08   1.1866908897323990E+03
 SKALA_GPW| Active atom-composite tau integral   2.3719189144710384E+02
 SKALA_GPW| Active atom-composite max gradient   7.4294262434976190E+02
    29 OT DIIS     0.10E+00  174.0     0.00006351      -238.2807491736 -7.10E-05
 SKALA_GPW| Atom-composite cross support/maxima   2.179973238379E+00   6.083841754188E+01   7.408337032685E+02   1.124702099387E+03
 SKALA_GPW| Active atom-composite XC energy  -3.8471466556397125E+01
 SKALA_GPW| Active atom-composite electrons   5.2000032814142017E+01
 SKALA_GPW| Active atom-composite density range  -2.0447886187034552E-09   6.3222965629185715E+01
 SKALA_GPW| Active atom-composite tau range  -2.0411200119819769E-08   1.1866906857260644E+03
 SKALA_GPW| Active atom-composite tau integral   2.3719144420507581E+02
 SKALA_GPW| Active atom-composite max gradient   7.4293924095329419E+02
    30 OT DIIS     0.10E+00  173.1     0.00005244      -238.2808118100 -6.26E-05
 SKALA_GPW| Atom-composite cross support/maxima   2.179973238379E+00   6.083829683680E+01   7.408319329967E+02   1.124698846977E+03
 SKALA_GPW| Active atom-composite XC energy  -3.8471399508808361E+01
 SKALA_GPW| Active atom-composite electrons   5.2000032823427922E+01
 SKALA_GPW| Active atom-composite density range  -2.0445533128173697E-09   6.3222838986255368E+01
 SKALA_GPW| Active atom-composite tau range  -2.0409853772970955E-08   1.1866923245158168E+03
 SKALA_GPW| Active atom-composite tau integral   2.3719137910700613E+02
 SKALA_GPW| Active atom-composite max gradient   7.4293831305797505E+02
    31 OT DIIS     0.10E+00  174.0     0.00004553      -238.2808490273 -3.72E-05
 SKALA_GPW| Atom-composite cross support/maxima   2.179973238379E+00   6.083805780882E+01   7.408279885965E+02   1.124691169225E+03
 SKALA_GPW| Active atom-composite XC energy  -3.8471341894429173E+01
 SKALA_GPW| Active atom-composite electrons   5.2000032834593519E+01
 SKALA_GPW| Active atom-composite density range  -2.0434015977341748E-09   6.3222586653090886E+01
 SKALA_GPW| Active atom-composite tau range  -2.0389205853840535E-08   1.1866885232647512E+03
 SKALA_GPW| Active atom-composite tau integral   2.3719137023376342E+02
 SKALA_GPW| Active atom-composite max gradient   7.4293646420708581E+02
    32 OT DIIS     0.10E+00  173.5     0.00003812      -238.2808847580 -3.57E-05
 SKALA_GPW| Atom-composite cross support/maxima   2.179973238379E+00   6.083753258095E+01   7.408200814888E+02   1.124676621388E+03
 SKALA_GPW| Active atom-composite XC energy  -3.8471355622487948E+01
 SKALA_GPW| Active atom-composite electrons   5.2000032845435619E+01
 SKALA_GPW| Active atom-composite density range  -2.0417029941920033E-09   6.3222038399532245E+01
 SKALA_GPW| Active atom-composite tau range  -2.0358074141401920E-08   1.1866879551934978E+03
 SKALA_GPW| Active atom-composite tau integral   2.3719133934086724E+02
 SKALA_GPW| Active atom-composite max gradient   7.4293018444486017E+02
    33 OT DIIS     0.10E+00  174.9     0.00003129      -238.2809146817 -2.99E-05
 SKALA_GPW| Atom-composite cross support/maxima   2.179973238379E+00   6.083745350774E+01   7.408183083940E+02   1.124672514807E+03
 SKALA_GPW| Active atom-composite XC energy  -3.8471376812102847E+01
 SKALA_GPW| Active atom-composite electrons   5.2000032850245169E+01
 SKALA_GPW| Active atom-composite density range  -2.0413186191233240E-09   6.3221952751298041E+01
 SKALA_GPW| Active atom-composite tau range  -2.0350530692302594E-08   1.1866896981492453E+03
 SKALA_GPW| Active atom-composite tau integral   2.3719148966427650E+02
 SKALA_GPW| Active atom-composite max gradient   7.4292956461187396E+02
    34 OT DIIS     0.10E+00  172.5     0.00002893      -238.2809254179 -1.07E-05
 SKALA_GPW| Atom-composite cross support/maxima   2.179973238379E+00   6.083743511364E+01   7.408173928467E+02   1.124669830240E+03
 SKALA_GPW| Active atom-composite XC energy  -3.8471398382081794E+01
 SKALA_GPW| Active atom-composite electrons   5.2000032854787790E+01
 SKALA_GPW| Active atom-composite density range  -2.0409714501893361E-09   6.3221930255461608E+01
 SKALA_GPW| Active atom-composite tau range  -2.0341320338112295E-08   1.1866885625391269E+03
 SKALA_GPW| Active atom-composite tau integral   2.3719160497884297E+02
 SKALA_GPW| Active atom-composite max gradient   7.4292975712605369E+02
    35 OT DIIS     0.10E+00  173.0     0.00002679      -238.2809353514 -9.93E-06
 SKALA_GPW| Atom-composite cross support/maxima   2.179973238379E+00   6.083741112707E+01   7.408166251283E+02   1.124667690616E+03
 SKALA_GPW| Active atom-composite XC energy  -3.8471385437103002E+01
 SKALA_GPW| Active atom-composite electrons   5.2000032860549211E+01
 SKALA_GPW| Active atom-composite density range  -2.0401869401272408E-09   6.3221903018845630E+01
 SKALA_GPW| Active atom-composite tau range  -2.0319593485016031E-08   1.1866888515860730E+03
 SKALA_GPW| Active atom-composite tau integral   2.3719138275136527E+02
 SKALA_GPW| Active atom-composite max gradient   7.4293006188582797E+02
    36 OT DIIS     0.10E+00  175.8     0.00002399      -238.2809466650 -1.13E-05
 SKALA_GPW| Atom-composite cross support/maxima   2.179973238379E+00   6.083734486877E+01   7.408152955455E+02   1.124664706639E+03
 SKALA_GPW| Active atom-composite XC energy  -3.8471347554335594E+01
 SKALA_GPW| Active atom-composite electrons   5.2000032867494333E+01
 SKALA_GPW| Active atom-composite density range  -2.0390392427676942E-09   6.3221831861058249E+01
 SKALA_GPW| Active atom-composite tau range  -2.0290201461292885E-08   1.1866902220070467E+03
 SKALA_GPW| Active atom-composite tau integral   2.3719113390447220E+02
 SKALA_GPW| Active atom-composite max gradient   7.4293013673089422E+02
    37 OT DIIS     0.10E+00  173.1     0.00002134      -238.2809571149 -1.04E-05
 SKALA_GPW| Atom-composite cross support/maxima   2.179973238379E+00   6.083720990258E+01   7.408129767997E+02   1.124660097875E+03
 SKALA_GPW| Active atom-composite XC energy  -3.8471317969919362E+01
 SKALA_GPW| Active atom-composite electrons   5.2000032875214124E+01
 SKALA_GPW| Active atom-composite density range  -2.0372155190587893E-09   6.3221689336771647E+01
 SKALA_GPW| Active atom-composite tau range  -2.0245214793274597E-08   1.1866895399491816E+03
 SKALA_GPW| Active atom-composite tau integral   2.3719106664998714E+02
 SKALA_GPW| Active atom-composite max gradient   7.4293040208717821E+02
    38 OT DIIS     0.10E+00  174.3     0.00001753      -238.2809686439 -1.15E-05
 SKALA_GPW| Atom-composite cross support/maxima   2.179973238379E+00   6.083724556337E+01   7.408129990008E+02   1.124659613736E+03
 SKALA_GPW| Active atom-composite XC energy  -3.8471316903319568E+01
 SKALA_GPW| Active atom-composite electrons   5.2000032878492874E+01
 SKALA_GPW| Active atom-composite density range  -2.0359008819130274E-09   6.3221723832240322E+01
 SKALA_GPW| Active atom-composite tau range  -2.0195463360161541E-08   1.1866876817965804E+03
 SKALA_GPW| Active atom-composite tau integral   2.3719094948630868E+02
 SKALA_GPW| Active atom-composite max gradient   7.4293075929467977E+02
    39 OT DIIS     0.10E+00  174.2     0.00001280      -238.2809783544 -9.71E-06
 SKALA_GPW| Atom-composite cross support/maxima   2.179973238379E+00   6.083730704628E+01   7.408135812009E+02   1.124660211254E+03
 SKALA_GPW| Active atom-composite XC energy  -3.8471312392419293E+01
 SKALA_GPW| Active atom-composite electrons   5.2000032878621845E+01
 SKALA_GPW| Active atom-composite density range  -2.0356723106665595E-09   6.3221786357830354E+01
 SKALA_GPW| Active atom-composite tau range  -2.0183231992048952E-08   1.1866885708746333E+03
 SKALA_GPW| Active atom-composite tau integral   2.3719090899789038E+02
 SKALA_GPW| Active atom-composite max gradient   7.4293127098392586E+02
    40 OT DIIS     0.10E+00  175.8     0.00001143      -238.2809804629 -2.11E-06
 SKALA_GPW| Atom-composite cross support/maxima   2.179973238379E+00   6.083734914675E+01   7.408139214437E+02   1.124660336980E+03
 SKALA_GPW| Active atom-composite XC energy  -3.8471294151966966E+01
 SKALA_GPW| Active atom-composite electrons   5.2000032879228563E+01
 SKALA_GPW| Active atom-composite density range  -2.0353284577652827E-09   6.3221829095772122E+01
 SKALA_GPW| Active atom-composite tau range  -2.0175765852352151E-08   1.1866896181554619E+03
 SKALA_GPW| Active atom-composite tau integral   2.3719086488906427E+02
 SKALA_GPW| Active atom-composite max gradient   7.4293195759471087E+02
    41 OT DIIS     0.10E+00  175.4     0.00000979      -238.2809825240 -2.06E-06
 SKALA_GPW| Atom-composite cross support/maxima   2.179973238379E+00   6.083732610906E+01   7.408136702856E+02   1.124659947945E+03
 SKALA_GPW| Active atom-composite XC energy  -3.8471267257446456E+01
 SKALA_GPW| Active atom-composite electrons   5.2000032881110720E+01
 SKALA_GPW| Active atom-composite density range  -2.0349964826810976E-09   6.3221805566502709E+01
 SKALA_GPW| Active atom-composite tau range  -2.0173477513263933E-08   1.1866882871597236E+03
 SKALA_GPW| Active atom-composite tau integral   2.3719077899963452E+02
 SKALA_GPW| Active atom-composite max gradient   7.4293201717941906E+02
    42 OT DIIS     0.10E+00  173.8     0.00000812      -238.2809844962 -1.97E-06
 SKALA_GPW| Atom-composite cross support/maxima   2.179973238379E+00   6.083730453841E+01   7.408133169085E+02   1.124659265450E+03
 SKALA_GPW| Active atom-composite XC energy  -3.8471254569923261E+01
 SKALA_GPW| Active atom-composite electrons   5.2000032882256875E+01
 SKALA_GPW| Active atom-composite density range  -2.0347899287621321E-09   6.3221782729727984E+01
 SKALA_GPW| Active atom-composite tau range  -2.0175115019304097E-08   1.1866880909473766E+03
 SKALA_GPW| Active atom-composite tau integral   2.3719076611551370E+02
 SKALA_GPW| Active atom-composite max gradient   7.4293191424816632E+02
    43 OT DIIS     0.10E+00  172.4     0.00000720      -238.2809855933 -1.10E-06
 SKALA_GPW| Atom-composite cross support/maxima   2.179973238379E+00   6.083727314469E+01   7.408127024740E+02   1.124657961171E+03
 SKALA_GPW| Active atom-composite XC energy  -3.8471253707493759E+01
 SKALA_GPW| Active atom-composite electrons   5.2000032882596358E+01
 SKALA_GPW| Active atom-composite density range  -2.0346894679548109E-09   6.3221749215079733E+01
 SKALA_GPW| Active atom-composite tau range  -2.0178849641569383E-08   1.1866879184796810E+03
 SKALA_GPW| Active atom-composite tau integral   2.3719079726228105E+02
 SKALA_GPW| Active atom-composite max gradient   7.4293146361729509E+02
    44 OT DIIS     0.10E+00  173.6     0.00000644      -238.2809863091 -7.16E-07
 SKALA_GPW| Atom-composite cross support/maxima   2.179973238379E+00   6.083724367941E+01   7.408121497124E+02   1.124657552584E+03
 SKALA_GPW| Active atom-composite XC energy  -3.8471253270997650E+01
 SKALA_GPW| Active atom-composite electrons   5.2000032882813045E+01
 SKALA_GPW| Active atom-composite density range  -2.0347524145438938E-09   6.3221718071657875E+01
 SKALA_GPW| Active atom-composite tau range  -2.0182584250544014E-08   1.1866879433198465E+03
 SKALA_GPW| Active atom-composite tau integral   2.3719079369298532E+02
 SKALA_GPW| Active atom-composite max gradient   7.4293103430597023E+02
    45 OT DIIS     0.10E+00  176.3     0.00000571      -238.2809869541 -6.45E-07
 SKALA_GPW| Atom-composite cross support/maxima   2.179973238379E+00   6.083722106882E+01   7.408117355801E+02   1.124657061352E+03
 SKALA_GPW| Active atom-composite XC energy  -3.8471250122730901E+01
 SKALA_GPW| Active atom-composite electrons   5.2000032883429078E+01
 SKALA_GPW| Active atom-composite density range  -2.0349265001358192E-09   6.3221694416659432E+01
 SKALA_GPW| Active atom-composite tau range  -2.0185814189457514E-08   1.1866879268993841E+03
 SKALA_GPW| Active atom-composite tau integral   2.3719077726916365E+02
 SKALA_GPW| Active atom-composite max gradient   7.4293083631178001E+02
    46 OT DIIS     0.10E+00  171.5     0.00000476      -238.2809877145 -7.60E-07
 SKALA_GPW| Atom-composite cross support/maxima   2.179973238379E+00   6.083721196015E+01   7.408115765135E+02   1.124656743749E+03
 SKALA_GPW| Active atom-composite XC energy  -3.8471247729021435E+01
 SKALA_GPW| Active atom-composite electrons   5.2000032884133638E+01
 SKALA_GPW| Active atom-composite density range  -2.0349097826262213E-09   6.3221684935238045E+01
 SKALA_GPW| Active atom-composite tau range  -2.0185143013980104E-08   1.1866880881405161E+03
 SKALA_GPW| Active atom-composite tau integral   2.3719082189193347E+02
 SKALA_GPW| Active atom-composite max gradient   7.4293086709527699E+02
    47 OT DIIS     0.10E+00  173.4     0.00000402      -238.2809882747 -5.60E-07
 SKALA_GPW| Atom-composite cross support/maxima   2.179973238379E+00   6.083721682601E+01   7.408117627732E+02   1.124657326488E+03
 SKALA_GPW| Active atom-composite XC energy  -3.8471242700007672E+01
 SKALA_GPW| Active atom-composite electrons   5.2000032884475452E+01
 SKALA_GPW| Active atom-composite density range  -2.0348205828246550E-09   6.3221689962257052E+01
 SKALA_GPW| Active atom-composite tau range  -2.0182824738987131E-08   1.1866880391846735E+03
 SKALA_GPW| Active atom-composite tau integral   2.3719081895322458E+02
 SKALA_GPW| Active atom-composite max gradient   7.4293102425671896E+02
    48 OT DIIS     0.10E+00  174.2     0.00000348      -238.2809885997 -3.25E-07
 SKALA_GPW| Atom-composite cross support/maxima   2.179973238379E+00   6.083722008193E+01   7.408119254837E+02   1.124657540145E+03
 SKALA_GPW| Active atom-composite XC energy  -3.8471235892299283E+01
 SKALA_GPW| Active atom-composite electrons   5.2000032884455351E+01
 SKALA_GPW| Active atom-composite density range  -2.0347076294792562E-09   6.3221693207659740E+01
 SKALA_GPW| Active atom-composite tau range  -2.0179566518367230E-08   1.1866888655334042E+03
 SKALA_GPW| Active atom-composite tau integral   2.3719077866166435E+02
 SKALA_GPW| Active atom-composite max gradient   7.4293133743744102E+02
    49 OT DIIS     0.10E+00  174.5     0.00000298      -238.2809888412 -2.41E-07
 SKALA_GPW| Atom-composite cross support/maxima   2.179973238379E+00   6.083720238206E+01   7.408118268882E+02   1.124657267237E+03
 SKALA_GPW| Active atom-composite XC energy  -3.8471229873067223E+01
 SKALA_GPW| Active atom-composite electrons   5.2000032884244732E+01
 SKALA_GPW| Active atom-composite density range  -2.0345682739357571E-09   6.3221674620874538E+01
 SKALA_GPW| Active atom-composite tau range  -2.0175316174135169E-08   1.1866898709727623E+03
 SKALA_GPW| Active atom-composite tau integral   2.3719075222026720E+02
 SKALA_GPW| Active atom-composite max gradient   7.4293136021829366E+02
    50 OT DIIS     0.10E+00  174.3     0.00000246      -238.2809890596 -2.18E-07
 SKALA_GPW| Atom-composite cross support/maxima   2.179973238379E+00   6.083720126151E+01   7.408119355054E+02   1.124657422936E+03
 SKALA_GPW| Active atom-composite XC energy  -3.8471226726933160E+01
 SKALA_GPW| Active atom-composite electrons   5.2000032884274169E+01
 SKALA_GPW| Active atom-composite density range  -2.0344724091842048E-09   6.3221674008727994E+01
 SKALA_GPW| Active atom-composite tau range  -2.0172701565963320E-08   1.1866903498869970E+03
 SKALA_GPW| Active atom-composite tau integral   2.3719074071577037E+02
 SKALA_GPW| Active atom-composite max gradient   7.4293159916690990E+02
    51 OT DIIS     0.10E+00  172.8     0.00000222      -238.2809891061 -4.65E-08
 SKALA_GPW| Atom-composite cross support/maxima   2.179973238379E+00   6.083719744300E+01   7.408118301485E+02   1.124657149568E+03
 SKALA_GPW| Active atom-composite XC energy  -3.8471223671249753E+01
 SKALA_GPW| Active atom-composite electrons   5.2000032884405947E+01
 SKALA_GPW| Active atom-composite density range  -2.0343603048247366E-09   6.3221669914377323E+01
 SKALA_GPW| Active atom-composite tau range  -2.0169859793340084E-08   1.1866903952333810E+03
 SKALA_GPW| Active atom-composite tau integral   2.3719072019172211E+02
 SKALA_GPW| Active atom-composite max gradient   7.4293162323972138E+02
    52 OT DIIS     0.10E+00  171.9     0.00000197      -238.2809891884 -8.23E-08
 SKALA_GPW| Atom-composite cross support/maxima   2.179973238379E+00   6.083720202668E+01   7.408116944980E+02   1.124656851574E+03
 SKALA_GPW| Active atom-composite XC energy  -3.8471221843351984E+01
 SKALA_GPW| Active atom-composite electrons   5.2000032884384524E+01
 SKALA_GPW| Active atom-composite density range  -2.0342979764701271E-09   6.3221674330123953E+01
 SKALA_GPW| Active atom-composite tau range  -2.0168245833791123E-08   1.1866902013668036E+03
 SKALA_GPW| Active atom-composite tau integral   2.3719070685900601E+02
 SKALA_GPW| Active atom-composite max gradient   7.4293151852454730E+02
    53 OT DIIS     0.10E+00  173.1     0.00000182      -238.2809892195 -3.11E-08
 SKALA_GPW| Atom-composite cross support/maxima   2.179973238379E+00   6.083720435959E+01   7.408116901844E+02   1.124656805964E+03
 SKALA_GPW| Active atom-composite XC energy  -3.8471218564664099E+01
 SKALA_GPW| Active atom-composite electrons   5.2000032884247403E+01
 SKALA_GPW| Active atom-composite density range  -2.0342341606891381E-09   6.3221676544972489E+01
 SKALA_GPW| Active atom-composite tau range  -2.0166466955445571E-08   1.1866899934608471E+03
 SKALA_GPW| Active atom-composite tau integral   2.3719068323228342E+02
 SKALA_GPW| Active atom-composite max gradient   7.4293146702536615E+02
    54 OT DIIS     0.10E+00  173.0     0.00000160      -238.2809892673 -4.78E-08
 SKALA_GPW| Atom-composite cross support/maxima   2.179973238379E+00   6.083719920477E+01   7.408117143259E+02   1.124656816240E+03
 SKALA_GPW| Active atom-composite XC energy  -3.8471215273941468E+01
 SKALA_GPW| Active atom-composite electrons   5.2000032884281389E+01
 SKALA_GPW| Active atom-composite density range  -2.0342025916217108E-09   6.3221671116924398E+01
 SKALA_GPW| Active atom-composite tau range  -2.0165369108560336E-08   1.1866901168183720E+03
 SKALA_GPW| Active atom-composite tau integral   2.3719065993167035E+02
 SKALA_GPW| Active atom-composite max gradient   7.4293153109392642E+02
    55 OT DIIS     0.10E+00  175.0     0.00000135      -238.2809893171 -4.97E-08
 SKALA_GPW| Atom-composite cross support/maxima   2.179973238379E+00   6.083719377636E+01   7.408116611491E+02   1.124656700272E+03
 SKALA_GPW| Active atom-composite XC energy  -3.8471214477982393E+01
 SKALA_GPW| Active atom-composite electrons   5.2000032884487979E+01
 SKALA_GPW| Active atom-composite density range  -2.0341901263559467E-09   6.3221665448417525E+01
 SKALA_GPW| Active atom-composite tau range  -2.0164892270833091E-08   1.1866901849845626E+03
 SKALA_GPW| Active atom-composite tau integral   2.3719066343098973E+02
 SKALA_GPW| Active atom-composite max gradient   7.4293153041643734E+02
    56 OT DIIS     0.10E+00  172.2     0.00000119      -238.2809893491 -3.20E-08
 SKALA_GPW| Atom-composite cross support/maxima   2.179973238379E+00   6.083719314212E+01   7.408116964993E+02   1.124656770662E+03
 SKALA_GPW| Active atom-composite XC energy  -3.8471214408832232E+01
 SKALA_GPW| Active atom-composite electrons   5.2000032884746737E+01
 SKALA_GPW| Active atom-composite density range  -2.0341775358362721E-09   6.3221665119810957E+01
 SKALA_GPW| Active atom-composite tau range  -2.0164590901133217E-08   1.1866900952291421E+03
 SKALA_GPW| Active atom-composite tau integral   2.3719067158794999E+02
 SKALA_GPW| Active atom-composite max gradient   7.4293151642733324E+02
    57 OT DIIS     0.10E+00  172.4     0.00000106      -238.2809893628 -1.37E-08
 SKALA_GPW| Atom-composite cross support/maxima   2.179973238379E+00   6.083719875215E+01   7.408117823625E+02   1.124656932664E+03
 SKALA_GPW| Active atom-composite XC energy  -3.8471214430439545E+01
 SKALA_GPW| Active atom-composite electrons   5.2000032884935308E+01
 SKALA_GPW| Active atom-composite density range  -2.0341654405234690E-09   6.3221670955788518E+01
 SKALA_GPW| Active atom-composite tau range  -2.0164370167116556E-08   1.1866899116986108E+03
 SKALA_GPW| Active atom-composite tau integral   2.3719066820127478E+02
 SKALA_GPW| Active atom-composite max gradient   7.4293160948899947E+02
    58 OT DIIS     0.10E+00  173.0     0.00000095      -238.2809893945 -3.18E-08
 SKALA_GPW| Atom-composite cross support/maxima   2.179973238379E+00   6.083719889110E+01   7.408117848338E+02   1.124656929581E+03
 SKALA_GPW| Active atom-composite XC energy  -3.8471215024767318E+01
 SKALA_GPW| Active atom-composite electrons   5.2000032885006789E+01
 SKALA_GPW| Active atom-composite density range  -2.0341637323560753E-09   6.3221671058331566E+01
 SKALA_GPW| Active atom-composite tau range  -2.0164312230917432E-08   1.1866898978623660E+03
 SKALA_GPW| Active atom-composite tau integral   2.3719066827474370E+02
 SKALA_GPW| Active atom-composite max gradient   7.4293162572939752E+02
    59 OT DIIS     0.10E+00  171.8     0.00000088      -238.2809893984 -3.90E-09
 SKALA_GPW| Atom-composite cross support/maxima   2.179973238379E+00   6.083720072534E+01   7.408118147582E+02   1.124656985487E+03
 SKALA_GPW| Active atom-composite XC energy  -3.8471215443534405E+01
 SKALA_GPW| Active atom-composite electrons   5.2000032885093013E+01
 SKALA_GPW| Active atom-composite density range  -2.0341632556889422E-09   6.3221672963006142E+01
 SKALA_GPW| Active atom-composite tau range  -2.0164251860242722E-08   1.1866899694770552E+03
 SKALA_GPW| Active atom-composite tau integral   2.3719067526754145E+02
 SKALA_GPW| Active atom-composite max gradient   7.4293165772056341E+02
    60 OT DIIS     0.10E+00  172.6     0.00000082      -238.2809894072 -8.77E-09
 SKALA_GPW| Atom-composite cross support/maxima   2.179973238379E+00   6.083720321979E+01   7.408118519114E+02   1.124657052817E+03
 SKALA_GPW| Active atom-composite XC energy  -3.8471215375496698E+01
 SKALA_GPW| Active atom-composite electrons   5.2000032885204426E+01
 SKALA_GPW| Active atom-composite density range  -2.0341586344093605E-09   6.3221675582907324E+01
 SKALA_GPW| Active atom-composite tau range  -2.0164120829581825E-08   1.1866900778368931E+03
 SKALA_GPW| Active atom-composite tau integral   2.3719067977083674E+02
 SKALA_GPW| Active atom-composite max gradient   7.4293169250319590E+02
    61 OT DIIS     0.10E+00  173.4     0.00000077      -238.2809894014  5.78E-09
 SKALA_GPW| Atom-composite cross support/maxima   2.179973238379E+00   6.083720506681E+01   7.408118754533E+02   1.124657083657E+03
 SKALA_GPW| Active atom-composite XC energy  -3.8471215208733511E+01
 SKALA_GPW| Active atom-composite electrons   5.2000032885336580E+01
 SKALA_GPW| Active atom-composite density range  -2.0341478187917082E-09   6.3221677518133490E+01
 SKALA_GPW| Active atom-composite tau range  -2.0163860681157558E-08   1.1866901361109046E+03
 SKALA_GPW| Active atom-composite tau integral   2.3719068179790256E+02
 SKALA_GPW| Active atom-composite max gradient   7.4293172130094274E+02
    62 OT DIIS     0.10E+00  174.4     0.00000070      -238.2809894308 -2.94E-08
 SKALA_GPW| Atom-composite cross support/maxima   2.179973238379E+00   6.083720926392E+01   7.408119291678E+02   1.124657160619E+03
 SKALA_GPW| Active atom-composite XC energy  -3.8471214636785767E+01
 SKALA_GPW| Active atom-composite electrons   5.2000032885393622E+01
 SKALA_GPW| Active atom-composite density range  -2.0341284136979333E-09   6.3221681818697739E+01
 SKALA_GPW| Active atom-composite tau range  -2.0163410407767565E-08   1.1866902137321929E+03
 SKALA_GPW| Active atom-composite tau integral   2.3719068071833078E+02
 SKALA_GPW| Active atom-composite max gradient   7.4293179620602746E+02
    63 OT DIIS     0.10E+00  176.2     0.00000061      -238.2809894357 -4.90E-09
 SKALA_GPW| Atom-composite cross support/maxima   2.179973238379E+00   6.083721266632E+01   7.408119679672E+02   1.124657209208E+03
 SKALA_GPW| Active atom-composite XC energy  -3.8471213521180438E+01
 SKALA_GPW| Active atom-composite electrons   5.2000032885364782E+01
 SKALA_GPW| Active atom-composite density range  -2.0341136465486650E-09   6.3221685270185041E+01
 SKALA_GPW| Active atom-composite tau range  -2.0163054311338141E-08   1.1866903613138418E+03
 SKALA_GPW| Active atom-composite tau integral   2.3719067491694219E+02
 SKALA_GPW| Active atom-composite max gradient   7.4293185685948743E+02
    64 OT DIIS     0.10E+00  173.3     0.00000054      -238.2809894297  6.09E-09
 SKALA_GPW| Atom-composite cross support/maxima   2.179973238379E+00   6.083721227000E+01   7.408119515748E+02   1.124657158037E+03
 SKALA_GPW| Active atom-composite XC energy  -3.8471212484194353E+01
 SKALA_GPW| Active atom-composite electrons   5.2000032885350578E+01
 SKALA_GPW| Active atom-composite density range  -2.0341074062714813E-09   6.3221684812878117E+01
 SKALA_GPW| Active atom-composite tau range  -2.0162858607092069E-08   1.1866903972157882E+03
 SKALA_GPW| Active atom-composite tau integral   2.3719067031488771E+02
 SKALA_GPW| Active atom-composite max gradient   7.4293185636063868E+02
    65 OT DIIS     0.10E+00  171.9     0.00000049      -238.2809894309 -1.23E-09

  *** SCF run converged in    65 steps ***


  Electronic density on regular grids:        -41.1696965953       10.8303034047
  Core density on regular grids:               52.0000000000        0.0000000000
  Hard and soft densities (Lebedev):         -682.2023462819     -671.3720429588
  Total Rho_soft + Rho1_hard - Rho1_soft      -51.9999999184
  Total charge density (r-space):               0.0000000816
  Total Rho_soft + Rho0_soft (g-space):         0.0000000804

  Overlap energy of the core charge distribution:               0.00001267138756
  Self energy of the core charge distribution:               -197.24406305621753
  Core Hamiltonian energy:                                    -35.44613953489134
  Hartree energy:                                             106.21233444836389
  Exchange-correlation energy:                                  0.00000000000000
  Dispersion energy:                                           -0.02465824505707

  GAPW| Exc from hard and soft atomic rho1:                   -38.47121248419435
  GAPW| local Eh = 1 center integrals:                        -73.30726323027709

  Total energy:                                              -238.28098943088591

  outer SCF iter =    1 RMS gradient =   0.49E-06 energy =       -238.2809894309
  outer SCF loop converged in   1 iterations or   65 steps


 !-----------------------------------------------------------------------------!
                     Mulliken Population Analysis

 #  Atom  Element  Kind  Atomic population                           Net charge
       1     C        1          6.151328                             -0.151328
       2     C        1          6.273150                             -0.273150
       3     C        1          6.272597                             -0.272597
       4     H        2          0.914326                              0.085674
       5     H        2          0.956088                              0.043912
       6     H        2          0.899988                              0.100012
       7     H        2          0.910509                              0.089491
       8     H        2          0.905467                              0.094533
       9     H        2          0.899795                              0.100205
      10     H        2          0.911064                              0.088936
      11     H        2          0.905689                              0.094311
      12     C        1          6.151344                             -0.151344
      13     C        1          6.272596                             -0.272596
      14     C        1          6.273154                             -0.273154
      15     H        2          0.956030                              0.043970
      16     H        2          0.914374                              0.085626
      17     H        2          0.899785                              0.100215
      18     H        2          0.905689                              0.094311
      19     H        2          0.911069                              0.088931
      20     H        2          0.900026                              0.099974
      21     H        2          0.905469                              0.094531
      22     H        2          0.910466                              0.089534
 # Total charge                             52.000000                  0.000000

 !-----------------------------------------------------------------------------!

 !-----------------------------------------------------------------------------!
                           Hirshfeld Charges

  #Atom  Element  Kind  Ref Charge     Population                    Net charge
      1       C      1       6.000          6.923                        -0.923
      2       C      1       6.000          7.438                        -1.438
      3       C      1       6.000          7.438                        -1.438
      4       H      2       1.000          0.527                         0.473
      5       H      2       1.000          0.528                         0.472
      6       H      2       1.000          0.521                         0.479
      7       H      2       1.000          0.522                         0.478
      8       H      2       1.000          0.522                         0.478
      9       H      2       1.000          0.521                         0.479
     10       H      2       1.000          0.522                         0.478
     11       H      2       1.000          0.522                         0.478
     12       C      1       6.000          6.923                        -0.923
     13       C      1       6.000          7.438                        -1.438
     14       C      1       6.000          7.438                        -1.438
     15       H      2       1.000          0.528                         0.472
     16       H      2       1.000          0.527                         0.473
     17       H      2       1.000          0.521                         0.479
     18       H      2       1.000          0.522                         0.478
     19       H      2       1.000          0.522                         0.478
     20       H      2       1.000          0.521                         0.479
     21       H      2       1.000          0.522                         0.478
     22       H      2       1.000          0.522                         0.478

  Total Charge                                                            0.030
 !-----------------------------------------------------------------------------!

 ENERGY| Total FORCE_EVAL ( QS ) energy [hartree]           -238.280989430885910

 -------------------------------------------------------------------------------
 -                                                                             -
 -                                DBCSR STATISTICS                             -
 -                                                                             -
 -------------------------------------------------------------------------------
 COUNTER                                    TOTAL       BLAS       SMM       ACC
 flops    26 x    26 x    26             20353008     100.0%      0.0%      0.0%     
 flops    57 x    26 x    26            150737184     100.0%      0.0%      0.0%     
 flops    30 x    26 x    26            211560960     100.0%      0.0%      0.0%     
 flops    57 x    57 x    26            234161928     100.0%      0.0%      0.0%     
 flops    57 x    30 x    26            281698560     100.0%      0.0%      0.0%     
 flops    30 x    57 x    26            281698560     100.0%      0.0%      0.0%     
 flops    26 x    26 x   822            290060784     100.0%      0.0%      0.0%     
 flops    30 x    30 x    26            420076800     100.0%      0.0%      0.0%     
 flops    57 x    26 x    57            863662176     100.0%      0.0%      0.0%     
 flops    57 x    26 x    30           1212157440     100.0%      0.0%      0.0%     
 flops    30 x    26 x    57           1212157440     100.0%      0.0%      0.0%     
 flops    30 x    26 x    30           1701273600     100.0%      0.0%      0.0%     
 flops    57 x    26 x   822           1929635136     100.0%      0.0%      0.0%     
 flops    30 x    26 x   822           2708259840     100.0%      0.0%      0.0%     
 flops inhomo. stacks                           0       0.0%      0.0%      0.0%
 flops total                        11.517493E+09     100.0%      0.0%      0.0%
 flops max/rank                     11.517493E+09     100.0%      0.0%      0.0%
 matmuls inhomo. stacks                         0       0.0%      0.0%      0.0%
 matmuls total                              96342     100.0%      0.0%      0.0%
 number of processed stacks                 20068     100.0%      0.0%      0.0%
 average stack size                                     4.8       0.0       0.0
 marketing flops                    12.619838E+09
 -------------------------------------------------------------------------------
 # multiplications                           1507
 max memory usage/rank              90.913276E+09
 # max total images/rank                        1
 # max 3D layers                                1
 # MPI messages exchanged                       0
 -------------------------------------------------------------------------------

 -------------------------------------------------------------------------------
 -                                                                             -
 -                                GRID STATISTICS                              -
 -                                                                             -
 -------------------------------------------------------------------------------
 LP    KERNEL             BACKEND                              COUNT     PERCENT
 6     collocate ortho    CPU                                 205062      11.25%
 6     integrate ortho    CPU                                 201955      11.08%
 8     collocate ortho    CPU                                 148764       8.16%
 8     integrate ortho    CPU                                 146510       8.04%
 5     collocate ortho    CPU                                 117612       6.46%
 5     integrate ortho    CPU                                 115830       6.36%
 7     collocate ortho    CPU                                 112992       6.20%
 7     integrate ortho    CPU                                 111280       6.11%
 3     collocate ortho    CPU                                 107184       5.88%
 3     integrate ortho    CPU                                 105560       5.79%
 9     collocate ortho    CPU                                  93720       5.14%
 9     integrate ortho    CPU                                  92300       5.07%
 4     collocate ortho    CPU                                  80652       4.43%
 4     integrate ortho    CPU                                  79430       4.36%
 10    collocate ortho    CPU                                  21318       1.17%
 10    integrate ortho    CPU                                  20995       1.15%
 2     collocate ortho    CPU                                  11682       0.64%
 2     integrate ortho    CPU                                  11505       0.63%
 1     collocate ortho    CPU                                   8844       0.49%
 1     integrate ortho    CPU                                   8710       0.48%
 0     collocate ortho    CPU                                   8646       0.47%
 0     integrate ortho    CPU                                   8515       0.47%
 4     collocate general  CPU                                   1430       0.08%
 4     integrate general  CPU                                   1430       0.08%
 0     collocate general  CPU                                     44       0.00%
 0     integrate general  CPU                                     22       0.00%
 -------------------------------------------------------------------------------

 -------------------------------------------------------------------------------
 -                                                                             -
 -                          OFFLOAD MEMPOOL STATISTICS                         -
 -                                                                             -
 -------------------------------------------------------------------------------
 Memory consumption                Number of allocations  Used [MiB]  Size [MiB]
 Host                                                  8        1711           0
 -------------------------------------------------------------------------------

 MEMORY| Estimated peak process memory [MiB]                               63934

 -------------------------------------------------------------------------------
 ----                             MULTIGRID INFO                            ----
 -------------------------------------------------------------------------------
 count for grid        1:          29839          cutoff [a.u.]          320.00
 count for grid        2:          24456          cutoff [a.u.]          106.67
 count for grid        3:          14741          cutoff [a.u.]           35.56
 count for grid        4:           4515          cutoff [a.u.]           11.85
 count for grid        5:            110          cutoff [a.u.]            3.95
 total gridlevel count  :          73661

 -------------------------------------------------------------------------------
 -                                                                             -
 -                           R E F E R E N C E S                               -
 -                                                                             -
 -------------------------------------------------------------------------------
 
 CP2K version 2026.2 (Development Version), the CP2K developers group (2026).
 CP2K is freely available from https://www.cp2k.org/ .
 
 M. Iannuzzi, J. Wilhelm, F. Stein, A. Bussy, H. Elgabarty, D. Golze, A. Hehn, 
 M. Graml, S. Marek, B. Sertcan Gökmen, C. Schran, H. Forbert, R. Z. 
 Khaliullin, A. Kozhevnikov, M. Taillefumier, R. Meli, V. V. Rybkin, M. Brehm, 
 R. Schade, O. Schütt, J. V. Pototschnig, H. Mirhosseini, A. Knüpfer, D. Marx, 
 M. Krack, J. Hutter, T. D. Kühne.
 J. Phys. Chem. B 130, 1237-1310 (2026).
 The CP2K Program Package Made Simple.
 https://doi.org/10.1021/acs.jpcb.5c05851

 L. Wittmann, I. Gordiy, M. Friede, B. Helmich-Paris, S. Grimme, A. Hansen, M. 
 Bursch.
 Phys. Chem. Chem. Phys. 26, 21379-21394 (2024).
 Extension of the D3 and D4 London dispersion corrections to the full actinides 
 series.
 https://doi.org/10.1039/d4cp01514b

 T. D. Kühne, M. Iannuzzi, M. Del Ben, V. V. Rybkin, P. Seewald, F. Stein, T. 
 Laino, R. Z. Khaliullin, O. Schütt, F. Schiffmann, D. Golze, J. Wilhelm, S. 
 Chulkov, M. H. Bani-Hashemian, V. Weber, U. Borstnik, M. Taillefumier, A. S. 
 Jakobovits, A. Lazzaro, H. Pabst, T. Müller, R. Schade, M. Guidon, S. 
 Andermatt, N. Holmberg, G. K. Schenter, A. Hehn, A. Bussy, F. Belleflamme, G. 
 Tabacchi, A. Glöß, M. Lass, I. Bethune, C. J. Mundy, C. Plessl, M. Watkins, 
 J. VandeVondele, M. Krack, J. Hutter.
 J. Chem. Phys. 152, 194103 (2020).
 CP2K: An electronic structure and molecular dynamics software package - 
 Quickstep: Efficient and accurate electronic structure calculations.
 https://doi.org/10.1063/5.0007045

 L. Goerigk, A. Hansen, C. Bauer, S. Ehrlich, A. Najibi, S. Grimme.
 Phys. Chem. Chem. Phys. 19, 32184-32215 (2017).
 A look at the density functional theory zoo with the advanced GMTKN55 database 
 for general main group thermochemistry, kinetics and noncovalent interactions.
 https://doi.org/10.1039/C7CP04913G

 O. Schuett, P. Messmer, J. Hutter, J. VandeVondele.
 Electronic Structure Calculations on Graphics Processing Units, 173-190 (2016).
 GPU-Accelerated Sparse Matrix-Matrix Multiplication for Linear Scaling Density 
 Functional Theory.
 https://doi.org/10.1002/9781118670712.ch8

 U. Borstnik, J. VandeVondele, V. Weber, J. Hutter.
 Parallel Comput. 40, 47-58 (2014).
 Sparse matrix multiplication: The distributed block-compressed sparse row 
 library.
 https://doi.org/10.1016/j.parco.2014.03.012

 S. Grimme, S. Ehrlich, L. Goerigk.
 J. Comput. Chem. 32, 1456 (2011).
 Effect of the damping function in dispersion corrected density functional 
 theory.
 https://doi.org/10.1002/jcc.21759

 S. Grimme, J. Antony, S. Ehrlich, H. Krieg.
 J. Chem. Phys. 132, 154104 (2010).
 A consistent and accurate ab initio parametrization of density functional 
 dispersion correction (DFT-D) for the 94 elements H-Pu.
 https://doi.org/10.1063/1.3382344

 J. VandeVondele, J. Hutter.
 J. Chem. Phys. 127, 114105 (2007).
 Gaussian basis sets for accurate calculations on molecular systems in gas and 
 condensed phases.
 https://doi.org/10.1063/1.2770708

 M. Frigo, S. G. Johnson.
 Proc. IEEE 93, 216-231 (2005).
 The design and implementation of FFTW3.
 https://doi.org/10.1109/JPROC.2004.840301

 J. VandeVondele, J. Hutter.
 J. Chem. Phys. 118, 4365-4369 (2003).
 An efficient orbital transformation method for electronic structure 
 calculations.
 https://doi.org/10.1063/1.1543154

 M. Krack, M. Parrinello.
 Phys. Chem. Chem. Phys. 2, 2105-2112 (2000).
 All-electron ab-initio molecular dynamics.
 https://doi.org/10.1039/b001167n

 G. Lippert, J. Hutter, M. Parrinello.
 Theor. Chem. Acc. 103, 124-140 (1999).
 The Gaussian and augmented-plane-wave density functional method for ab initio 
 molecular dynamics simulations.
 https://doi.org/10.1007/s002140050523


 -------------------------------------------------------------------------------
 -                                                                             -
 -                                T I M I N G                                  -
 -                                                                             -
 -------------------------------------------------------------------------------
 SUBROUTINE                       CALLS  ASD         SELF TIME        TOTAL TIME
                                MAXIMUM       AVERAGE  MAXIMUM  AVERAGE  MAXIMUM
 CP2K                                 1  1.0     1.95     1.95 11385.78 11385.78
 qs_energies                          1  2.0     0.00     0.00 11361.70 11361.70
 scf_env_do_scf                       1  3.0     0.00     0.00 11351.35 11351.35
 scf_env_do_scf_inner_loop           65  4.0     0.07     0.07 11139.36 11139.36
 qs_ks_update_qs_env                 66  5.0     0.00     0.00 10827.20 10827.20
 rebuild_ks_matrix                   65  6.0     0.00     0.00 10827.09 10827.09
 qs_ks_build_kohn_sham_matrix        65  7.0     0.03     0.03 10827.09 10827.09
 calculate_vxc_atom                  65  8.0  3311.20  3311.20 10247.17 10247.17
 skala_atom_torch_backward          195  9.0  1683.43  1683.43  1683.43  1683.43
 calc_tau_atom                     4290  9.0  1644.58  1644.58  1644.58  1644.58
 fft_wrap_pw1pw2                   2027  9.6     0.06     0.06  1131.56  1131.56
 skala_atom_torch_forward           195  9.0     0.08     0.08  1127.67  1127.67
 torch_model_forward_mol_tensor     195 10.0  1127.59  1127.59  1127.59  1127.59
 fft_wrap_pw1pw2_320                979 10.7   364.11   364.11  1084.79  1084.79
 gaVxcgb_GC                        2860  9.0   987.94   987.94   987.94   987.94
 dgaVtaudgb                        2860  9.0   860.87   860.87   860.87   860.87
 qs_rho_update_rho_low               66  5.0     0.00     0.00   528.98   528.98
 calculate_rho_elec                 132  6.0    45.86    45.86   525.85   525.85
 xc_pw_derive                       390  9.5     0.01     0.01   456.10   456.10
 fft3d_s                           2028 11.6   382.68   382.68   382.69   382.69
 density_rs2pw                      132  7.0     0.01     0.01   336.12   336.12
 xc_pw_divergence                    65  9.0     0.00     0.00   307.93   307.93
 pw_scatter_s                       977 12.1   296.50   296.50   296.50   296.50
 -------------------------------------------------------------------------------

 The number of warnings for this run is : 0
 
 -------------------------------------------------------------------------------
  **** **** ******  **  PROGRAM ENDED AT                 2026-09-15 16:11:01.429
 ***** ** ***  *** **   PROGRAM RAN ON                                    cge015
 **    ****   ******    PROGRAM RAN BY                                  kuehne88
 ***** **    ** ** **   PROGRAM PROCESS ID                                506677
  **** **  *******  **  PROGRAM STOPPED IN /bigdata/casus/fwuk/shared/kuehne88-n
                                           ative-skala/diet-ae-basis-controls-20
                                           260915/runs/ADIM6-2/AD3/qzvpp
