 DBCSR| CPU Multiplication driver                                           BLAS (U)
 DBCSR| Multrec recursion limit                                              512 (U)
 DBCSR| Multiplication stack size                                           1000 (D)
 DBCSR| Maximum elements for images                                    UNLIMITED (U)
 DBCSR| Multiplicative factor virtual images                                   1 (U)
 DBCSR| Use multiplication densification                                       T (D)
 DBCSR| Multiplication size stacks                                             3 (U)
 DBCSR| Use memory pool for CPU allocation                                     F (U)
 DBCSR| OMP: Current number of threads                                         8
 DBCSR| OMP: Max number of threads                                             8
 DBCSR| Split modifier for TAS multiplication algorithm                  1.0E+00 (U)


  **** **** ******  **  PROGRAM STARTED AT               2026-09-01 19:34:07.334
 ***** ** ***  *** **   PROGRAM STARTED ON                                cge031
 **    ****   ******    PROGRAM STARTED BY                              kuehne88
 ***** **    ** ** **   PROGRAM PROCESS ID                               3993488
  **** **  *******  **  PROGRAM STARTED IN /data/home2/kuehne88/cp2k-native-skal
                                           a/goldzak12/runs/production/hybrid-di
                                           rect/BP/v03

 CP2K| version string:                 CP2K version 2026.2 (Development Version)
 CP2K| source code revision number:                                   c1bff3eeb8
 CP2K| cp2kflags: omp fftw3 spglib openblas libtorch libtorch_cuda              
 CP2K| is freely available from                            https://www.cp2k.org/
 CP2K| Program compiled at                                   2026-08-23 23:01:13
 CP2K| Program compiled on                                                cge022
 CP2K| Program compiled for                                               x86_64
 CP2K| Data directory path            /home/kuehne88/cp2k-native-skala/cp2k/data
 CP2K| Input file name                                          actual-input.inp

 GLOBAL| Force Environment number                                              1
 GLOBAL| Basis set file name                             BASIS_MOLOPT_UZH_2026.2
 GLOBAL| Potential file name                                POTENTIAL_UZH_2026.2
 GLOBAL| MM Potential file name                                     MM_POTENTIAL
 GLOBAL| Coordinate file name                                      __STD_INPUT__
 GLOBAL| Method name                                                        CP2K
 GLOBAL| Project name                    G12_BP_hybrid-direct_v0p9444444444_k555
 GLOBAL| Run type                                                         ENERGY
 GLOBAL| FFT library                                                       FFTW3
 GLOBAL| Diagonalization library                                       ScaLAPACK
 GLOBAL| Cholesky decomposition library                                ScaLAPACK
 GLOBAL| DGEMM library                                                      BLAS
 GLOBAL| Direct generalized diagonalization requested                          F
 GLOBAL| Orthonormality check for eigenvectors                          DISABLED
 GLOBAL| Matrix multiplication library                                 ScaLAPACK
 GLOBAL| All-to-all communication in single precision                          F
 GLOBAL| FFTs using library dependent lengths                                  F
 GLOBAL| Grid backend                                                       AUTO
 GLOBAL| Global print level                                               MEDIUM
 GLOBAL| MPI I/O enabled                                                       T
 GLOBAL| Total number of message passing processes                             1
 GLOBAL| Number of distributed systems (nodes)                                 1
 GLOBAL| Number of threads for this process                                    8
 GLOBAL| This output is from process                                           0
 GLOBAL| OpenMP stack size per thread (OMP_STACKSIZE)                       256M
 GLOBAL| CPU model name                          AMD EPYC 9654 96-Core Processor

 MEMORY| system memory details [Kb]
 MEMORY|                        rank 0           min           max       average
 MEMORY| MemTotal           1584970592    1584970592    1584970592    1584970592
 MEMORY| MemFree            1154076064    1154076064    1154076064    1154076064
 MEMORY| Buffers                     0             0             0             0
 MEMORY| Cached              322350312     322350312     322350312     322350312
 MEMORY| Slab                  3248180       3248180       3248180       3248180
 MEMORY| SReclaimable          1278048       1278048       1278048       1278048
 MEMORY| MemLikelyFree      1477704424    1477704424    1477704424    1477704424


 *** Fundamental physical constants (SI units) ***

 *** Literature: B. J. Mohr and B. N. Taylor,
 ***             CODATA recommended values of the fundamental physical
 ***             constants: 2006, Web Version 5.1
 ***             http://physics.nist.gov/constants

 Speed of light in vacuum [m/s]                             2.99792458000000E+08
 Magnetic constant or permeability of vacuum [N/A**2]       1.25663706143592E-06
 Electric constant or permittivity of vacuum [F/m]          8.85418781762039E-12
 Planck constant (h) [J*s]                                  6.62606896000000E-34
 Planck constant (h-bar) [J*s]                              1.05457162825177E-34
 Elementary charge [C]                                      1.60217648700000E-19
 Electron mass [kg]                                         9.10938215000000E-31
 Electron g factor [ ]                                     -2.00231930436220E+00
 Proton mass [kg]                                           1.67262163700000E-27
 Fine-structure constant                                    7.29735253760000E-03
 Rydberg constant [1/m]                                     1.09737315685270E+07
 Avogadro constant [1/mol]                                  6.02214179000000E+23
 Boltzmann constant [J/K]                                   1.38065040000000E-23
 Atomic mass unit [kg]                                      1.66053878200000E-27
 Bohr radius [m]                                            5.29177208590000E-11

 *** Conversion factors ***

 [u] -> [a.u.]                                              1.82288848426455E+03
 [Angstrom] -> [Bohr] = [a.u.]                              1.88972613288564E+00
 [a.u.] = [Bohr] -> [Angstrom]                              5.29177208590000E-01
 [a.u.] -> [s]                                              2.41888432650478E-17
 [a.u.] -> [fs]                                             2.41888432650478E-02
 [a.u.] -> [J]                                              4.35974393937059E-18
 [a.u.] -> [N]                                              8.23872205491840E-08
 [a.u.] -> [K]                                              3.15774647902944E+05
 [a.u.] -> [kJ/mol]                                         2.62549961709828E+03
 [a.u.] -> [kcal/mol]                                       6.27509468713739E+02
 [a.u.] -> [Pa]                                             2.94210107994716E+13
 [a.u.] -> [bar]                                            2.94210107994716E+08
 [a.u.] -> [atm]                                            2.90362800883016E+08
 [a.u.] -> [eV]                                             2.72113838565563E+01
 [a.u.] -> [Hz]                                             6.57968392072181E+15
 [a.u.] -> [1/cm] (wave numbers)                            2.19474631370540E+05
 [a.u./Bohr**2] -> [1/cm]                                   5.14048714338585E+03
 

 CELL| Volume [angstrom^3]:                                            87.504859
 CELL| Vector a [angstrom]:       4.440     0.000     0.000   |a| =     4.439602
 CELL| Vector b [angstrom]:       0.000     4.440     0.000   |b| =     4.439602
 CELL| Vector c [angstrom]:       0.000     0.000     4.440   |c| =     4.439602
 CELL| Angle (b,c), alpha [degree]:                                    90.000000
 CELL| Angle (a,c), beta  [degree]:                                    90.000000
 CELL| Angle (a,b), gamma [degree]:                                    90.000000
 CELL| Numerically orthorhombic:                                             YES
 CELL| Periodicity                                                           XYZ

 CELL_REF| Volume [angstrom^3]:                                        87.504859
 CELL_REF| Vector a [angstrom     4.440     0.000     0.000   |a| =     4.439602
 CELL_REF| Vector b [angstrom     0.000     4.440     0.000   |b| =     4.439602
 CELL_REF| Vector c [angstrom     0.000     0.000     4.440   |c| =     4.439602
 CELL_REF| Angle (b,c), alpha [degree]:                                90.000000
 CELL_REF| Angle (a,c), beta  [degree]:                                90.000000
 CELL_REF| Angle (a,b), gamma [degree]:                                90.000000
 CELL_REF| Numerically orthorhombic:                                         YES
 CELL_REF| Periodicity                                                       XYZ

 GENERATE|  Preliminary Number of Bonds generated:                             0
 GENERATE|  Achieved consistency in connectivity generation.

 *******************************************************************************
 *******************************************************************************
 **                                                                           **
 **     #####                         ##              ##                      **
 **    ##   ##            ##          ##              ##                      **
 **   ##     ##                       ##            ######                    **
 **   ##     ##  ##   ##  ##   #####  ##  ##   ####   ##    #####    #####    **
 **   ##     ##  ##   ##  ##  ##      ## ##   ##      ##   ##   ##  ##   ##   **
 **   ##  ## ##  ##   ##  ##  ##      ####     ###    ##   ######   ######    **
 **    ##  ###   ##   ##  ##  ##      ## ##      ##   ##   ##       ##        **
 **     #######   #####   ##   #####  ##  ##  ####    ##    #####   ##        **
 **           ##                                                    ##        **
 **                                                                           **
 **                                                ... make the atoms dance   **
 **                                                                           **
 **            Copyright (C) by CP2K developers group (2000-2026)             **
 **                      J. Chem. Phys. 152, 194103 (2020)                    **
 **                                                                           **
 *******************************************************************************

 DFT| Spin restricted Kohn-Sham (RKS) calculation                            RKS
 DFT| Multiplicity                                                             1
 DFT| Number of spin states                                                    1
 DFT| Charge                                                                   0
 DFT| Self-interaction correction (SIC)                                       NO
 DFT| Cutoffs: density                                              1.000000E-10
 DFT|          gradient                                             1.000000E-10
 DFT|          tau                                                  1.000000E-10
 DFT|          cutoff_smoothing_range                               0.000000E+00
 DFT| XC density smoothing                                                  NONE
 DFT| XC derivatives                                                          PW

 FUNCTIONAL| GAUXC:
 FUNCTIONAL| Functional computed by GauXC Skala model SKALA                     

 vdW POTENTIAL|                                                   Pair Potential
 vdW POTENTIAL|          DFT-D3 (Version 3.1)
 vdW POTENTIAL|          Potential Form: S. Grimme et al, JCP 132: 154104 (2010)
 vdW POTENTIAL|          BJ Damping: S. Grimme et al, JCC 32: 1456 (2011)
 vdW POTENTIAL|          Cutoff Radius [Bohr]:                             37.79
 vdW POTENTIAL|          s6 Scaling Factor:                               1.0000
 vdW POTENTIAL|          a1 Damping Factor:                               0.3981
 vdW POTENTIAL|          s8 Scaling Factor:                               1.9889
 vdW POTENTIAL|          a2 Damping Factor:                               4.4211
 vdW POTENTIAL|          Cutoff for CN calculation:                   0.1000E-05

 QS| Method:                                                                GAPW
 QS| Density plane wave grid type                        NON-SPHERICAL FULLSPACE
 QS| Number of grid levels:                                                    5
 QS| Density cutoff [a.u.]:                                                400.0
 QS| Multi grid cutoff [a.u.]: 1) grid level                               400.0
 QS|                           2) grid level                               133.3
 QS|                           3) grid level                                44.4
 QS|                           4) grid level                                14.8
 QS|                           5) grid level                                 4.9
 QS| Grid level progression factor:                                          3.0
 QS| Relative density cutoff [a.u.]:                                        30.0
 QS| Interaction thresholds: eps_pgf_orb:                                1.0E-06
 QS|                         eps_filter_matrix:                          0.0E+00
 QS|                         eps_core_charge:                            1.0E-14
 QS|                         eps_rho_gspace:                             1.0E-12
 QS|                         eps_rho_rspace:                             1.0E-12
 QS|                         eps_gvg_rspace:                             1.0E-06
 QS|                         eps_ppl:                                    1.0E-02
 QS|                         eps_ppnl:                                   1.0E-08
 QS| GAPW|      XC integration using accurate scheme: Ref. exponent     6.000000
 QS| GAPW|      One center basis extended with primitives (small:s)
 QS| GAPW|                   eps_fit:                                    1.0E-04
 QS| GAPW|                   eps_iso:                                    1.0E-12
 QS| GAPW|                   eps_svd:                                    1.0E-08
 QS| GAPW|                   eps_cpc:                                    1.0E-12
 QS| GAPW|   atom-r-grid: quadrature:                                     GC_LOG
 QS| GAPW|      atom-s-grid:  max l :                                          6
 QS| GAPW|      max_l_rho0 :                                                   4
 QS| GAPW|      At least one kind is NOT PAW, i.e. it has only soft AO 
 QS| GAPW|      The NOT PAW atoms are treated fully GPW


 ATOMIC KIND INFORMATION

  1. Atomic kind: B                                     Number of atoms:       4

     Orbital Basis Set                                       TZVPP-MOLOPT-PBE-ae

       Number of orbital shell sets:                                           2
       Number of orbital shells:                                              11
       Number of primitive Cartesian functions:                               12
       Number of Cartesian basis functions:                                   36
       Number of spherical basis functions:                                   31
       Norm type:                                                              2

       Normalised Cartesian orbitals:

                        Set   Shell   Orbital            Exponent    Coefficient

                          1       1    1s             8564.805310       0.470718
                                                      1284.266148       1.037560
                                                       292.317852       1.564613
                                                        82.773089       2.737633
                                                        26.955680       2.121910
                                                         9.937437       2.701101

                          2       1    1s               22.230570       0.835541
                                                         4.312240       1.325154
                                                         1.676500       0.393631
                                                         0.627002      -0.034128
                                                         0.231037       0.004596
                                                         0.081527       0.004479

                          2       2    2s               22.230570       0.380608
                                                         4.312240      -0.066893
                                                         1.676500       0.111410
                                                         0.627002       0.285761
                                                         0.231037       0.063291
                                                         0.081527       0.019156

                          2       3    3s               22.230570      -1.681688
                                                         4.312240       0.371542
                                                         1.676500      -0.419641
                                                         0.627002      -0.285066
                                                         0.231037       0.332555
                                                         0.081527       0.006030

                          2       4    4s               22.230570       1.905892
                                                         4.312240      -0.760293
                                                         1.676500       0.322739
                                                         0.627002      -0.219216
                                                         0.231037      -0.011328
                                                         0.081527       0.125733

                          2       5    2px              22.230570       4.654930
                                                         4.312240       1.390356
                                                         1.676500       0.900411
                                                         0.627002       0.466960
                                                         0.231037       0.008046
                                                         0.081527       0.001696
                          2       5    2py              22.230570       4.654930
                                                         4.312240       1.390356
                                                         1.676500       0.900411
                                                         0.627002       0.466960
                                                         0.231037       0.008046
                                                         0.081527       0.001696
                          2       5    2pz              22.230570       4.654930
                                                         4.312240       1.390356
                                                         1.676500       0.900411
                                                         0.627002       0.466960
                                                         0.231037       0.008046
                                                         0.081527       0.001696

                          2       6    3px              22.230570      -2.619980
                                                         4.312240      -1.541502
                                                         1.676500      -0.296803
                                                         0.627002       0.042448
                                                         0.231037       0.232786
                                                         0.081527      -0.002807
                          2       6    3py              22.230570      -2.619980
                                                         4.312240      -1.541502
                                                         1.676500      -0.296803
                                                         0.627002       0.042448
                                                         0.231037       0.232786
                                                         0.081527      -0.002807
                          2       6    3pz              22.230570      -2.619980
                                                         4.312240      -1.541502
                                                         1.676500      -0.296803
                                                         0.627002       0.042448
                                                         0.231037       0.232786
                                                         0.081527      -0.002807

                          2       7    4px              22.230570      -8.036820
                                                         4.312240       1.515783
                                                         1.676500      -0.436837
                                                         0.627002       0.008231
                                                         0.231037       0.011408
                                                         0.081527       0.060026
                          2       7    4py              22.230570      -8.036820
                                                         4.312240       1.515783
                                                         1.676500      -0.436837
                                                         0.627002       0.008231
                                                         0.231037       0.011408
                                                         0.081527       0.060026
                          2       7    4pz              22.230570      -8.036820
                                                         4.312240       1.515783
                                                         1.676500      -0.436837
                                                         0.627002       0.008231
                                                         0.231037       0.011408
                                                         0.081527       0.060026

                          2       8    3dx2             22.230570     -74.959133
                                                         4.312240      -1.635688
                                                         1.676500       2.056214
                                                         0.627002       0.387577
                                                         0.231037       0.011346
                                                         0.081527       0.002153
                          2       8    3dxy             22.230570    -129.833027
                                                         4.312240      -2.833095
                                                         1.676500       3.561468
                                                         0.627002       0.671303
                                                         0.231037       0.019651
                                                         0.081527       0.003728
                          2       8    3dxz             22.230570    -129.833027
                                                         4.312240      -2.833095
                                                         1.676500       3.561468
                                                         0.627002       0.671303
                                                         0.231037       0.019651
                                                         0.081527       0.003728
                          2       8    3dy2             22.230570     -74.959133
                                                         4.312240      -1.635688
                                                         1.676500       2.056214
                                                         0.627002       0.387577
                                                         0.231037       0.011346
                                                         0.081527       0.002153
                          2       8    3dyz             22.230570    -129.833027
                                                         4.312240      -2.833095
                                                         1.676500       3.561468
                                                         0.627002       0.671303
                                                         0.231037       0.019651
                                                         0.081527       0.003728
                          2       8    3dz2             22.230570     -74.959133
                                                         4.312240      -1.635688
                                                         1.676500       2.056214
                                                         0.627002       0.387577
                                                         0.231037       0.011346
                                                         0.081527       0.002153

                          2       9    4dx2             22.230570     100.877982
                                                         4.312240       1.670808
                                                         1.676500      -1.711794
                                                         0.627002       0.288898
                                                         0.231037       0.105095
                                                         0.081527      -0.002553
                          2       9    4dxy             22.230570     174.725791
                                                         4.312240       2.893924
                                                         1.676500      -2.964914
                                                         0.627002       0.500386
                                                         0.231037       0.182030
                                                         0.081527      -0.004422
                          2       9    4dxz             22.230570     174.725791
                                                         4.312240       2.893924
                                                         1.676500      -2.964914
                                                         0.627002       0.500386
                                                         0.231037       0.182030
                                                         0.081527      -0.004422
                          2       9    4dy2             22.230570     100.877982
                                                         4.312240       1.670808
                                                         1.676500      -1.711794
                                                         0.627002       0.288898
                                                         0.231037       0.105095
                                                         0.081527      -0.002553
                          2       9    4dyz             22.230570     174.725791
                                                         4.312240       2.893924
                                                         1.676500      -2.964914
                                                         0.627002       0.500386
                                                         0.231037       0.182030
                                                         0.081527      -0.004422
                          2       9    4dz2             22.230570     100.877982
                                                         4.312240       1.670808
                                                         1.676500      -1.711794
                                                         0.627002       0.288898
                                                         0.231037       0.105095
                                                         0.081527      -0.002553

                          2      10    4fx3             22.230570      20.762424
                                                         4.312240      -0.290033
                                                         1.676500       0.585978
                                                         0.627002       0.373794
                                                         0.231037       0.018935
                                                         0.081527      -0.000984
                          2      10    4fx2y            22.230570      46.426191
                                                         4.312240      -0.648533
                                                         1.676500       1.310286
                                                         0.627002       0.835829
                                                         0.231037       0.042339
                                                         0.081527      -0.002200
                          2      10    4fx2z            22.230570      46.426191
                                                         4.312240      -0.648533
                                                         1.676500       1.310286
                                                         0.627002       0.835829
                                                         0.231037       0.042339
                                                         0.081527      -0.002200
                          2      10    4fxy2            22.230570      46.426191
                                                         4.312240      -0.648533
                                                         1.676500       1.310286
                                                         0.627002       0.835829
                                                         0.231037       0.042339
                                                         0.081527      -0.002200
                          2      10    4fxyz            22.230570      80.412522
                                                         4.312240      -1.123293
                                                         1.676500       2.269481
                                                         0.627002       1.447698
                                                         0.231037       0.073333
                                                         0.081527      -0.003810
                          2      10    4fxz2            22.230570      46.426191
                                                         4.312240      -0.648533
                                                         1.676500       1.310286
                                                         0.627002       0.835829
                                                         0.231037       0.042339
                                                         0.081527      -0.002200
                          2      10    4fy3             22.230570      20.762424
                                                         4.312240      -0.290033
                                                         1.676500       0.585978
                                                         0.627002       0.373794
                                                         0.231037       0.018935
                                                         0.081527      -0.000984
                          2      10    4fy2z            22.230570      46.426191
                                                         4.312240      -0.648533
                                                         1.676500       1.310286
                                                         0.627002       0.835829
                                                         0.231037       0.042339
                                                         0.081527      -0.002200
                          2      10    4fyz2            22.230570      46.426191
                                                         4.312240      -0.648533
                                                         1.676500       1.310286
                                                         0.627002       0.835829
                                                         0.231037       0.042339
                                                         0.081527      -0.002200
                          2      10    4fz3             22.230570      20.762424
                                                         4.312240      -0.290033
                                                         1.676500       0.585978
                                                         0.627002       0.373794
                                                         0.231037       0.018935
                                                         0.081527      -0.000984

       Atomic covalent radius [Angstrom]:                                  0.820

       Atomic van der Waals radius [Angstrom]:                             1.920

     The atoms of this atomic kind are PAW atoms (GAPW):
       Hard Gaussian function radius:                                      1.520
       Rho0 radius:                                                        1.520
       Maximum GTO radius used for PAW projector construction:            24.566

     GAPW Soft Basis Set                                TZVPP-MOLOPT-PBE-ae_soft

       Number of orbital shell sets:                                           2
       Number of orbital shells:                                              11
       Number of primitive Cartesian functions:                                5
       Number of Cartesian basis functions:                                   36
       Number of spherical basis functions:                                   31
       Norm type:                                                              2

       Normalised Cartesian orbitals:

                        Set   Shell   Orbital            Exponent    Coefficient

                          1       1    1s         

                          2       1    1s                4.312240       0.000000
                                                         1.676500       0.393631
                                                         0.627002      -0.034128
                                                         0.231037       0.004596
                                                         0.081527       0.004479

                          2       2    2s                4.312240       0.000000
                                                         1.676500       0.111410
                                                         0.627002       0.285761
                                                         0.231037       0.063291
                                                         0.081527       0.019156

                          2       3    3s                4.312240       0.000000
                                                         1.676500      -0.419641
                                                         0.627002      -0.285066
                                                         0.231037       0.332555
                                                         0.081527       0.006030

                          2       4    4s                4.312240       0.000000
                                                         1.676500       0.322739
                                                         0.627002      -0.219216
                                                         0.231037      -0.011328
                                                         0.081527       0.125733

                          2       5    2px               4.312240       0.000000
                                                         1.676500       0.900411
                                                         0.627002       0.466960
                                                         0.231037       0.008046
                                                         0.081527       0.001696
                          2       5    2py               4.312240       0.000000
                                                         1.676500       0.900411
                                                         0.627002       0.466960
                                                         0.231037       0.008046
                                                         0.081527       0.001696
                          2       5    2pz               4.312240       0.000000
                                                         1.676500       0.900411
                                                         0.627002       0.466960
                                                         0.231037       0.008046
                                                         0.081527       0.001696

                          2       6    3px               4.312240       0.000000
                                                         1.676500      -0.296803
                                                         0.627002       0.042448
                                                         0.231037       0.232786
                                                         0.081527      -0.002807
                          2       6    3py               4.312240       0.000000
                                                         1.676500      -0.296803
                                                         0.627002       0.042448
                                                         0.231037       0.232786
                                                         0.081527      -0.002807
                          2       6    3pz               4.312240       0.000000
                                                         1.676500      -0.296803
                                                         0.627002       0.042448
                                                         0.231037       0.232786
                                                         0.081527      -0.002807

                          2       7    4px               4.312240       0.000000
                                                         1.676500      -0.436837
                                                         0.627002       0.008231
                                                         0.231037       0.011408
                                                         0.081527       0.060026
                          2       7    4py               4.312240       0.000000
                                                         1.676500      -0.436837
                                                         0.627002       0.008231
                                                         0.231037       0.011408
                                                         0.081527       0.060026
                          2       7    4pz               4.312240       0.000000
                                                         1.676500      -0.436837
                                                         0.627002       0.008231
                                                         0.231037       0.011408
                                                         0.081527       0.060026

                          2       8    3dx2              4.312240      -1.635688
                                                         1.676500       2.056214
                                                         0.627002       0.387577
                                                         0.231037       0.011346
                                                         0.081527       0.002153
                          2       8    3dxy              4.312240      -2.833095
                                                         1.676500       3.561468
                                                         0.627002       0.671303
                                                         0.231037       0.019651
                                                         0.081527       0.003728
                          2       8    3dxz              4.312240      -2.833095
                                                         1.676500       3.561468
                                                         0.627002       0.671303
                                                         0.231037       0.019651
                                                         0.081527       0.003728
                          2       8    3dy2              4.312240      -1.635688
                                                         1.676500       2.056214
                                                         0.627002       0.387577
                                                         0.231037       0.011346
                                                         0.081527       0.002153
                          2       8    3dyz              4.312240      -2.833095
                                                         1.676500       3.561468
                                                         0.627002       0.671303
                                                         0.231037       0.019651
                                                         0.081527       0.003728
                          2       8    3dz2              4.312240      -1.635688
                                                         1.676500       2.056214
                                                         0.627002       0.387577
                                                         0.231037       0.011346
                                                         0.081527       0.002153

                          2       9    4dx2              4.312240       1.670808
                                                         1.676500      -1.711794
                                                         0.627002       0.288898
                                                         0.231037       0.105095
                                                         0.081527      -0.002553
                          2       9    4dxy              4.312240       2.893924
                                                         1.676500      -2.964914
                                                         0.627002       0.500386
                                                         0.231037       0.182030
                                                         0.081527      -0.004422
                          2       9    4dxz              4.312240       2.893924
                                                         1.676500      -2.964914
                                                         0.627002       0.500386
                                                         0.231037       0.182030
                                                         0.081527      -0.004422
                          2       9    4dy2              4.312240       1.670808
                                                         1.676500      -1.711794
                                                         0.627002       0.288898
                                                         0.231037       0.105095
                                                         0.081527      -0.002553
                          2       9    4dyz              4.312240       2.893924
                                                         1.676500      -2.964914
                                                         0.627002       0.500386
                                                         0.231037       0.182030
                                                         0.081527      -0.004422
                          2       9    4dz2              4.312240       1.670808
                                                         1.676500      -1.711794
                                                         0.627002       0.288898
                                                         0.231037       0.105095
                                                         0.081527      -0.002553

                          2      10    4fx3              4.312240      -0.290033
                                                         1.676500       0.585978
                                                         0.627002       0.373794
                                                         0.231037       0.018935
                                                         0.081527      -0.000984
                          2      10    4fx2y             4.312240      -0.648533
                                                         1.676500       1.310286
                                                         0.627002       0.835829
                                                         0.231037       0.042339
                                                         0.081527      -0.002200
                          2      10    4fx2z             4.312240      -0.648533
                                                         1.676500       1.310286
                                                         0.627002       0.835829
                                                         0.231037       0.042339
                                                         0.081527      -0.002200
                          2      10    4fxy2             4.312240      -0.648533
                                                         1.676500       1.310286
                                                         0.627002       0.835829
                                                         0.231037       0.042339
                                                         0.081527      -0.002200
                          2      10    4fxyz             4.312240      -1.123293
                                                         1.676500       2.269481
                                                         0.627002       1.447698
                                                         0.231037       0.073333
                                                         0.081527      -0.003810
                          2      10    4fxz2             4.312240      -0.648533
                                                         1.676500       1.310286
                                                         0.627002       0.835829
                                                         0.231037       0.042339
                                                         0.081527      -0.002200
                          2      10    4fy3              4.312240      -0.290033
                                                         1.676500       0.585978
                                                         0.627002       0.373794
                                                         0.231037       0.018935
                                                         0.081527      -0.000984
                          2      10    4fy2z             4.312240      -0.648533
                                                         1.676500       1.310286
                                                         0.627002       0.835829
                                                         0.231037       0.042339
                                                         0.081527      -0.002200
                          2      10    4fyz2             4.312240      -0.648533
                                                         1.676500       1.310286
                                                         0.627002       0.835829
                                                         0.231037       0.042339
                                                         0.081527      -0.002200
                          2      10    4fz3              4.312240      -0.290033
                                                         1.676500       0.585978
                                                         0.627002       0.373794
                                                         0.231037       0.018935
                                                         0.081527      -0.000984

     AE Potential information for                                            ALL

       Description:                                       All-electron potential
                                          Krack, Parrinello, PCCP 2, 2105 (2000)

       Gaussian exponent of the core charge distribution:               2.655410
       Electronic configuration (s p d ...):                           4   1   0

  2. Atomic kind: P                                     Number of atoms:       4

     Orbital Basis Set                                   TZV2P-MOLOPT-PBE-GTH-q5

       Number of orbital shell sets:                                           1
       Number of orbital shells:                                               9
       Number of primitive Cartesian functions:                                4
       Number of Cartesian basis functions:                                   34
       Number of spherical basis functions:                                   29
       Norm type:                                                              2

       Normalised Cartesian orbitals:

                        Set   Shell   Orbital            Exponent    Coefficient

                          1       1    2s                1.529974       0.330831
                                                         0.572156      -0.121865
                                                         0.221473      -0.178453
                                                         0.075885      -0.020408

                          1       2    3s                1.529974       0.353664
                                                         0.572156      -0.203423
                                                         0.221473       0.005821
                                                         0.075885       0.111796

                          1       3    4s                1.529974      -1.067157
                                                         0.572156       0.214068
                                                         0.221473      -0.177211
                                                         0.075885       0.057956

                          1       4    3px               1.529974       0.268378
                                                         0.572156      -0.381409
                                                         0.221473      -0.118831
                                                         0.075885      -0.003877
                          1       4    3py               1.529974       0.268378
                                                         0.572156      -0.381409
                                                         0.221473      -0.118831
                                                         0.075885      -0.003877
                          1       4    3pz               1.529974       0.268378
                                                         0.572156      -0.381409
                                                         0.221473      -0.118831
                                                         0.075885      -0.003877

                          1       5    4px               1.529974       0.260904
                                                         0.572156      -0.330883
                                                         0.221473       0.080611
                                                         0.075885       0.048633
                          1       5    4py               1.529974       0.260904
                                                         0.572156      -0.330883
                                                         0.221473       0.080611
                                                         0.075885       0.048633
                          1       5    4pz               1.529974       0.260904
                                                         0.572156      -0.330883
                                                         0.221473       0.080611
                                                         0.075885       0.048633

                          1       6    5px               1.529974       0.623329
                                                         0.572156       0.730611
                                                         0.221473      -0.234303
                                                         0.075885       0.056701
                          1       6    5py               1.529974       0.623329
                                                         0.572156       0.730611
                                                         0.221473      -0.234303
                                                         0.075885       0.056701
                          1       6    5pz               1.529974       0.623329
                                                         0.572156       0.730611
                                                         0.221473      -0.234303
                                                         0.075885       0.056701

                          1       7    4dx2              1.529974       0.641565
                                                         0.572156       0.349115
                                                         0.221473       0.047365
                                                         0.075885       0.000033
                          1       7    4dxy              1.529974       1.111223
                                                         0.572156       0.604685
                                                         0.221473       0.082039
                                                         0.075885       0.000058
                          1       7    4dxz              1.529974       1.111223
                                                         0.572156       0.604685
                                                         0.221473       0.082039
                                                         0.075885       0.000058
                          1       7    4dy2              1.529974       0.641565
                                                         0.572156       0.349115
                                                         0.221473       0.047365
                                                         0.075885       0.000033
                          1       7    4dyz              1.529974       1.111223
                                                         0.572156       0.604685
                                                         0.221473       0.082039
                                                         0.075885       0.000058
                          1       7    4dz2              1.529974       0.641565
                                                         0.572156       0.349115
                                                         0.221473       0.047365
                                                         0.075885       0.000033

                          1       8    5dx2              1.529974      -0.416790
                                                         0.572156       0.702038
                                                         0.221473      -0.180280
                                                         0.075885       0.002500
                          1       8    5dxy              1.529974      -0.721901
                                                         0.572156       1.215965
                                                         0.221473      -0.312254
                                                         0.075885       0.004331
                          1       8    5dxz              1.529974      -0.721901
                                                         0.572156       1.215965
                                                         0.221473      -0.312254
                                                         0.075885       0.004331
                          1       8    5dy2              1.529974      -0.416790
                                                         0.572156       0.702038
                                                         0.221473      -0.180280
                                                         0.075885       0.002500
                          1       8    5dyz              1.529974      -0.721901
                                                         0.572156       1.215965
                                                         0.221473      -0.312254
                                                         0.075885       0.004331
                          1       8    5dz2              1.529974      -0.416790
                                                         0.572156       0.702038
                                                         0.221473      -0.180280
                                                         0.075885       0.002500

                          1       9    5fx3              1.529974       0.452264
                                                         0.572156       0.259688
                                                         0.221473       0.022786
                                                         0.075885      -0.000501
                          1       9    5fx2y             1.529974       1.011293
                                                         0.572156       0.580680
                                                         0.221473       0.050951
                                                         0.075885      -0.001120
                          1       9    5fx2z             1.529974       1.011293
                                                         0.572156       0.580680
                                                         0.221473       0.050951
                                                         0.075885      -0.001120
                          1       9    5fxy2             1.529974       1.011293
                                                         0.572156       0.580680
                                                         0.221473       0.050951
                                                         0.075885      -0.001120
                          1       9    5fxyz             1.529974       1.751610
                                                         0.572156       1.005767
                                                         0.221473       0.088251
                                                         0.075885      -0.001939
                          1       9    5fxz2             1.529974       1.011293
                                                         0.572156       0.580680
                                                         0.221473       0.050951
                                                         0.075885      -0.001120
                          1       9    5fy3              1.529974       0.452264
                                                         0.572156       0.259688
                                                         0.221473       0.022786
                                                         0.075885      -0.000501
                          1       9    5fy2z             1.529974       1.011293
                                                         0.572156       0.580680
                                                         0.221473       0.050951
                                                         0.075885      -0.001120
                          1       9    5fyz2             1.529974       1.011293
                                                         0.572156       0.580680
                                                         0.221473       0.050951
                                                         0.075885      -0.001120
                          1       9    5fz3              1.529974       0.452264
                                                         0.572156       0.259688
                                                         0.221473       0.022786
                                                         0.075885      -0.000501

       Atomic covalent radius [Angstrom]:                                  1.060

       Atomic van der Waals radius [Angstrom]:                             1.800

     GTH Potential information for                                    GTH-PBE-q5

       Description:                       Goedecker-Teter-Hutter pseudopotential
                                           Goedecker et al., PRB 54, 1703 (1996)
                                          Hartwigsen et al., PRB 58, 3641 (1998)
                                                      Krack, TCA 114, 145 (2005)

       Gaussian exponent of the core charge distribution:               2.702572
       Electronic configuration (s p d ...):                       2   3   0   0

       Parameters of the local part of the GTH pseudopotential:

                          rloc        C1          C2          C3          C4
                        0.430127   -5.862875

       Parameters of the non-local part of the GTH pseudopotential:

                   l      r(l)      h(i,j,l)

                   0    0.396379   11.009068   -3.470357
                                   -3.470357    4.480230
                   1    0.448294    3.056058


 MOLECULE KIND INFORMATION


 All atoms are their own molecule, skipping detailed information


 TOTAL NUMBERS AND MAXIMUM NUMBERS

  Total number of            - Atomic kinds:                                   2
                             - Atoms:                                          8
                             - Shell sets:                                    12
                             - Shells:                                        80
                             - Primitive Cartesian functions:                 64
                             - Cartesian basis functions:                    280
                             - Spherical basis functions:                    240

  Maximum angular momentum of- Orbital basis functions:                        3
                             - Local part of the GTH pseudopotential:          0
                             - Non-local part of the GTH pseudopotential:      2


 MODULE QUICKSTEP: ATOMIC COORDINATES IN ANGSTROM

   Atom Kind Element         X             Y             Z       Z(eff)     Mass
      1    1 B     5      0.000000      0.000000      0.000000   5.0000  10.8110
      2    1 B     5      0.000000      2.219801      2.219801   5.0000  10.8110
      3    1 B     5      2.219801      0.000000      2.219801   5.0000  10.8110
      4    1 B     5      2.219801      2.219801      0.000000   5.0000  10.8110
      5    2 P    15      1.109901      1.109901      1.109901   5.0000  30.9738
      6    2 P    15      1.109901      3.329702      3.329702   5.0000  30.9738
      7    2 P    15      3.329702      1.109901      3.329702   5.0000  30.9738
      8    2 P    15      3.329702      3.329702      1.109901   5.0000  30.9738



 SCF PARAMETERS         Density guess:                                    ATOMIC
                        --------------------------------------------------------
                        max_scf:                                             200
                        max_scf_history:                                       0
                        max_diis:                                              4
                        --------------------------------------------------------
                        eps_scf:                                        5.00E-06
                        eps_scf_history:                                0.00E+00
                        eps_diis:                                       1.00E-01
                        eps_eigval:                                     1.00E-05
                        --------------------------------------------------------
                        level_shift [a.u.]:                             0.000000
                        --------------------------------------------------------
                        Mixing method:                           DIRECT_P_MIXING
                        --------------------------------------------------------
                        Outer loop SCF in use 
                        No variables optimised in outer loop
                        eps_scf                                         5.00E-06
                        max_scf                                                5
                        No outer loop optimization
                        step_size                                       5.00E-01

 PW_GRID| Information for grid number                                          1
 PW_GRID| Cutoff [a.u.]                                                    400.0
 PW_GRID| spherical cutoff:                                                   NO
 PW_GRID|   Bounds   1            -37      37                Points:          75
 PW_GRID|   Bounds   2            -37      37                Points:          75
 PW_GRID|   Bounds   3            -37      37                Points:          75
 PW_GRID| Volume element (a.u.^3)  0.1400E-02     Volume (a.u.^3)       590.5121
 PW_GRID| Grid span                                                    FULLSPACE

 PW_GRID| Information for grid number                                          2
 PW_GRID| Number of the reference grid                                         1
 PW_GRID| Cutoff [a.u.]                                                    133.3
 PW_GRID| spherical cutoff:                                                   NO
 PW_GRID|   Bounds   1            -22      22                Points:          45
 PW_GRID|   Bounds   2            -22      22                Points:          45
 PW_GRID|   Bounds   3            -22      22                Points:          45
 PW_GRID| Volume element (a.u.^3)  0.6480E-02     Volume (a.u.^3)       590.5121
 PW_GRID| Grid span                                                    FULLSPACE

 PW_GRID| Information for grid number                                          3
 PW_GRID| Number of the reference grid                                         1
 PW_GRID| Cutoff [a.u.]                                                     44.4
 PW_GRID| spherical cutoff:                                                   NO
 PW_GRID|   Bounds   1            -12      12                Points:          25
 PW_GRID|   Bounds   2            -12      12                Points:          25
 PW_GRID|   Bounds   3            -12      12                Points:          25
 PW_GRID| Volume element (a.u.^3)  0.3779E-01     Volume (a.u.^3)       590.5121
 PW_GRID| Grid span                                                    FULLSPACE

 PW_GRID| Information for grid number                                          4
 PW_GRID| Number of the reference grid                                         1
 PW_GRID| Cutoff [a.u.]                                                     14.8
 PW_GRID| spherical cutoff:                                                   NO
 PW_GRID|   Bounds   1             -7       7                Points:          15
 PW_GRID|   Bounds   2             -7       7                Points:          15
 PW_GRID|   Bounds   3             -7       7                Points:          15
 PW_GRID| Volume element (a.u.^3)  0.1750         Volume (a.u.^3)       590.5121
 PW_GRID| Grid span                                                    FULLSPACE

 PW_GRID| Information for grid number                                          5
 PW_GRID| Number of the reference grid                                         1
 PW_GRID| Cutoff [a.u.]                                                      4.9
 PW_GRID| spherical cutoff:                                                   NO
 PW_GRID|   Bounds   1             -4       4                Points:           9
 PW_GRID|   Bounds   2             -4       4                Points:           9
 PW_GRID|   Bounds   3             -4       4                Points:           9
 PW_GRID| Volume element (a.u.^3)  0.8100         Volume (a.u.^3)       590.5121
 PW_GRID| Grid span                                                    FULLSPACE

 POISSON| Solver                                                        PERIODIC
 POISSON| Periodicity                                                        XYZ

 RS_GRID| Information for grid number                                          1
 RS_GRID|   Bounds   1            -37      37                Points:          75
 RS_GRID|   Bounds   2            -37      37                Points:          75
 RS_GRID|   Bounds   3            -37      37                Points:          75

 RS_GRID| Information for grid number                                          2
 RS_GRID|   Bounds   1            -22      22                Points:          45
 RS_GRID|   Bounds   2            -22      22                Points:          45
 RS_GRID|   Bounds   3            -22      22                Points:          45

 RS_GRID| Information for grid number                                          3
 RS_GRID|   Bounds   1            -12      12                Points:          25
 RS_GRID|   Bounds   2            -12      12                Points:          25
 RS_GRID|   Bounds   3            -12      12                Points:          25

 RS_GRID| Information for grid number                                          4
 RS_GRID|   Bounds   1             -7       7                Points:          15
 RS_GRID|   Bounds   2             -7       7                Points:          15
 RS_GRID|   Bounds   3             -7       7                Points:          15

 RS_GRID| Information for grid number                                          5
 RS_GRID|   Bounds   1             -4       4                Points:           9
 RS_GRID|   Bounds   2             -4       4                Points:           9
 RS_GRID|   Bounds   3             -4       4                Points:           9

 *******************************************************************************
                                    Kpoints
 *******************************************************************************
 BRILLOUIN| K-point scheme                                        Monkhorst-Pack
 BRILLOUIN| K-Point grid                                             5    5    5
 BRILLOUIN| Gamma-centered k-point mesh                                     ON
 BRILLOUIN| K-point symmetry accuracy                               0.100000E-07
 BRILLOUIN| K-Point point group symmetrization                                ON
 BRILLOUIN| Symmetry backend                                               K290
 BRILLOUIN| Symmetry reduction method                                      K290
 BRILLOUIN| Wavefunction type                                            COMPLEX
 BRILLOUIN| List of Kpoints [2 Pi/Bohr]                                       10
 BRILLOUIN| Number           Weight            X              Y              Z
 BRILLOUIN|     1           0.06400       -0.40000       -0.40000       -0.40000
 BRILLOUIN|     2           0.19200       -0.40000       -0.40000       -0.20000
 BRILLOUIN|     3           0.09600       -0.40000       -0.40000        0.00000
 BRILLOUIN|     4           0.19200       -0.40000       -0.20000       -0.20000
 BRILLOUIN|     5           0.19200       -0.40000       -0.20000        0.00000
 BRILLOUIN|     6           0.04800       -0.40000        0.00000        0.00000
 BRILLOUIN|     7           0.06400       -0.20000       -0.20000       -0.20000
 BRILLOUIN|     8           0.09600       -0.20000       -0.20000        0.00000
 BRILLOUIN|     9           0.04800       -0.20000        0.00000        0.00000
 BRILLOUIN|    10           0.00800        0.00000        0.00000        0.00000
 *******************************************************************************

 Extrapolation method: initial_guess

 Atomic guess: The first density matrix is obtained in terms of atomic orbitals
               and electronic configurations assigned to each atomic kind

 Guess for atomic kind: B

 Electronic structure
    Total number of core electrons                                          0.00
    Total number of valence electrons                                       5.00
    Total number of electrons                                               5.00
    Multiplicity                                                   not specified
    S      2.00  2.00
    P      1.00


 *******************************************************************************
                  Iteration          Convergence                     Energy [au]
 *******************************************************************************
                          1        0.411928E-01                 -24.323923629747
                          2        0.122390E-01                 -24.324290738342
                          3        0.355038E-03                 -24.324332537194
                          4        0.277771E-04                 -24.324332606610
                          5        0.229277E-07                 -24.324332606963

 Energy components [Hartree]           Total Energy ::          -24.324332606963
                                        Band Energy ::          -13.708603228466
                                     Kinetic Energy ::           24.295053713074
                                   Potential Energy ::          -48.619386320038
                                      Virial (-V/T) ::            2.001205138060
                                        Core Energy ::          -32.503315210572
                                          XC Energy ::           -3.562631617554
                                     Coulomb Energy ::           11.741614221163

 Orbital energies  State     L     Occupation   Energy[a.u.]          Energy[eV]

                       1     0          2.000      -6.497314         -176.800916
                       2     0          2.000      -0.313185           -8.522195

                       1     1          1.000      -0.087605           -2.383843


 Total Electron Density at R=0:                                        68.324305

 Guess for atomic kind: P

 Electronic structure
    Total number of core electrons                                         10.00
    Total number of valence electrons                                       5.00
    Total number of electrons                                              15.00
    Multiplicity                                                   not specified
    S   [  2.00  2.00] 2.00
    P   [  6.00] 3.00


 *******************************************************************************
                  Iteration          Convergence                     Energy [au]
 *******************************************************************************
                          1        0.604309E-01                  -6.293597000089
                          2        0.346626E-01                  -6.294929923595
                          3        0.503248E-04                  -6.295587436512
                          4        0.695941E-05                  -6.295587437917
                          5        0.735456E-08                  -6.295587437943

 Energy components [Hartree]           Total Energy ::           -6.295587437943
                                        Band Energy ::           -1.516045246136
                                     Kinetic Energy ::            2.372112684896
                                   Potential Energy ::           -8.667700122839
                                      Virial (-V/T) ::            3.654000156918
                                        Core Energy ::          -10.063435457339
                                          XC Energy ::           -1.454817777172
                                     Coulomb Energy ::            5.222665796569
                       Total Pseudopotential Energy ::          -12.496846060064
                       Local Pseudopotential Energy ::          -13.871892029905
                    Nonlocal Pseudopotential Energy ::            1.375045969840
                                        Confinement ::            0.612979178287

 Orbital energies  State     L     Occupation   Energy[a.u.]          Energy[eV]

                       1     0          2.000      -0.490144          -13.337484

                       1     1          3.000      -0.178586           -4.859574


 Total Electron Density at R=0:                                         0.000116
 Re-scaling the density matrix to get the right number of electrons
                  # Electrons              Trace(P)               Scaling factor
                           40                40.000                        1.000

 Number of electrons:                                                         40
 Number of occupied orbitals:                                                 20
 Number of molecular orbitals:                                                20

 Number of orbital functions:                                                240
 Number of independent orbital functions:                                    240


 SCF WAVEFUNCTION OPTIMIZATION

  Step     Update method      Time    Convergence         Total energy    Change
  ------------------------------------------------------------------------------

 *** WARNING in qs_ks_methods.F:773 :: Native SKALA grid evaluation with   ***
 *** k-points is using the CPU TorchScript path. Use a mutually compatible ***
 *** BLAS, ScaLAPACK, OpenMP, and LibTorch runtime stack, or select        ***
 *** NATIVE_GRID_USE_CUDA T.                                               ***

 SKALA_GPW| Atom-composite cross support/maxima   2.588967072374E+00   3.343251926846E+01   2.098945943384E+02   2.558839951562E+02
 SKALA_GPW| Active atom-composite XC energy  -2.3157107090183359E+01
 SKALA_GPW| Active atom-composite electrons   4.0055444930279918E+01
 SKALA_GPW| Active atom-composite density range   3.0932798688982225E-03   3.4168104261047134E+01
 SKALA_GPW| Active atom-composite tau range   2.6638860313012119E-03   4.1477564301653945E+02
 SKALA_GPW| Active atom-composite tau integral   1.0669404609319130E+02
 SKALA_GPW| Active atom-composite max gradient   3.2481972655225235E+02
     1 P_Mix/Diag. 0.10E+00  458.4     0.63489259      -127.6896687631 -1.28E+02
 SKALA_GPW| Atom-composite cross support/maxima   2.588967072374E+00   3.350352325247E+01   2.105263208109E+02   2.572492427900E+02
 SKALA_GPW| Active atom-composite XC energy  -2.3185773528810440E+01
 SKALA_GPW| Active atom-composite electrons   4.0054074785617892E+01
 SKALA_GPW| Active atom-composite density range   2.8170549372139564E-03   3.4239734811643608E+01
 SKALA_GPW| Active atom-composite tau range   2.6671071114060629E-03   4.1756155386823667E+02
 SKALA_GPW| Active atom-composite tau integral   1.0713823855250466E+02
 SKALA_GPW| Active atom-composite max gradient   3.2618399552163550E+02
     2 P_Mix/Diag. 0.10E+00  416.9     0.56153868      -127.5251447465  1.65E-01
 SKALA_GPW| Atom-composite cross support/maxima   2.691815396945E+00   3.356456714131E+01   2.110754395856E+02   2.584481077638E+02
 SKALA_GPW| Active atom-composite XC energy  -2.3214787867669148E+01
 SKALA_GPW| Active atom-composite electrons   4.0052853979876033E+01
 SKALA_GPW| Active atom-composite density range   2.5710415273571515E-03   3.4301263618397805E+01
 SKALA_GPW| Active atom-composite tau range   2.6696953442636039E-03   4.2001870743469317E+02
 SKALA_GPW| Active atom-composite tau integral   1.0752399064666943E+02
 SKALA_GPW| Active atom-composite max gradient   3.2737975690404181E+02
     3 P_Mix/Diag. 0.10E+00  413.9     0.49651816      -127.3781591259  1.47E-01
 SKALA_GPW| Atom-composite cross support/maxima   2.691815396945E+00   3.361725791899E+01   2.115546054743E+02   2.595045348315E+02
 SKALA_GPW| Active atom-composite XC energy  -2.3243334083389755E+01
 SKALA_GPW| Active atom-composite electrons   4.0051772556777223E+01
 SKALA_GPW| Active atom-composite density range   2.3535816426943097E-03   3.4354329422365616E+01
 SKALA_GPW| Active atom-composite tau range   2.6720404257818292E-03   4.2219323156916425E+02
 SKALA_GPW| Active atom-composite tau integral   1.0785951740397597E+02
 SKALA_GPW| Active atom-composite max gradient   3.2843168898614095E+02
     4 P_Mix/Diag. 0.10E+00  415.8     0.43959617      -127.2468541375  1.31E-01
 SKALA_GPW| Atom-composite cross support/maxima   2.691815396945E+00   3.366292527776E+01   2.119743517129E+02   2.604385763779E+02
 SKALA_GPW| Active atom-composite XC energy  -2.3271028931919346E+01
 SKALA_GPW| Active atom-composite electrons   4.0050816263412976E+01
 SKALA_GPW| Active atom-composite density range   2.1620595764883983E-03   3.4400286592470827E+01
 SKALA_GPW| Active atom-composite tau range   2.6741393689069335E-03   4.2412387181469660E+02
 SKALA_GPW| Active atom-composite tau integral   1.0815198281320373E+02
 SKALA_GPW| Active atom-composite max gradient   3.2936043223253080E+02
     5 P_Mix/Diag. 0.10E+00  419.1     0.39038360      -127.1296209256  1.17E-01
 SKALA_GPW| Atom-composite cross support/maxima   2.691815396945E+00   3.370267011285E+01   2.123434301907E+02   2.612669830858E+02
 SKALA_GPW| Active atom-composite XC energy  -2.3297636399279220E+01
 SKALA_GPW| Active atom-composite electrons   4.0049969995748960E+01
 SKALA_GPW| Active atom-composite density range   1.9928376498554797E-03   3.4440255292163727E+01
 SKALA_GPW| Active atom-composite tau range   2.6758437877010734E-03   4.2584301548152558E+02
 SKALA_GPW| Active atom-composite tau integral   1.0840747846976610E+02
 SKALA_GPW| Active atom-composite max gradient   3.3018317945670913E+02
     6 P_Mix/Diag. 0.10E+00  417.2     0.34833915      -127.0249596092  1.05E-01
 SKALA_GPW| Atom-composite cross support/maxima   2.691815396945E+00   3.373741731423E+01   2.126692227121E+02   2.620039417293E+02
 SKALA_GPW| Active atom-composite XC energy  -2.3322918836387334E+01
 SKALA_GPW| Active atom-composite electrons   4.0049220364901643E+01
 SKALA_GPW| Active atom-composite density range   1.8419546782157631E-03   3.4475175840496959E+01
 SKALA_GPW| Active atom-composite tau range   2.6770769783162332E-03   4.2737810106612017E+02
 SKALA_GPW| Active atom-composite tau integral   1.0863105341099640E+02
 SKALA_GPW| Active atom-composite max gradient   3.3091445865271436E+02
     7 P_Mix/Diag. 0.10E+00  416.1     0.31162648      -126.9314416356  9.35E-02
 SKALA_GPW| Atom-composite cross support/maxima   2.691815396945E+00   3.376792385964E+01   2.129578104423E+02   2.626612740540E+02
 SKALA_GPW| Active atom-composite XC energy  -2.3346665421107950E+01
 SKALA_GPW| Active atom-composite electrons   4.0048556464103378E+01
 SKALA_GPW| Active atom-composite density range   1.7059752745793287E-03   3.4505817406001164E+01
 SKALA_GPW| Active atom-composite tau range   2.6779050253032326E-03   4.2875200729184826E+02
 SKALA_GPW| Active atom-composite tau integral   1.0882687497762672E+02
 SKALA_GPW| Active atom-composite max gradient   3.3156629781683057E+02
     8 P_Mix/Diag. 0.10E+00  414.1     0.27961898      -126.8477763254  8.37E-02
 SKALA_GPW| Atom-composite cross support/maxima   2.691815396945E+00   3.379481959495E+01   2.132142906289E+02   2.632489954364E+02
 SKALA_GPW| Active atom-composite XC energy  -2.3368780787966070E+01
 SKALA_GPW| Active atom-composite electrons   4.0047969049853563E+01
 SKALA_GPW| Active atom-composite density range   1.5827161009054074E-03   3.4532819469616939E+01
 SKALA_GPW| Active atom-composite tau range   2.6784529145523605E-03   4.2998415857882975E+02
 SKALA_GPW| Active atom-composite tau integral   1.0899859440154366E+02
 SKALA_GPW| Active atom-composite max gradient   3.3214883615663723E+02
     9 P_Mix/Diag. 0.10E+00  417.2     0.25111015      -126.7728643910  7.49E-02
 SKALA_GPW| Atom-composite cross support/maxima   2.691815396945E+00   3.381860960906E+01   2.134427883323E+02   2.637753703014E+02
 SKALA_GPW| Active atom-composite XC energy  -2.3389252124585688E+01
 SKALA_GPW| Active atom-composite electrons   4.0047449957179637E+01
 SKALA_GPW| Active atom-composite density range   1.4709914144647200E-03   3.4556694245816658E+01
 SKALA_GPW| Active atom-composite tau range   2.6788482361936828E-03   4.3109063879055333E+02
 SKALA_GPW| Active atom-composite tau integral   1.0914945835921507E+02
 SKALA_GPW| Active atom-composite max gradient   3.3267036441848950E+02
    10 P_Mix/Diag. 0.10E+00  423.1     0.22526578      -126.7057459442  6.71E-02
 SKALA_GPW| Atom-composite cross support/maxima   2.691815396945E+00   3.383969703624E+01   2.136466606176E+02   2.642472794397E+02
 SKALA_GPW| Active atom-composite XC energy  -2.3408097217802897E+01
 SKALA_GPW| Active atom-composite electrons   4.0046992010410221E+01
 SKALA_GPW| Active atom-composite density range   1.3698565693520740E-03   3.4577849703271291E+01
 SKALA_GPW| Active atom-composite tau range   2.6792055123435817E-03   4.3208498574700741E+02
 SKALA_GPW| Active atom-composite tau integral   1.0928216626921424E+02
 SKALA_GPW| Active atom-composite max gradient   3.3313775446670428E+02
    11 P_Mix/Diag. 0.10E+00  419.0     0.20218043      -126.6455727822  6.02E-02
 SKALA_GPW| Atom-composite cross support/maxima   2.691815396945E+00   3.385842848500E+01   2.138288360136E+02   2.646707772784E+02
 SKALA_GPW| Active atom-composite XC energy  -2.3425349096536465E+01
 SKALA_GPW| Active atom-composite electrons   4.0046588758938491E+01
 SKALA_GPW| Active atom-composite density range   1.2783955557395239E-03   3.4596636132827811E+01
 SKALA_GPW| Active atom-composite tau range   2.6796187316838935E-03   4.3297922507065857E+02
 SKALA_GPW| Active atom-composite tau integral   1.0939899879603448E+02
 SKALA_GPW| Active atom-composite max gradient   3.3355706933816123E+02
    12 P_Mix/Diag. 0.10E+00  415.1     0.18164374      -126.5915894999  5.40E-02
 SKALA_GPW| Atom-composite cross support/maxima   2.691815396945E+00   3.387511080514E+01   2.139919077375E+02   2.650512392030E+02
 SKALA_GPW| Active atom-composite XC energy  -2.3441058363550400E+01
 SKALA_GPW| Active atom-composite electrons   4.0046234269866950E+01
 SKALA_GPW| Active atom-composite density range   1.1957473379593942E-03   3.4613363778843166E+01
 SKALA_GPW| Active atom-composite tau range   2.6801666354985421E-03   4.3378403564450707E+02
 SKALA_GPW| Active atom-composite tau integral   1.0950200918458570E+02
 SKALA_GPW| Active atom-composite max gradient   3.3393368224094473E+02
    13 P_Mix/Diag. 0.10E+00  421.8     0.16327606      -126.5431227599  4.85E-02
 SKALA_GPW| Atom-composite cross support/maxima   2.691815396945E+00   3.388999790810E+01   2.141380691879E+02   2.653933009059E+02
 SKALA_GPW| Active atom-composite XC energy  -2.3455300534985561E+01
 SKALA_GPW| Active atom-composite electrons   4.0045923128190097E+01
 SKALA_GPW| Active atom-composite density range   1.1211096010760157E-03   3.4628288870103525E+01
 SKALA_GPW| Active atom-composite tau range   2.6808979798289088E-03   4.3450873276898750E+02
 SKALA_GPW| Active atom-composite tau integral   1.0959292127490319E+02
 SKALA_GPW| Active atom-composite max gradient   3.3427222051703035E+02
    14 P_Mix/Diag. 0.10E+00  418.8     0.14682379      -126.4995883509  4.35E-02
 SKALA_GPW| Atom-composite cross support/maxima   2.691815396945E+00   3.390329135293E+01   2.142691377863E+02   2.657009259284E+02
 SKALA_GPW| Active atom-composite XC energy  -2.3468167112545366E+01
 SKALA_GPW| Active atom-composite electrons   4.0045650404119932E+01
 SKALA_GPW| Active atom-composite density range   1.0537383090044939E-03   3.4641613924730564E+01
 SKALA_GPW| Active atom-composite tau range   2.6818207137259504E-03   4.3516144850823883E+02
 SKALA_GPW| Active atom-composite tau integral   1.0967310538431566E+02
 SKALA_GPW| Active atom-composite max gradient   3.3457664384996792E+02
    15 P_Mix/Diag. 0.10E+00  417.1     0.13204712      -126.4604754025  3.91E-02
 SKALA_GPW| Atom-composite cross support/maxima   2.691815396945E+00   3.391516760091E+01   2.143867144233E+02   2.659776401203E+02
 SKALA_GPW| Active atom-composite XC energy  -2.3479756201144561E+01
 SKALA_GPW| Active atom-composite electrons   4.0045411561068136E+01
 SKALA_GPW| Active atom-composite density range   9.9293456485721981E-04   3.4653516296590787E+01
 SKALA_GPW| Active atom-composite tau range   2.6829220318788315E-03   4.3574942655289198E+02
 SKALA_GPW| Active atom-composite tau integral   1.0974379879013783E+02
 SKALA_GPW| Active atom-composite max gradient   3.3485045922824213E+02
    16 P_Mix/Diag. 0.10E+00  414.9     0.11880945      -126.4253251934  3.52E-02
 SKALA_GPW| Atom-composite cross support/maxima   2.691815396945E+00   3.392579091295E+01   2.144922696342E+02   2.662266640672E+02
 SKALA_GPW| Active atom-composite XC energy  -2.3490166629489067E+01
 SKALA_GPW| Active atom-composite electrons   4.0045202462725165E+01
 SKALA_GPW| Active atom-composite density range   9.3802042830439772E-04   3.4664161501613350E+01
 SKALA_GPW| Active atom-composite tau range   2.6841825434358027E-03   4.3627923706883217E+02
 SKALA_GPW| Active atom-composite tau integral   1.0980616792858125E+02
 SKALA_GPW| Active atom-composite max gradient   3.3509685872446420E+02
    17 P_Mix/Diag. 0.10E+00  417.9     0.10694687      -126.3937248649  3.16E-02
 SKALA_GPW| Atom-composite cross support/maxima   2.797827671472E+00   3.393530583722E+01   2.145871094261E+02   2.664508749130E+02
 SKALA_GPW| Active atom-composite XC energy  -2.3499493139842453E+01
 SKALA_GPW| Active atom-composite electrons   4.0045019422857116E+01
 SKALA_GPW| Active atom-composite density range   8.8833118485336072E-04   3.4673695135524859E+01
 SKALA_GPW| Active atom-composite tau range   2.6855773948609289E-03   4.3675677532059120E+02
 SKALA_GPW| Active atom-composite tau integral   1.0986122356354475E+02
 SKALA_GPW| Active atom-composite max gradient   3.3531869546435001E+02
    18 P_Mix/Diag. 0.10E+00  419.7     0.09623675      -126.3653063923  2.84E-02
 SKALA_GPW| Atom-composite cross support/maxima   2.797827671472E+00   3.394383226774E+01   2.146723511795E+02   2.666527817818E+02
 SKALA_GPW| Active atom-composite XC energy  -2.3507823007038962E+01
 SKALA_GPW| Active atom-composite electrons   4.0044859205444460E+01
 SKALA_GPW| Active atom-composite density range   8.4322456353981795E-04   3.4682237574338366E+01
 SKALA_GPW| Active atom-composite tau range   2.6870767148971910E-03   4.3718725521421391E+02
 SKALA_GPW| Active atom-composite tau integral   1.0990978271748472E+02
 SKALA_GPW| Active atom-composite max gradient   3.3551846337742279E+02
    19 DIIS/Diag.  0.37E-03  419.9     0.08673755      -126.3397419099  2.56E-02
 SKALA_GPW| Atom-composite cross support/maxima   2.797827671472E+00   3.401957238075E+01   2.154355571134E+02   2.684704367112E+02
 SKALA_GPW| Active atom-composite XC energy  -2.3581529153292216E+01
 SKALA_GPW| Active atom-composite electrons   4.0043521028415761E+01
 SKALA_GPW| Active atom-composite density range   4.3817473525622201E-04   3.4758101959502270E+01
 SKALA_GPW| Active atom-composite tau range   2.7055453216210299E-03   4.4107279035424102E+02
 SKALA_GPW| Active atom-composite tau integral   1.1032734040777549E+02
 SKALA_GPW| Active atom-composite max gradient   3.3731625557850833E+02
    20 P_Mix/Diag. 0.10E+00  419.8     0.02923693      -126.1081756037  2.32E-01
 SKALA_GPW| Atom-composite cross support/maxima   2.797827671472E+00   3.401963967086E+01   2.154376194439E+02   2.684757339999E+02
 SKALA_GPW| Active atom-composite XC energy  -2.3579796397073338E+01
 SKALA_GPW| Active atom-composite electrons   4.0043542981790821E+01
 SKALA_GPW| Active atom-composite density range   4.1477031609568962E-04   3.4758173068798456E+01
 SKALA_GPW| Active atom-composite tau range   2.7072416780535660E-03   4.4108694716296276E+02
 SKALA_GPW| Active atom-composite tau integral   1.1031559885398067E+02
 SKALA_GPW| Active atom-composite max gradient   3.3732256331674449E+02
    21 DIIS/Diag.  0.46E-02  423.5     0.00601838      -126.1083506904 -1.75E-04
 SKALA_GPW| Atom-composite cross support/maxima   2.797827671472E+00   3.402022102731E+01   2.154382520095E+02   2.684704396523E+02
 SKALA_GPW| Active atom-composite XC energy  -2.3583024288161482E+01
 SKALA_GPW| Active atom-composite electrons   4.0043457254864684E+01
 SKALA_GPW| Active atom-composite density range   4.3697620524669242E-04   3.4758761284165516E+01
 SKALA_GPW| Active atom-composite tau range   2.7027641656148672E-03   4.4106647971078462E+02
 SKALA_GPW| Active atom-composite tau integral   1.1033874609843063E+02
 SKALA_GPW| Active atom-composite max gradient   3.3731677392820666E+02
    22 P_Mix/Diag. 0.10E+00  417.7     0.03208981      -126.1082018077  1.49E-04
 SKALA_GPW| Atom-composite cross support/maxima   2.797827671472E+00   3.402014279140E+01   2.154394891855E+02   2.684748770376E+02
 SKALA_GPW| Active atom-composite XC energy  -2.3581075396412885E+01
 SKALA_GPW| Active atom-composite electrons   4.0043486925342059E+01
 SKALA_GPW| Active atom-composite density range   4.1422718846604293E-04   3.4758683609227923E+01
 SKALA_GPW| Active atom-composite tau range   2.7048276013817377E-03   4.4107983005263810E+02
 SKALA_GPW| Active atom-composite tau integral   1.1032549644232944E+02
 SKALA_GPW| Active atom-composite max gradient   3.3732211193447102E+02
    23 DIIS/Diag.  0.40E-02  420.7     0.02847032      -126.1083681857 -1.66E-04
 SKALA_GPW| Atom-composite cross support/maxima   2.797827671472E+00   3.402025731201E+01   2.154557982337E+02   2.685226312372E+02
 SKALA_GPW| Active atom-composite XC energy  -2.3563647169301333E+01
 SKALA_GPW| Active atom-composite electrons   4.0043743026248286E+01
 SKALA_GPW| Active atom-composite density range   2.1480386619280207E-04   3.4758824700635458E+01
 SKALA_GPW| Active atom-composite tau range   2.7229059500091771E-03   4.4121174369057661E+02
 SKALA_GPW| Active atom-composite tau integral   1.1021397498155500E+02
 SKALA_GPW| Active atom-composite max gradient   3.3737808007583305E+02
    24 P_Mix/Diag. 0.10E+00  421.2     0.01002713      -126.1087187472 -3.51E-04
 SKALA_GPW| Atom-composite cross support/maxima   2.797827671472E+00   3.402097973531E+01   2.154600097327E+02   2.685288438552E+02
 SKALA_GPW| Active atom-composite XC energy  -2.3564991203419645E+01
 SKALA_GPW| Active atom-composite electrons   4.0043733049894442E+01
 SKALA_GPW| Active atom-composite density range   2.2647601059675514E-04   3.4759565878784571E+01
 SKALA_GPW| Active atom-composite tau range   2.7227841812843137E-03   4.4121993047870359E+02
 SKALA_GPW| Active atom-composite tau integral   1.1022352325384027E+02
 SKALA_GPW| Active atom-composite max gradient   3.3738399489333221E+02
    25 DIIS/Diag.  0.53E-03  419.8     0.01090495      -126.1088003466 -8.16E-05
 SKALA_GPW| Atom-composite cross support/maxima   2.797827671472E+00   3.402889940530E+01   2.155062238001E+02   2.685970726524E+02
 SKALA_GPW| Active atom-composite XC energy  -2.3579278200807902E+01
 SKALA_GPW| Active atom-composite electrons   4.0043624439129843E+01
 SKALA_GPW| Active atom-composite density range   3.5716999368617079E-04   3.4767691409951240E+01
 SKALA_GPW| Active atom-composite tau range   2.7212980251785676E-03   4.4131004761110142E+02
 SKALA_GPW| Active atom-composite tau integral   1.1032810660926152E+02
 SKALA_GPW| Active atom-composite max gradient   3.3744899536999696E+02
    26 P_Mix/Diag. 0.10E+00  415.1     0.01667838      -126.1086316759  1.69E-04
 SKALA_GPW| Atom-composite cross support/maxima   2.797827671472E+00   3.402746994686E+01   2.154973632172E+02   2.685837889460E+02
 SKALA_GPW| Active atom-composite XC energy  -2.3577704799283282E+01
 SKALA_GPW| Active atom-composite electrons   4.0043636825178709E+01
 SKALA_GPW| Active atom-composite density range   3.4468816279547063E-04   3.4766222472484110E+01
 SKALA_GPW| Active atom-composite tau range   2.7211674307100666E-03   4.4129087483876179E+02
 SKALA_GPW| Active atom-composite tau integral   1.1031456010569242E+02
 SKALA_GPW| Active atom-composite max gradient   3.3743580908616104E+02
    27 DIIS/Diag.  0.25E-02  422.1     0.00679862      -126.1087414171 -1.10E-04
 SKALA_GPW| Atom-composite cross support/maxima   2.797827671472E+00   3.402179814139E+01   2.154624779115E+02   2.685315280187E+02
 SKALA_GPW| Active atom-composite XC energy  -2.3570909524062859E+01
 SKALA_GPW| Active atom-composite electrons   4.0043690695551078E+01
 SKALA_GPW| Active atom-composite density range   2.8709349917246853E-04   3.4760394937849824E+01
 SKALA_GPW| Active atom-composite tau range   2.7209984775673980E-03   4.4121623209308990E+02
 SKALA_GPW| Active atom-composite tau integral   1.1025787543723861E+02
 SKALA_GPW| Active atom-composite max gradient   3.3738423973221575E+02
    28 DIIS/Diag.  0.54E-03  418.4     0.00106071      -126.1092455339 -5.04E-04
 SKALA_GPW| Atom-composite cross support/maxima   2.797827671472E+00   3.402293812098E+01   2.154697965249E+02   2.685426382152E+02
 SKALA_GPW| Active atom-composite XC energy  -2.3571815472337914E+01
 SKALA_GPW| Active atom-composite electrons   4.0043684300408543E+01
 SKALA_GPW| Active atom-composite density range   2.9304283727656105E-04   3.4761566924805756E+01
 SKALA_GPW| Active atom-composite tau range   2.7211589526522661E-03   4.4123311938551228E+02
 SKALA_GPW| Active atom-composite tau integral   1.1026655267953754E+02
 SKALA_GPW| Active atom-composite max gradient   3.3739552681188610E+02
    29 DIIS/Diag.  0.13E-02  419.1     0.00155243      -126.1092446718  8.62E-07
 SKALA_GPW| Atom-composite cross support/maxima   2.797827671472E+00   3.402191945836E+01   2.154637843383E+02   2.685338028192E+02
 SKALA_GPW| Active atom-composite XC energy  -2.3570260434421154E+01
 SKALA_GPW| Active atom-composite electrons   4.0043696355331519E+01
 SKALA_GPW| Active atom-composite density range   2.7954212335007156E-04   3.4760520728763808E+01
 SKALA_GPW| Active atom-composite tau range   2.7210164310839625E-03   4.4122142919958242E+02
 SKALA_GPW| Active atom-composite tau integral   1.1025448139789980E+02
 SKALA_GPW| Active atom-composite max gradient   3.3738707290081294E+02
    30 DIIS/Diag.  0.33E-02  418.8     0.00075269      -126.1092384445  6.23E-06
 SKALA_GPW| Atom-composite cross support/maxima   2.797827671472E+00   3.402258433068E+01   2.154679428932E+02   2.685400724258E+02
 SKALA_GPW| Active atom-composite XC energy  -2.3570971148019296E+01
 SKALA_GPW| Active atom-composite electrons   4.0043690908788612E+01
 SKALA_GPW| Active atom-composite density range   2.8504233285357413E-04   3.4761204349434024E+01
 SKALA_GPW| Active atom-composite tau range   2.7210124279255679E-03   4.4123060735255024E+02
 SKALA_GPW| Active atom-composite tau integral   1.1026058125581851E+02
 SKALA_GPW| Active atom-composite max gradient   3.3739332052554408E+02
    31 DIIS/Diag.  0.16E-02  423.0     0.00043964      -126.1092436629 -5.22E-06
 SKALA_GPW| Atom-composite cross support/maxima   2.797827671472E+00   3.402294511685E+01   2.154701884875E+02   2.685434358636E+02
 SKALA_GPW| Active atom-composite XC energy  -2.3571340640118606E+01
 SKALA_GPW| Active atom-composite electrons   4.0043688191201866E+01
 SKALA_GPW| Active atom-composite density range   2.8785891266165398E-04   3.4761575025675853E+01
 SKALA_GPW| Active atom-composite tau range   2.7211018440779183E-03   4.4123549002832613E+02
 SKALA_GPW| Active atom-composite tau integral   1.1026378307395329E+02
 SKALA_GPW| Active atom-composite max gradient   3.3739667554567575E+02
    32 DIIS/Diag.  0.25E-04  423.0     0.00020771      -126.1092485213 -4.86E-06
 SKALA_GPW| Atom-composite cross support/maxima   2.797827671472E+00   3.402269868904E+01   2.154685540546E+02   2.685409280452E+02
 SKALA_GPW| Active atom-composite XC energy  -2.3571232968780595E+01
 SKALA_GPW| Active atom-composite electrons   4.0043689362856924E+01
 SKALA_GPW| Active atom-composite density range   2.8822109873505330E-04   3.4761321596949593E+01
 SKALA_GPW| Active atom-composite tau range   2.7210408318397552E-03   4.4123152944453619E+02
 SKALA_GPW| Active atom-composite tau integral   1.1026250768379725E+02
 SKALA_GPW| Active atom-composite max gradient   3.3739408473879342E+02
    33 DIIS/Diag.  0.16E-05  444.6     0.00006938      -126.1092486210 -9.97E-08
 SKALA_GPW| Atom-composite cross support/maxima   2.797827671472E+00   3.402279976531E+01   2.154692256386E+02   2.685419554485E+02
 SKALA_GPW| Active atom-composite XC energy  -2.3571280966863071E+01
 SKALA_GPW| Active atom-composite electrons   4.0043688689323623E+01
 SKALA_GPW| Active atom-composite density range   2.8816744428167122E-04   3.4761425579285408E+01
 SKALA_GPW| Active atom-composite tau range   2.7210385409086797E-03   4.4123315736200374E+02
 SKALA_GPW| Active atom-composite tau integral   1.1026304725080185E+02
 SKALA_GPW| Active atom-composite max gradient   3.3739515043869733E+02
    34 DIIS/Diag.  0.25E-06  421.8     0.00001468      -126.1092486513 -3.03E-08
 SKALA_GPW| Atom-composite cross support/maxima   2.797827671472E+00   3.402277586562E+01   2.154690683928E+02   2.685417131912E+02
 SKALA_GPW| Active atom-composite XC energy  -2.3571271140221285E+01
 SKALA_GPW| Active atom-composite electrons   4.0043688830342859E+01
 SKALA_GPW| Active atom-composite density range   2.8819701817977661E-04   3.4761401006358632E+01
 SKALA_GPW| Active atom-composite tau range   2.7210362155529145E-03   4.4123277829386495E+02
 SKALA_GPW| Active atom-composite tau integral   1.1026294286107735E+02
 SKALA_GPW| Active atom-composite max gradient   3.3739490253774972E+02
    35 DIIS/Diag.  0.70E-07  421.9     0.00000449      -126.1092486271  2.42E-08

  *** SCF run converged in    35 steps ***


  Electronic density on regular grids:        -32.4135827646        7.5864172354
  Core density on regular grids:               20.0000000000      -20.0000000000
  Hard and soft densities (Lebedev):          -89.7424133981      -82.1559961702
  Total Rho_soft + Rho1_hard - Rho1_soft      -39.9999999926
  Total charge density (r-space):             -19.9999999926
  Total Rho_soft + Rho0_soft (g-space):         0.0000000016

  Overlap energy of the core charge distribution:               0.00000030286473
  Self energy of the core charge distribution:               -130.59346728171883
  Core Hamiltonian energy:                                    -10.55951913434783
  Hartree energy:                                              53.28077528154525
  Exchange-correlation energy:                                  0.00000000000000
  Dispersion energy:                                           -0.18110177706413

  GAPW| Exc from hard and soft atomic rho1:                   -23.57127114022128
  GAPW| local Eh = 1 center integrals:                        -14.48466487814316

  Total energy:                                              -126.10924862708525

  outer SCF iter =    1 RMS gradient =   0.00E+00 energy =       -126.1092486271
  outer SCF loop converged in   1 iterations or   35 steps


 !-----------------------------------------------------------------------------!
                     Mulliken Population Analysis

 #  Atom  Element  Kind  Atomic population                           Net charge
       1     B        1          5.248306                             -0.248306
       2     B        1          5.246610                             -0.246610
       3     B        1          5.246610                             -0.246610
       4     B        1          5.246610                             -0.246610
       5     P        2          4.753813                              0.246187
       6     P        2          4.752908                              0.247092
       7     P        2          4.752807                              0.247193
       8     P        2          4.752336                              0.247664
 # Total charge                             40.000000                  0.000000

 !-----------------------------------------------------------------------------!

 !-----------------------------------------------------------------------------!
                           Hirshfeld Charges

  #Atom  Element  Kind  Ref Charge     Population                    Net charge
      1       B      1       5.000          5.158                        -0.158
      2       B      1       5.000          5.158                        -0.158
      3       B      1       5.000          5.158                        -0.158
      4       B      1       5.000          5.158                        -0.158
      5       P      2       5.000          4.842                         0.158
      6       P      2       5.000          4.842                         0.158
      7       P      2       5.000          4.842                         0.158
      8       P      2       5.000          4.842                         0.158

  Total Charge                                                           -0.000
 !-----------------------------------------------------------------------------!

 ENERGY| Total FORCE_EVAL ( QS ) energy [hartree]           -126.109248627085250

 -------------------------------------------------------------------------------
 -                                                                             -
 -                                DBCSR STATISTICS                             -
 -                                                                             -
 -------------------------------------------------------------------------------
 COUNTER                                    TOTAL       BLAS       SMM       ACC
 flops inhomo. stacks                           0       0.0%      0.0%      0.0%
 flops total                         0.000000E+00       0.0%      0.0%      0.0%
 flops max/rank                      0.000000E+00       0.0%      0.0%      0.0%
 matmuls inhomo. stacks                         0       0.0%      0.0%      0.0%
 matmuls total                                  0       0.0%      0.0%      0.0%
 number of processed stacks                     0       0.0%      0.0%      0.0%
 average stack size                                     0.0       0.0       0.0
 marketing flops                     0.000000E+00
 -------------------------------------------------------------------------------

 -------------------------------------------------------------------------------
 -                                                                             -
 -                                GRID STATISTICS                              -
 -                                                                             -
 -------------------------------------------------------------------------------
 LP    KERNEL             BACKEND                              COUNT     PERCENT
 6     collocate ortho    CPU                                 913968      25.35%
 8     collocate ortho    CPU                                 913968      25.35%
 6     integrate ortho    CPU                                 888580      24.65%
 8     integrate ortho    CPU                                 888580      24.65%
 4     collocate general  CPU                                    140       0.00%
 4     integrate general  CPU                                    140       0.00%
 0     collocate general  CPU                                     16       0.00%
 0     integrate general  CPU                                      8       0.00%
 -------------------------------------------------------------------------------

 -------------------------------------------------------------------------------
 -                                                                             -
 -                          OFFLOAD MEMPOOL STATISTICS                         -
 -                                                                             -
 -------------------------------------------------------------------------------
 Memory consumption                Number of allocations  Used [MiB]  Size [MiB]
 Host                                                  8          89          58
 -------------------------------------------------------------------------------

 MEMORY| Estimated peak process memory [MiB]                                5384

 -------------------------------------------------------------------------------
 ----                             MULTIGRID INFO                            ----
 -------------------------------------------------------------------------------
 count for grid        1:          21847          cutoff [a.u.]          400.00
 count for grid        2:          19992          cutoff [a.u.]          133.33
 count for grid        3:          15064          cutoff [a.u.]           44.44
 count for grid        4:          13174          cutoff [a.u.]           14.81
 count for grid        5:           7844          cutoff [a.u.]            4.94
 total gridlevel count  :          77921

 -------------------------------------------------------------------------------
 -                                                                             -
 -                           R E F E R E N C E S                               -
 -                                                                             -
 -------------------------------------------------------------------------------
 
 CP2K version 2026.2 (Development Version), the CP2K developers group (2026).
 CP2K is freely available from https://www.cp2k.org/ .
 
 M. Iannuzzi, J. Wilhelm, F. Stein, A. Bussy, H. Elgabarty, D. Golze, A. Hehn, 
 M. Graml, S. Marek, B. Sertcan Gökmen, C. Schran, H. Forbert, R. Z. 
 Khaliullin, A. Kozhevnikov, M. Taillefumier, R. Meli, V. V. Rybkin, M. Brehm, 
 R. Schade, O. Schütt, J. V. Pototschnig, H. Mirhosseini, A. Knüpfer, D. Marx, 
 M. Krack, J. Hutter, T. D. Kühne.
 J. Phys. Chem. B 130, 1237-1310 (2026).
 The CP2K Program Package Made Simple.
 https://doi.org/10.1021/acs.jpcb.5c05851

 L. Wittmann, I. Gordiy, M. Friede, B. Helmich-Paris, S. Grimme, A. Hansen, M. 
 Bursch.
 Phys. Chem. Chem. Phys. 26, 21379-21394 (2024).
 Extension of the D3 and D4 London dispersion corrections to the full actinides 
 series.
 https://doi.org/10.1039/d4cp01514b

 T. D. Kühne, M. Iannuzzi, M. Del Ben, V. V. Rybkin, P. Seewald, F. Stein, T. 
 Laino, R. Z. Khaliullin, O. Schütt, F. Schiffmann, D. Golze, J. Wilhelm, S. 
 Chulkov, M. H. Bani-Hashemian, V. Weber, U. Borstnik, M. Taillefumier, A. S. 
 Jakobovits, A. Lazzaro, H. Pabst, T. Müller, R. Schade, M. Guidon, S. 
 Andermatt, N. Holmberg, G. K. Schenter, A. Hehn, A. Bussy, F. Belleflamme, G. 
 Tabacchi, A. Glöß, M. Lass, I. Bethune, C. J. Mundy, C. Plessl, M. Watkins, 
 J. VandeVondele, M. Krack, J. Hutter.
 J. Chem. Phys. 152, 194103 (2020).
 CP2K: An electronic structure and molecular dynamics software package - 
 Quickstep: Efficient and accurate electronic structure calculations.
 https://doi.org/10.1063/5.0007045

 A. Togo, I. Tanaka.
 arXiv, 1808.01590 (2018).
 Spglib : a software library for crystal symmetry search.

 L. Goerigk, A. Hansen, C. Bauer, S. Ehrlich, A. Najibi, S. Grimme.
 Phys. Chem. Chem. Phys. 19, 32184-32215 (2017).
 A look at the density functional theory zoo with the advanced GMTKN55 database 
 for general main group thermochemistry, kinetics and noncovalent interactions.
 https://doi.org/10.1039/C7CP04913G

 O. Schuett, P. Messmer, J. Hutter, J. VandeVondele.
 Electronic Structure Calculations on Graphics Processing Units, 173-190 (2016).
 GPU-Accelerated Sparse Matrix-Matrix Multiplication for Linear Scaling Density 
 Functional Theory.
 https://doi.org/10.1002/9781118670712.ch8

 U. Borstnik, J. VandeVondele, V. Weber, J. Hutter.
 Parallel Comput. 40, 47-58 (2014).
 Sparse matrix multiplication: The distributed block-compressed sparse row 
 library.
 https://doi.org/10.1016/j.parco.2014.03.012

 S. Grimme, S. Ehrlich, L. Goerigk.
 J. Comput. Chem. 32, 1456 (2011).
 Effect of the damping function in dispersion corrected density functional 
 theory.
 https://doi.org/10.1002/jcc.21759

 S. Grimme, J. Antony, S. Ehrlich, H. Krieg.
 J. Chem. Phys. 132, 154104 (2010).
 A consistent and accurate ab initio parametrization of density functional 
 dispersion correction (DFT-D) for the 94 elements H-Pu.
 https://doi.org/10.1063/1.3382344

 J. VandeVondele, J. Hutter.
 J. Chem. Phys. 127, 114105 (2007).
 Gaussian basis sets for accurate calculations on molecular systems in gas and 
 condensed phases.
 https://doi.org/10.1063/1.2770708

 M. Krack.
 Theor. Chem. Acc. 114, 145-152 (2005).
 Pseudopotentials for H to Kr optimized for gradient-corrected 
 exchange-correlation functionals.
 https://doi.org/10.1007/s00214-005-0655-y

 M. Frigo, S. G. Johnson.
 Proc. IEEE 93, 216-231 (2005).
 The design and implementation of FFTW3.
 https://doi.org/10.1109/JPROC.2004.840301

 M. Krack, M. Parrinello.
 Phys. Chem. Chem. Phys. 2, 2105-2112 (2000).
 All-electron ab-initio molecular dynamics.
 https://doi.org/10.1039/b001167n

 G. Lippert, J. Hutter, M. Parrinello.
 Theor. Chem. Acc. 103, 124-140 (1999).
 The Gaussian and augmented-plane-wave density functional method for ab initio 
 molecular dynamics simulations.
 https://doi.org/10.1007/s002140050523

 C. Hartwigsen, S. Goedecker, J. Hutter.
 Phys. Rev. B 58, 3641-3662 (1998).
 Relativistic separable dual-space Gaussian pseudopotentials from H to Rn.
 https://doi.org/10.1103/PhysRevB.58.3641

 S. Goedecker, M. Teter, J. Hutter.
 Phys. Rev. B 54, 1703-1710 (1996).
 Separable dual-space Gaussian pseudopotentials.
 https://doi.org/10.1103/PhysRevB.54.1703

 C.-L. Fu, K.-M. Ho.
 Phys. Rev. B 28, 5480-5486 (1983).
 First-principles calculation of the equilibrium ground-state properties of 
 transition metals: Applications to Nb and Mo.
 https://doi.org/10.1103/PhysRevB.28.5480

 T. G. Worlton, J. L. Warren.
 Comput. Phys. Commun. 3, 88-117 (1972).
 Group-theoretical analysis of lattice vibrations.
 https://doi.org/10.1016/0010-4655(72)90058-6


 -------------------------------------------------------------------------------
 -                                                                             -
 -                                T I M I N G                                  -
 -                                                                             -
 -------------------------------------------------------------------------------
 SUBROUTINE                       CALLS  ASD         SELF TIME        TOTAL TIME
                                MAXIMUM       AVERAGE  MAXIMUM  AVERAGE  MAXIMUM
 CP2K                                 1  1.0     0.04     0.04 14733.07 14733.07
 qs_energies                          1  2.0     0.00     0.00 14732.76 14732.76
 scf_env_do_scf                       1  3.0     0.00     0.00 14730.37 14730.37
 scf_env_do_scf_inner_loop           35  4.0     0.23     0.23 14730.37 14730.37
 qs_ks_update_qs_env                 35  5.0     0.00     0.00 14531.15 14531.15
 rebuild_ks_matrix                   35  6.0     0.00     0.00 14529.57 14529.57
 qs_ks_build_kohn_sham_matrix        35  7.0     0.02     0.02 14529.57 14529.57
 calculate_vxc_atom                  35  8.0 11602.57 11602.57 14424.81 14424.81
 skala_atom_torch_backward          105  9.0   980.14   980.14   980.14   980.14
 skala_atom_torch_forward           105  9.0     0.02     0.02   529.94   529.94
 torch_model_forward_mol_tensor     105 10.0   529.92   529.92   529.92   529.92
 calc_tau_atom                      420  9.0   494.93   494.93   494.93   494.93
 gaVxcgb_GC                         280  9.0   445.05   445.05   445.05   445.05
 dgaVtaudgb                         280  9.0   336.98   336.98   336.98   336.98
 -------------------------------------------------------------------------------

 The number of warnings for this run is : 1
 
 -------------------------------------------------------------------------------
  **** **** ******  **  PROGRAM ENDED AT                 2026-09-01 23:39:40.471
 ***** ** ***  *** **   PROGRAM RAN ON                                    cge031
 **    ****   ******    PROGRAM RAN BY                                  kuehne88
 ***** **    ** ** **   PROGRAM PROCESS ID                               3993488
  **** **  *******  **  PROGRAM STOPPED IN /data/home2/kuehne88/cp2k-native-skal
                                           a/goldzak12/runs/production/hybrid-di
                                           rect/BP/v03
