 DBCSR| CPU Multiplication driver                                           BLAS (U)
 DBCSR| Multrec recursion limit                                              512 (U)
 DBCSR| Multiplication stack size                                           1000 (D)
 DBCSR| Maximum elements for images                                    UNLIMITED (U)
 DBCSR| Multiplicative factor virtual images                                   1 (U)
 DBCSR| Use multiplication densification                                       T (D)
 DBCSR| Multiplication size stacks                                             3 (U)
 DBCSR| Use memory pool for CPU allocation                                     F (U)
 DBCSR| OMP: Current number of threads                                        24
 DBCSR| OMP: Max number of threads                                            24
 DBCSR| Split modifier for TAS multiplication algorithm                  1.0E+00 (U)


  **** **** ******  **  PROGRAM STARTED AT               2026-09-04 03:49:04.177
 ***** ** ***  *** **   PROGRAM STARTED ON                                ctu029
 **    ****   ******    PROGRAM STARTED BY                              kuehne88
 ***** **    ** ** **   PROGRAM PROCESS ID                                 40540
  **** **  *******  **  PROGRAM STARTED IN /data/home2/kuehne88/cp2k-native-skal
                                           a/goldzak12/runs/diagnostic-volume-ne
                                           ighbor-rosi-wave110-20260904/producti
                                           on/gapwxc-gth/SiC/v10

 CP2K| version string:                 CP2K version 2026.2 (Development Version)
 CP2K| source code revision number:                                   246ece5193
 CP2K| cp2kflags: omp fftw3 spglib openblas libtorch libtorch_cuda              
 CP2K| is freely available from                            https://www.cp2k.org/
 CP2K| Program compiled at                                   2026-09-03 10:50:19
 CP2K| Program compiled on                                                ctu013
 CP2K| Program compiled for                                               x86_64
 CP2K| Data directory path    /data/home2/kuehne88/cp2k-native-skala/cp2k-kpoint
 CP2K| Input file name                                          actual-input.inp

 GLOBAL| Force Environment number                                              1
 GLOBAL| Basis set file name                             BASIS_MOLOPT_UZH_2026.2
 GLOBAL| Potential file name                                POTENTIAL_UZH_2026.2
 GLOBAL| MM Potential file name                                     MM_POTENTIAL
 GLOBAL| Coordinate file name                                      __STD_INPUT__
 GLOBAL| Method name                                                        CP2K
 GLOBAL| Project name                      G12_SiC_gapwxc-gth_v1p1000000000_k555
 GLOBAL| Run type                                                         ENERGY
 GLOBAL| FFT library                                                       FFTW3
 GLOBAL| Diagonalization library                                       ScaLAPACK
 GLOBAL| Cholesky decomposition library                                ScaLAPACK
 GLOBAL| DGEMM library                                                      BLAS
 GLOBAL| Direct generalized diagonalization requested                          F
 GLOBAL| Orthonormality check for eigenvectors                          DISABLED
 GLOBAL| Matrix multiplication library                                 ScaLAPACK
 GLOBAL| All-to-all communication in single precision                          F
 GLOBAL| FFTs using library dependent lengths                                  F
 GLOBAL| Grid backend                                                       AUTO
 GLOBAL| Global print level                                               MEDIUM
 GLOBAL| MPI I/O enabled                                                       T
 GLOBAL| Total number of message passing processes                             1
 GLOBAL| Number of distributed systems (nodes)                                 1
 GLOBAL| Number of threads for this process                                   24
 GLOBAL| This output is from process                                           0
 GLOBAL| OpenMP stack size per thread (OMP_STACKSIZE)                       256M
 GLOBAL| CPU model name                         AMD EPYC 9965 192-Core Processor

 MEMORY| system memory details [Kb]
 MEMORY|                        rank 0           min           max       average
 MEMORY| MemTotal           1584700536    1584700536    1584700536    1584700536
 MEMORY| MemFree            1551115100    1551115100    1551115100    1551115100
 MEMORY| Buffers                     0             0             0             0
 MEMORY| Cached                7024088       7024088       7024088       7024088
 MEMORY| Slab                  2451404       2451404       2451404       2451404
 MEMORY| SReclaimable           440820        440820        440820        440820
 MEMORY| MemLikelyFree      1558580008    1558580008    1558580008    1558580008


 *** Fundamental physical constants (SI units) ***

 *** Literature: B. J. Mohr and B. N. Taylor,
 ***             CODATA recommended values of the fundamental physical
 ***             constants: 2006, Web Version 5.1
 ***             http://physics.nist.gov/constants

 Speed of light in vacuum [m/s]                             2.99792458000000E+08
 Magnetic constant or permeability of vacuum [N/A**2]       1.25663706143592E-06
 Electric constant or permittivity of vacuum [F/m]          8.85418781762039E-12
 Planck constant (h) [J*s]                                  6.62606896000000E-34
 Planck constant (h-bar) [J*s]                              1.05457162825177E-34
 Elementary charge [C]                                      1.60217648700000E-19
 Electron mass [kg]                                         9.10938215000000E-31
 Electron g factor [ ]                                     -2.00231930436220E+00
 Proton mass [kg]                                           1.67262163700000E-27
 Fine-structure constant                                    7.29735253760000E-03
 Rydberg constant [1/m]                                     1.09737315685270E+07
 Avogadro constant [1/mol]                                  6.02214179000000E+23
 Boltzmann constant [J/K]                                   1.38065040000000E-23
 Atomic mass unit [kg]                                      1.66053878200000E-27
 Bohr radius [m]                                            5.29177208590000E-11

 *** Conversion factors ***

 [u] -> [a.u.]                                              1.82288848426455E+03
 [Angstrom] -> [Bohr] = [a.u.]                              1.88972613288564E+00
 [a.u.] = [Bohr] -> [Angstrom]                              5.29177208590000E-01
 [a.u.] -> [s]                                              2.41888432650478E-17
 [a.u.] -> [fs]                                             2.41888432650478E-02
 [a.u.] -> [J]                                              4.35974393937059E-18
 [a.u.] -> [N]                                              8.23872205491840E-08
 [a.u.] -> [K]                                              3.15774647902944E+05
 [a.u.] -> [kJ/mol]                                         2.62549961709828E+03
 [a.u.] -> [kcal/mol]                                       6.27509468713739E+02
 [a.u.] -> [Pa]                                             2.94210107994716E+13
 [a.u.] -> [bar]                                            2.94210107994716E+08
 [a.u.] -> [atm]                                            2.90362800883016E+08
 [a.u.] -> [eV]                                             2.72113838565563E+01
 [a.u.] -> [Hz]                                             6.57968392072181E+15
 [a.u.] -> [1/cm] (wave numbers)                            2.19474631370540E+05
 [a.u./Bohr**2] -> [1/cm]                                   5.14048714338585E+03
 

 CELL| Volume [angstrom^3]:                                            90.356959
 CELL| Vector a [angstrom]:       4.487     0.000     0.000   |a| =     4.487322
 CELL| Vector b [angstrom]:       0.000     4.487     0.000   |b| =     4.487322
 CELL| Vector c [angstrom]:       0.000     0.000     4.487   |c| =     4.487322
 CELL| Angle (b,c), alpha [degree]:                                    90.000000
 CELL| Angle (a,c), beta  [degree]:                                    90.000000
 CELL| Angle (a,b), gamma [degree]:                                    90.000000
 CELL| Numerically orthorhombic:                                             YES
 CELL| Periodicity                                                           XYZ

 CELL_REF| Volume [angstrom^3]:                                        90.356959
 CELL_REF| Vector a [angstrom     4.487     0.000     0.000   |a| =     4.487322
 CELL_REF| Vector b [angstrom     0.000     4.487     0.000   |b| =     4.487322
 CELL_REF| Vector c [angstrom     0.000     0.000     4.487   |c| =     4.487322
 CELL_REF| Angle (b,c), alpha [degree]:                                90.000000
 CELL_REF| Angle (a,c), beta  [degree]:                                90.000000
 CELL_REF| Angle (a,b), gamma [degree]:                                90.000000
 CELL_REF| Numerically orthorhombic:                                         YES
 CELL_REF| Periodicity                                                       XYZ

 GENERATE|  Preliminary Number of Bonds generated:                             0
 GENERATE|  Achieved consistency in connectivity generation.

 *******************************************************************************
 *******************************************************************************
 **                                                                           **
 **     #####                         ##              ##                      **
 **    ##   ##            ##          ##              ##                      **
 **   ##     ##                       ##            ######                    **
 **   ##     ##  ##   ##  ##   #####  ##  ##   ####   ##    #####    #####    **
 **   ##     ##  ##   ##  ##  ##      ## ##   ##      ##   ##   ##  ##   ##   **
 **   ##  ## ##  ##   ##  ##  ##      ####     ###    ##   ######   ######    **
 **    ##  ###   ##   ##  ##  ##      ## ##      ##   ##   ##       ##        **
 **     #######   #####   ##   #####  ##  ##  ####    ##    #####   ##        **
 **           ##                                                    ##        **
 **                                                                           **
 **                                                ... make the atoms dance   **
 **                                                                           **
 **            Copyright (C) by CP2K developers group (2000-2026)             **
 **                      J. Chem. Phys. 152, 194103 (2020)                    **
 **                                                                           **
 *******************************************************************************

 DFT| Spin restricted Kohn-Sham (RKS) calculation                            RKS
 DFT| Multiplicity                                                             1
 DFT| Number of spin states                                                    1
 DFT| Charge                                                                   0
 DFT| Self-interaction correction (SIC)                                       NO
 DFT| Cutoffs: density                                              1.000000E-10
 DFT|          gradient                                             1.000000E-10
 DFT|          tau                                                  1.000000E-10
 DFT|          cutoff_smoothing_range                               0.000000E+00
 DFT| XC density smoothing                                                  NONE
 DFT| XC derivatives                                                          PW

 FUNCTIONAL| GAUXC:
 FUNCTIONAL| Functional computed by GauXC Skala model SKALA                     

 vdW POTENTIAL|                                                   Pair Potential
 vdW POTENTIAL|          DFT-D3 (Version 3.1)
 vdW POTENTIAL|          Potential Form: S. Grimme et al, JCP 132: 154104 (2010)
 vdW POTENTIAL|          BJ Damping: S. Grimme et al, JCC 32: 1456 (2011)
 vdW POTENTIAL|          Cutoff Radius [Bohr]:                             37.79
 vdW POTENTIAL|          s6 Scaling Factor:                               1.0000
 vdW POTENTIAL|          a1 Damping Factor:                               0.3981
 vdW POTENTIAL|          s8 Scaling Factor:                               1.9889
 vdW POTENTIAL|          a2 Damping Factor:                               4.4211
 vdW POTENTIAL|          Cutoff for CN calculation:                   0.1000E-05

 QS| Method:                                                             GAPW_XC
 QS| Density plane wave grid type                        NON-SPHERICAL FULLSPACE
 QS| Number of grid levels:                                                    5
 QS| Density cutoff [a.u.]:                                                400.0
 QS| Multi grid cutoff [a.u.]: 1) grid level                               400.0
 QS|                           2) grid level                               133.3
 QS|                           3) grid level                                44.4
 QS|                           4) grid level                                14.8
 QS|                           5) grid level                                 4.9
 QS| Grid level progression factor:                                          3.0
 QS| Relative density cutoff [a.u.]:                                        30.0
 QS| Interaction thresholds: eps_pgf_orb:                                1.0E-06
 QS|                         eps_filter_matrix:                          0.0E+00
 QS|                         eps_core_charge:                            1.0E-14
 QS|                         eps_rho_gspace:                             1.0E-12
 QS|                         eps_rho_rspace:                             1.0E-12
 QS|                         eps_gvg_rspace:                             1.0E-06
 QS|                         eps_ppl:                                    1.0E-02
 QS|                         eps_ppnl:                                   1.0E-08
 QS| GAPW_XC|      One center basis extended with primitives (small:s)
 QS| GAPW_XC|                eps_fit:                                    1.0E-04
 QS| GAPW_XC|                eps_iso:                                    1.0E-12
 QS| GAPW_XC|                eps_svd:                                    1.0E-08
 QS| GAPW_XC|atom-r-grid: quadrature:                 GC_LOG                        
 QS| GAPW_XC|   atom-s-grid:  max l :                                          6


 ATOMIC KIND INFORMATION

  1. Atomic kind: Si                                    Number of atoms:       4

     Orbital Basis Set                                   TZV2P-MOLOPT-PBE-GTH-q4

       Number of orbital shell sets:                                           1
       Number of orbital shells:                                               9
       Number of primitive Cartesian functions:                                4
       Number of Cartesian basis functions:                                   34
       Number of spherical basis functions:                                   29
       Norm type:                                                              2

       Normalised Cartesian orbitals:

                        Set   Shell   Orbital            Exponent    Coefficient

                          1       1    2s                1.225726       0.396008
                                                         0.420991      -0.156102
                                                         0.169524      -0.164194
                                                         0.047522       0.001359

                          1       2    3s                1.225726      -0.314955
                                                         0.420991       0.115254
                                                         0.169524      -0.070030
                                                         0.047522      -0.053096

                          1       3    4s                1.225726      -0.770932
                                                         0.420991       0.139640
                                                         0.169524      -0.125600
                                                         0.047522       0.070994

                          1       4    3px               1.225726       0.193725
                                                         0.420991      -0.297086
                                                         0.169524      -0.078660
                                                         0.047522       0.000093
                          1       4    3py               1.225726       0.193725
                                                         0.420991      -0.297086
                                                         0.169524      -0.078660
                                                         0.047522       0.000093
                          1       4    3pz               1.225726       0.193725
                                                         0.420991      -0.297086
                                                         0.169524      -0.078660
                                                         0.047522       0.000093

                          1       5    4px               1.225726       0.165208
                                                         0.420991      -0.261223
                                                         0.169524       0.105025
                                                         0.047522       0.021509
                          1       5    4py               1.225726       0.165208
                                                         0.420991      -0.261223
                                                         0.169524       0.105025
                                                         0.047522       0.021509
                          1       5    4pz               1.225726       0.165208
                                                         0.420991      -0.261223
                                                         0.169524       0.105025
                                                         0.047522       0.021509

                          1       6    5px               1.225726      -1.548058
                                                         0.420991       0.146763
                                                         0.169524      -0.083355
                                                         0.047522       0.028085
                          1       6    5py               1.225726      -1.548058
                                                         0.420991       0.146763
                                                         0.169524      -0.083355
                                                         0.047522       0.028085
                          1       6    5pz               1.225726      -1.548058
                                                         0.420991       0.146763
                                                         0.169524      -0.083355
                                                         0.047522       0.028085

                          1       7    4dx2              1.225726       0.452920
                                                         0.420991       0.207665
                                                         0.169524       0.027528
                                                         0.047522       0.000294
                          1       7    4dxy              1.225726       0.784480
                                                         0.420991       0.359686
                                                         0.169524       0.047680
                                                         0.047522       0.000509
                          1       7    4dxz              1.225726       0.784480
                                                         0.420991       0.359686
                                                         0.169524       0.047680
                                                         0.047522       0.000509
                          1       7    4dy2              1.225726       0.452920
                                                         0.420991       0.207665
                                                         0.169524       0.027528
                                                         0.047522       0.000294
                          1       7    4dyz              1.225726       0.784480
                                                         0.420991       0.359686
                                                         0.169524       0.047680
                                                         0.047522       0.000509
                          1       7    4dz2              1.225726       0.452920
                                                         0.420991       0.207665
                                                         0.169524       0.027528
                                                         0.047522       0.000294

                          1       8    5dx2              1.225726      -2.995584
                                                         0.420991       0.255705
                                                         0.169524      -0.031782
                                                         0.047522       0.000380
                          1       8    5dxy              1.225726      -5.188503
                                                         0.420991       0.442894
                                                         0.169524      -0.055048
                                                         0.047522       0.000659
                          1       8    5dxz              1.225726      -5.188503
                                                         0.420991       0.442894
                                                         0.169524      -0.055048
                                                         0.047522       0.000659
                          1       8    5dy2              1.225726      -2.995584
                                                         0.420991       0.255705
                                                         0.169524      -0.031782
                                                         0.047522       0.000380
                          1       8    5dyz              1.225726      -5.188503
                                                         0.420991       0.442894
                                                         0.169524      -0.055048
                                                         0.047522       0.000659
                          1       8    5dz2              1.225726      -2.995584
                                                         0.420991       0.255705
                                                         0.169524      -0.031782
                                                         0.047522       0.000380

                          1       9    5fx3              1.225726       0.367804
                                                         0.420991       0.134089
                                                         0.169524       0.010284
                                                         0.047522      -0.000037
                          1       9    5fx2y             1.225726       0.822434
                                                         0.420991       0.299833
                                                         0.169524       0.022995
                                                         0.047522      -0.000084
                          1       9    5fx2z             1.225726       0.822434
                                                         0.420991       0.299833
                                                         0.169524       0.022995
                                                         0.047522      -0.000084
                          1       9    5fxy2             1.225726       0.822434
                                                         0.420991       0.299833
                                                         0.169524       0.022995
                                                         0.047522      -0.000084
                          1       9    5fxyz             1.225726       1.424498
                                                         0.420991       0.519326
                                                         0.169524       0.039829
                                                         0.047522      -0.000145
                          1       9    5fxz2             1.225726       0.822434
                                                         0.420991       0.299833
                                                         0.169524       0.022995
                                                         0.047522      -0.000084
                          1       9    5fy3              1.225726       0.367804
                                                         0.420991       0.134089
                                                         0.169524       0.010284
                                                         0.047522      -0.000037
                          1       9    5fy2z             1.225726       0.822434
                                                         0.420991       0.299833
                                                         0.169524       0.022995
                                                         0.047522      -0.000084
                          1       9    5fyz2             1.225726       0.822434
                                                         0.420991       0.299833
                                                         0.169524       0.022995
                                                         0.047522      -0.000084
                          1       9    5fz3              1.225726       0.367804
                                                         0.420991       0.134089
                                                         0.169524       0.010284
                                                         0.047522      -0.000037

       Atomic covalent radius [Angstrom]:                                  1.110

       Atomic van der Waals radius [Angstrom]:                             2.100

     The atoms of this atomic kind are PAW atoms (GAPW):
       Hard Gaussian function radius:                                      1.900
       Rho0 radius:                                                        1.900
       Maximum GTO radius used for PAW projector construction:            24.566

     GAPW Soft Basis Set                            TZV2P-MOLOPT-PBE-GTH-q4_soft

       Number of orbital shell sets:                                           1
       Number of orbital shells:                                               9
       Number of primitive Cartesian functions:                                4
       Number of Cartesian basis functions:                                   34
       Number of spherical basis functions:                                   29
       Norm type:                                                              2

       Normalised Cartesian orbitals:

                        Set   Shell   Orbital            Exponent    Coefficient

                          1       1    2s                1.225726       0.396008
                                                         0.420991      -0.156102
                                                         0.169524      -0.164194
                                                         0.047522       0.001359

                          1       2    3s                1.225726      -0.314955
                                                         0.420991       0.115254
                                                         0.169524      -0.070030
                                                         0.047522      -0.053096

                          1       3    4s                1.225726      -0.770932
                                                         0.420991       0.139640
                                                         0.169524      -0.125600
                                                         0.047522       0.070994

                          1       4    3px               1.225726       0.193725
                                                         0.420991      -0.297086
                                                         0.169524      -0.078660
                                                         0.047522       0.000093
                          1       4    3py               1.225726       0.193725
                                                         0.420991      -0.297086
                                                         0.169524      -0.078660
                                                         0.047522       0.000093
                          1       4    3pz               1.225726       0.193725
                                                         0.420991      -0.297086
                                                         0.169524      -0.078660
                                                         0.047522       0.000093

                          1       5    4px               1.225726       0.165208
                                                         0.420991      -0.261223
                                                         0.169524       0.105025
                                                         0.047522       0.021509
                          1       5    4py               1.225726       0.165208
                                                         0.420991      -0.261223
                                                         0.169524       0.105025
                                                         0.047522       0.021509
                          1       5    4pz               1.225726       0.165208
                                                         0.420991      -0.261223
                                                         0.169524       0.105025
                                                         0.047522       0.021509

                          1       6    5px               1.225726      -1.548058
                                                         0.420991       0.146763
                                                         0.169524      -0.083355
                                                         0.047522       0.028085
                          1       6    5py               1.225726      -1.548058
                                                         0.420991       0.146763
                                                         0.169524      -0.083355
                                                         0.047522       0.028085
                          1       6    5pz               1.225726      -1.548058
                                                         0.420991       0.146763
                                                         0.169524      -0.083355
                                                         0.047522       0.028085

                          1       7    4dx2              1.225726       0.452920
                                                         0.420991       0.207665
                                                         0.169524       0.027528
                                                         0.047522       0.000294
                          1       7    4dxy              1.225726       0.784480
                                                         0.420991       0.359686
                                                         0.169524       0.047680
                                                         0.047522       0.000509
                          1       7    4dxz              1.225726       0.784480
                                                         0.420991       0.359686
                                                         0.169524       0.047680
                                                         0.047522       0.000509
                          1       7    4dy2              1.225726       0.452920
                                                         0.420991       0.207665
                                                         0.169524       0.027528
                                                         0.047522       0.000294
                          1       7    4dyz              1.225726       0.784480
                                                         0.420991       0.359686
                                                         0.169524       0.047680
                                                         0.047522       0.000509
                          1       7    4dz2              1.225726       0.452920
                                                         0.420991       0.207665
                                                         0.169524       0.027528
                                                         0.047522       0.000294

                          1       8    5dx2              1.225726      -2.995584
                                                         0.420991       0.255705
                                                         0.169524      -0.031782
                                                         0.047522       0.000380
                          1       8    5dxy              1.225726      -5.188503
                                                         0.420991       0.442894
                                                         0.169524      -0.055048
                                                         0.047522       0.000659
                          1       8    5dxz              1.225726      -5.188503
                                                         0.420991       0.442894
                                                         0.169524      -0.055048
                                                         0.047522       0.000659
                          1       8    5dy2              1.225726      -2.995584
                                                         0.420991       0.255705
                                                         0.169524      -0.031782
                                                         0.047522       0.000380
                          1       8    5dyz              1.225726      -5.188503
                                                         0.420991       0.442894
                                                         0.169524      -0.055048
                                                         0.047522       0.000659
                          1       8    5dz2              1.225726      -2.995584
                                                         0.420991       0.255705
                                                         0.169524      -0.031782
                                                         0.047522       0.000380

                          1       9    5fx3              1.225726       0.367804
                                                         0.420991       0.134089
                                                         0.169524       0.010284
                                                         0.047522      -0.000037
                          1       9    5fx2y             1.225726       0.822434
                                                         0.420991       0.299833
                                                         0.169524       0.022995
                                                         0.047522      -0.000084
                          1       9    5fx2z             1.225726       0.822434
                                                         0.420991       0.299833
                                                         0.169524       0.022995
                                                         0.047522      -0.000084
                          1       9    5fxy2             1.225726       0.822434
                                                         0.420991       0.299833
                                                         0.169524       0.022995
                                                         0.047522      -0.000084
                          1       9    5fxyz             1.225726       1.424498
                                                         0.420991       0.519326
                                                         0.169524       0.039829
                                                         0.047522      -0.000145
                          1       9    5fxz2             1.225726       0.822434
                                                         0.420991       0.299833
                                                         0.169524       0.022995
                                                         0.047522      -0.000084
                          1       9    5fy3              1.225726       0.367804
                                                         0.420991       0.134089
                                                         0.169524       0.010284
                                                         0.047522      -0.000037
                          1       9    5fy2z             1.225726       0.822434
                                                         0.420991       0.299833
                                                         0.169524       0.022995
                                                         0.047522      -0.000084
                          1       9    5fyz2             1.225726       0.822434
                                                         0.420991       0.299833
                                                         0.169524       0.022995
                                                         0.047522      -0.000084
                          1       9    5fz3              1.225726       0.367804
                                                         0.420991       0.134089
                                                         0.169524       0.010284
                                                         0.047522      -0.000037

     GTH Potential information for                                    GTH-PBE-q4

       Description:                       Goedecker-Teter-Hutter pseudopotential
                                           Goedecker et al., PRB 54, 1703 (1996)
                                          Hartwigsen et al., PRB 58, 3641 (1998)
                                                      Krack, TCA 114, 145 (2005)

       Gaussian exponent of the core charge distribution:               2.582849
       Electronic configuration (s p d ...):                       2   2   0   0

       Parameters of the local part of the GTH pseudopotential:

                          rloc        C1          C2          C3          C4
                        0.439983   -6.269270

       Parameters of the non-local part of the GTH pseudopotential:

                   l      r(l)      h(i,j,l)

                   0    0.435635    8.951852   -2.706271
                                   -2.706271    3.493787
                   1    0.497958    2.431277

  2. Atomic kind: C                                     Number of atoms:       4

     Orbital Basis Set                                   TZV2P-MOLOPT-PBE-GTH-q4

       Number of orbital shell sets:                                           1
       Number of orbital shells:                                               9
       Number of primitive Cartesian functions:                                5
       Number of Cartesian basis functions:                                   34
       Number of spherical basis functions:                                   29
       Norm type:                                                              2

       Normalised Cartesian orbitals:

                        Set   Shell   Orbital            Exponent    Coefficient

                          1       1    2s                5.599010      -0.388516
                                                         2.008517      -0.222960
                                                         0.755557       0.256069
                                                         0.292158       0.177682
                                                         0.105328       0.019401

                          1       2    3s                5.599010       0.700337
                                                         2.008517       0.202467
                                                         0.755557      -0.073086
                                                         0.292158      -0.004274
                                                         0.105328       0.122810

                          1       3    4s                5.599010      -2.176345
                                                         2.008517      -0.220775
                                                         0.755557       0.109238
                                                         0.292158      -0.129517
                                                         0.105328       0.038801

                          1       4    3px               5.599010      -0.769001
                                                         2.008517      -0.634471
                                                         0.755557      -0.400220
                                                         0.292158      -0.124705
                                                         0.105328      -0.014325
                          1       4    3py               5.599010      -0.769001
                                                         2.008517      -0.634471
                                                         0.755557      -0.400220
                                                         0.292158      -0.124705
                                                         0.105328      -0.014325
                          1       4    3pz               5.599010      -0.769001
                                                         2.008517      -0.634471
                                                         0.755557      -0.400220
                                                         0.292158      -0.124705
                                                         0.105328      -0.014325

                          1       5    4px               5.599010       0.895802
                                                         2.008517       0.817480
                                                         0.755557       0.269326
                                                         0.292158       0.009009
                                                         0.105328      -0.085852
                          1       5    4py               5.599010       0.895802
                                                         2.008517       0.817480
                                                         0.755557       0.269326
                                                         0.292158       0.009009
                                                         0.105328      -0.085852
                          1       5    4pz               5.599010       0.895802
                                                         2.008517       0.817480
                                                         0.755557       0.269326
                                                         0.292158       0.009009
                                                         0.105328      -0.085852

                          1       6    5px               5.599010       1.029767
                                                         2.008517       2.903527
                                                         0.755557       0.336187
                                                         0.292158      -0.258025
                                                         0.105328       0.023472
                          1       6    5py               5.599010       1.029767
                                                         2.008517       2.903527
                                                         0.755557       0.336187
                                                         0.292158      -0.258025
                                                         0.105328       0.023472
                          1       6    5pz               5.599010       1.029767
                                                         2.008517       2.903527
                                                         0.755557       0.336187
                                                         0.292158      -0.258025
                                                         0.105328       0.023472

                          1       7    4dx2              5.599010      -4.629244
                                                         2.008517       1.670071
                                                         0.755557       0.309368
                                                         0.292158       0.124707
                                                         0.105328      -0.001260
                          1       7    4dxy              5.599010      -8.018085
                                                         2.008517       2.892648
                                                         0.755557       0.535841
                                                         0.292158       0.215998
                                                         0.105328      -0.002182
                          1       7    4dxz              5.599010      -8.018085
                                                         2.008517       2.892648
                                                         0.755557       0.535841
                                                         0.292158       0.215998
                                                         0.105328      -0.002182
                          1       7    4dy2              5.599010      -4.629244
                                                         2.008517       1.670071
                                                         0.755557       0.309368
                                                         0.292158       0.124707
                                                         0.105328      -0.001260
                          1       7    4dyz              5.599010      -8.018085
                                                         2.008517       2.892648
                                                         0.755557       0.535841
                                                         0.292158       0.215998
                                                         0.105328      -0.002182
                          1       7    4dz2              5.599010      -4.629244
                                                         2.008517       1.670071
                                                         0.755557       0.309368
                                                         0.292158       0.124707
                                                         0.105328      -0.001260

                          1       8    5dx2              5.599010      -0.765539
                                                         2.008517       0.044731
                                                         0.755557       0.033894
                                                         0.292158       0.006499
                                                         0.105328       0.031042
                          1       8    5dxy              5.599010      -1.325952
                                                         2.008517       0.077477
                                                         0.755557       0.058707
                                                         0.292158       0.011257
                                                         0.105328       0.053766
                          1       8    5dxz              5.599010      -1.325952
                                                         2.008517       0.077477
                                                         0.755557       0.058707
                                                         0.292158       0.011257
                                                         0.105328       0.053766
                          1       8    5dy2              5.599010      -0.765539
                                                         2.008517       0.044731
                                                         0.755557       0.033894
                                                         0.292158       0.006499
                                                         0.105328       0.031042
                          1       8    5dyz              5.599010      -1.325952
                                                         2.008517       0.077477
                                                         0.755557       0.058707
                                                         0.292158       0.011257
                                                         0.105328       0.053766
                          1       8    5dz2              5.599010      -0.765539
                                                         2.008517       0.044731
                                                         0.755557       0.033894
                                                         0.292158       0.006499
                                                         0.105328       0.031042

                          1       9    5fx3              5.599010      -0.150044
                                                         2.008517      -0.042629
                                                         0.755557       0.009866
                                                         0.292158       0.091648
                                                         0.105328       0.000020
                          1       9    5fx2y             5.599010      -0.335509
                                                         2.008517      -0.095321
                                                         0.755557       0.022061
                                                         0.292158       0.204931
                                                         0.105328       0.000045
                          1       9    5fx2z             5.599010      -0.335509
                                                         2.008517      -0.095321
                                                         0.755557       0.022061
                                                         0.292158       0.204931
                                                         0.105328       0.000045
                          1       9    5fxy2             5.599010      -0.335509
                                                         2.008517      -0.095321
                                                         0.755557       0.022061
                                                         0.292158       0.204931
                                                         0.105328       0.000045
                          1       9    5fxyz             5.599010      -0.581119
                                                         2.008517      -0.165100
                                                         0.755557       0.038210
                                                         0.292158       0.354951
                                                         0.105328       0.000078
                          1       9    5fxz2             5.599010      -0.335509
                                                         2.008517      -0.095321
                                                         0.755557       0.022061
                                                         0.292158       0.204931
                                                         0.105328       0.000045
                          1       9    5fy3              5.599010      -0.150044
                                                         2.008517      -0.042629
                                                         0.755557       0.009866
                                                         0.292158       0.091648
                                                         0.105328       0.000020
                          1       9    5fy2z             5.599010      -0.335509
                                                         2.008517      -0.095321
                                                         0.755557       0.022061
                                                         0.292158       0.204931
                                                         0.105328       0.000045
                          1       9    5fyz2             5.599010      -0.335509
                                                         2.008517      -0.095321
                                                         0.755557       0.022061
                                                         0.292158       0.204931
                                                         0.105328       0.000045
                          1       9    5fz3              5.599010      -0.150044
                                                         2.008517      -0.042629
                                                         0.755557       0.009866
                                                         0.292158       0.091648
                                                         0.105328       0.000020

       Atomic covalent radius [Angstrom]:                                  0.770

       Atomic van der Waals radius [Angstrom]:                             1.700

     The atoms of this atomic kind are PAW atoms (GAPW):
       Hard Gaussian function radius:                                      1.520
       Rho0 radius:                                                        1.520
       Maximum GTO radius used for PAW projector construction:            24.566

     GAPW Soft Basis Set                            TZV2P-MOLOPT-PBE-GTH-q4_soft

       Number of orbital shell sets:                                           1
       Number of orbital shells:                                               9
       Number of primitive Cartesian functions:                                4
       Number of Cartesian basis functions:                                   34
       Number of spherical basis functions:                                   29
       Norm type:                                                              2

       Normalised Cartesian orbitals:

                        Set   Shell   Orbital            Exponent    Coefficient

                          1       1    2s                2.008517      -0.222960
                                                         0.755557       0.256069
                                                         0.292158       0.177682
                                                         0.105328       0.019401

                          1       2    3s                2.008517       0.202467
                                                         0.755557      -0.073086
                                                         0.292158      -0.004274
                                                         0.105328       0.122810

                          1       3    4s                2.008517      -0.220775
                                                         0.755557       0.109238
                                                         0.292158      -0.129517
                                                         0.105328       0.038801

                          1       4    3px               2.008517      -0.634471
                                                         0.755557      -0.400220
                                                         0.292158      -0.124705
                                                         0.105328      -0.014325
                          1       4    3py               2.008517      -0.634471
                                                         0.755557      -0.400220
                                                         0.292158      -0.124705
                                                         0.105328      -0.014325
                          1       4    3pz               2.008517      -0.634471
                                                         0.755557      -0.400220
                                                         0.292158      -0.124705
                                                         0.105328      -0.014325

                          1       5    4px               2.008517       0.817480
                                                         0.755557       0.269326
                                                         0.292158       0.009009
                                                         0.105328      -0.085852
                          1       5    4py               2.008517       0.817480
                                                         0.755557       0.269326
                                                         0.292158       0.009009
                                                         0.105328      -0.085852
                          1       5    4pz               2.008517       0.817480
                                                         0.755557       0.269326
                                                         0.292158       0.009009
                                                         0.105328      -0.085852

                          1       6    5px               2.008517       2.903527
                                                         0.755557       0.336187
                                                         0.292158      -0.258025
                                                         0.105328       0.023472
                          1       6    5py               2.008517       2.903527
                                                         0.755557       0.336187
                                                         0.292158      -0.258025
                                                         0.105328       0.023472
                          1       6    5pz               2.008517       2.903527
                                                         0.755557       0.336187
                                                         0.292158      -0.258025
                                                         0.105328       0.023472

                          1       7    4dx2              2.008517       1.670071
                                                         0.755557       0.309368
                                                         0.292158       0.124707
                                                         0.105328      -0.001260
                          1       7    4dxy              2.008517       2.892648
                                                         0.755557       0.535841
                                                         0.292158       0.215998
                                                         0.105328      -0.002182
                          1       7    4dxz              2.008517       2.892648
                                                         0.755557       0.535841
                                                         0.292158       0.215998
                                                         0.105328      -0.002182
                          1       7    4dy2              2.008517       1.670071
                                                         0.755557       0.309368
                                                         0.292158       0.124707
                                                         0.105328      -0.001260
                          1       7    4dyz              2.008517       2.892648
                                                         0.755557       0.535841
                                                         0.292158       0.215998
                                                         0.105328      -0.002182
                          1       7    4dz2              2.008517       1.670071
                                                         0.755557       0.309368
                                                         0.292158       0.124707
                                                         0.105328      -0.001260

                          1       8    5dx2              2.008517       0.044731
                                                         0.755557       0.033894
                                                         0.292158       0.006499
                                                         0.105328       0.031042
                          1       8    5dxy              2.008517       0.077477
                                                         0.755557       0.058707
                                                         0.292158       0.011257
                                                         0.105328       0.053766
                          1       8    5dxz              2.008517       0.077477
                                                         0.755557       0.058707
                                                         0.292158       0.011257
                                                         0.105328       0.053766
                          1       8    5dy2              2.008517       0.044731
                                                         0.755557       0.033894
                                                         0.292158       0.006499
                                                         0.105328       0.031042
                          1       8    5dyz              2.008517       0.077477
                                                         0.755557       0.058707
                                                         0.292158       0.011257
                                                         0.105328       0.053766
                          1       8    5dz2              2.008517       0.044731
                                                         0.755557       0.033894
                                                         0.292158       0.006499
                                                         0.105328       0.031042

                          1       9    5fx3              2.008517      -0.042629
                                                         0.755557       0.009866
                                                         0.292158       0.091648
                                                         0.105328       0.000020
                          1       9    5fx2y             2.008517      -0.095321
                                                         0.755557       0.022061
                                                         0.292158       0.204931
                                                         0.105328       0.000045
                          1       9    5fx2z             2.008517      -0.095321
                                                         0.755557       0.022061
                                                         0.292158       0.204931
                                                         0.105328       0.000045
                          1       9    5fxy2             2.008517      -0.095321
                                                         0.755557       0.022061
                                                         0.292158       0.204931
                                                         0.105328       0.000045
                          1       9    5fxyz             2.008517      -0.165100
                                                         0.755557       0.038210
                                                         0.292158       0.354951
                                                         0.105328       0.000078
                          1       9    5fxz2             2.008517      -0.095321
                                                         0.755557       0.022061
                                                         0.292158       0.204931
                                                         0.105328       0.000045
                          1       9    5fy3              2.008517      -0.042629
                                                         0.755557       0.009866
                                                         0.292158       0.091648
                                                         0.105328       0.000020
                          1       9    5fy2z             2.008517      -0.095321
                                                         0.755557       0.022061
                                                         0.292158       0.204931
                                                         0.105328       0.000045
                          1       9    5fyz2             2.008517      -0.095321
                                                         0.755557       0.022061
                                                         0.292158       0.204931
                                                         0.105328       0.000045
                          1       9    5fz3              2.008517      -0.042629
                                                         0.755557       0.009866
                                                         0.292158       0.091648
                                                         0.105328       0.000020

     GTH Potential information for                                    GTH-PBE-q4

       Description:                       Goedecker-Teter-Hutter pseudopotential
                                           Goedecker et al., PRB 54, 1703 (1996)
                                          Hartwigsen et al., PRB 58, 3641 (1998)
                                                      Krack, TCA 114, 145 (2005)

       Gaussian exponent of the core charge distribution:               4.362265
       Electronic configuration (s p d ...):                       2   2   0   0

       Parameters of the local part of the GTH pseudopotential:

                          rloc        C1          C2          C3          C4
                        0.338555   -8.804552    1.338377

       Parameters of the non-local part of the GTH pseudopotential:

                   l      r(l)      h(i,j,l)

                   0    0.302610    9.622862


 MOLECULE KIND INFORMATION


 All atoms are their own molecule, skipping detailed information


 TOTAL NUMBERS AND MAXIMUM NUMBERS

  Total number of            - Atomic kinds:                                   2
                             - Atoms:                                          8
                             - Shell sets:                                     8
                             - Shells:                                        72
                             - Primitive Cartesian functions:                 36
                             - Cartesian basis functions:                    272
                             - Spherical basis functions:                    232

  Maximum angular momentum of- Orbital basis functions:                        3
                             - Local part of the GTH pseudopotential:          2
                             - Non-local part of the GTH pseudopotential:      2


 MODULE QUICKSTEP: ATOMIC COORDINATES IN ANGSTROM

   Atom Kind Element         X             Y             Z       Z(eff)     Mass
      1    1 Si   14      0.000000      0.000000      0.000000   4.0000  28.0855
      2    1 Si   14      0.000000      2.243661      2.243661   4.0000  28.0855
      3    1 Si   14      2.243661      0.000000      2.243661   4.0000  28.0855
      4    1 Si   14      2.243661      2.243661      0.000000   4.0000  28.0855
      5    2 C     6      1.121830      1.121830      1.121830   4.0000  12.0107
      6    2 C     6      1.121830      3.365491      3.365491   4.0000  12.0107
      7    2 C     6      3.365491      1.121830      3.365491   4.0000  12.0107
      8    2 C     6      3.365491      3.365491      1.121830   4.0000  12.0107



 SCF PARAMETERS         Density guess:                                   RESTART
                        --------------------------------------------------------
                        max_scf:                                              50
                        max_scf_history:                                       0
                        max_diis:                                              4
                        --------------------------------------------------------
                        eps_scf:                                        5.00E-07
                        eps_scf_history:                                0.00E+00
                        eps_diis:                                       0.00E+00
                        eps_eigval:                                     1.00E-05
                        --------------------------------------------------------
                        level_shift [a.u.]:                             0.000000
                        --------------------------------------------------------
                        Outer loop SCF in use 
                        No variables optimised in outer loop
                        eps_scf                                         5.00E-07
                        max_scf                                                4
                        No outer loop optimization
                        step_size                                       5.00E-01

 PW_GRID| Information for grid number                                          1
 PW_GRID| Cutoff [a.u.]                                                    400.0
 PW_GRID| spherical cutoff:                                                   NO
 PW_GRID|   Bounds   1            -40      39                Points:          80
 PW_GRID|   Bounds   2            -40      39                Points:          80
 PW_GRID|   Bounds   3            -40      39                Points:          80
 PW_GRID| Volume element (a.u.^3)  0.1191E-02     Volume (a.u.^3)       609.7590
 PW_GRID| Grid span                                                    FULLSPACE

 PW_GRID| Information for grid number                                          2
 PW_GRID| Number of the reference grid                                         1
 PW_GRID| Cutoff [a.u.]                                                    133.3
 PW_GRID| spherical cutoff:                                                   NO
 PW_GRID|   Bounds   1            -22      22                Points:          45
 PW_GRID|   Bounds   2            -22      22                Points:          45
 PW_GRID|   Bounds   3            -22      22                Points:          45
 PW_GRID| Volume element (a.u.^3)  0.6691E-02     Volume (a.u.^3)       609.7590
 PW_GRID| Grid span                                                    FULLSPACE

 PW_GRID| Information for grid number                                          3
 PW_GRID| Number of the reference grid                                         1
 PW_GRID| Cutoff [a.u.]                                                     44.4
 PW_GRID| spherical cutoff:                                                   NO
 PW_GRID|   Bounds   1            -12      12                Points:          25
 PW_GRID|   Bounds   2            -12      12                Points:          25
 PW_GRID|   Bounds   3            -12      12                Points:          25
 PW_GRID| Volume element (a.u.^3)  0.3902E-01     Volume (a.u.^3)       609.7590
 PW_GRID| Grid span                                                    FULLSPACE

 PW_GRID| Information for grid number                                          4
 PW_GRID| Number of the reference grid                                         1
 PW_GRID| Cutoff [a.u.]                                                     14.8
 PW_GRID| spherical cutoff:                                                   NO
 PW_GRID|   Bounds   1             -7       7                Points:          15
 PW_GRID|   Bounds   2             -7       7                Points:          15
 PW_GRID|   Bounds   3             -7       7                Points:          15
 PW_GRID| Volume element (a.u.^3)  0.1807         Volume (a.u.^3)       609.7590
 PW_GRID| Grid span                                                    FULLSPACE

 PW_GRID| Information for grid number                                          5
 PW_GRID| Number of the reference grid                                         1
 PW_GRID| Cutoff [a.u.]                                                      4.9
 PW_GRID| spherical cutoff:                                                   NO
 PW_GRID|   Bounds   1             -4       4                Points:           9
 PW_GRID|   Bounds   2             -4       4                Points:           9
 PW_GRID|   Bounds   3             -4       4                Points:           9
 PW_GRID| Volume element (a.u.^3)  0.8364         Volume (a.u.^3)       609.7590
 PW_GRID| Grid span                                                    FULLSPACE

 POISSON| Solver                                                        PERIODIC
 POISSON| Periodicity                                                        XYZ

 RS_GRID| Information for grid number                                          1
 RS_GRID|   Bounds   1            -40      39                Points:          80
 RS_GRID|   Bounds   2            -40      39                Points:          80
 RS_GRID|   Bounds   3            -40      39                Points:          80

 RS_GRID| Information for grid number                                          2
 RS_GRID|   Bounds   1            -22      22                Points:          45
 RS_GRID|   Bounds   2            -22      22                Points:          45
 RS_GRID|   Bounds   3            -22      22                Points:          45

 RS_GRID| Information for grid number                                          3
 RS_GRID|   Bounds   1            -12      12                Points:          25
 RS_GRID|   Bounds   2            -12      12                Points:          25
 RS_GRID|   Bounds   3            -12      12                Points:          25

 RS_GRID| Information for grid number                                          4
 RS_GRID|   Bounds   1             -7       7                Points:          15
 RS_GRID|   Bounds   2             -7       7                Points:          15
 RS_GRID|   Bounds   3             -7       7                Points:          15

 RS_GRID| Information for grid number                                          5
 RS_GRID|   Bounds   1             -4       4                Points:           9
 RS_GRID|   Bounds   2             -4       4                Points:           9
 RS_GRID|   Bounds   3             -4       4                Points:           9

 *******************************************************************************
                                    Kpoints
 *******************************************************************************
 BRILLOUIN| K-point scheme                                        Monkhorst-Pack
 BRILLOUIN| K-Point grid                                             5    5    5
 BRILLOUIN| Gamma-centered k-point mesh                                     ON
 BRILLOUIN| K-point symmetry accuracy                               0.100000E-07
 BRILLOUIN| K-Point point group symmetrization                                ON
 BRILLOUIN| Restrict symmetry to inversion                                    ON
 BRILLOUIN| Wavefunction type                                            COMPLEX
 BRILLOUIN| List of Kpoints [2 Pi/Bohr]                                       63
 BRILLOUIN| Number           Weight            X              Y              Z
 BRILLOUIN|     1           0.01600       -0.40000       -0.40000       -0.40000
 BRILLOUIN|     2           0.01600       -0.40000       -0.40000       -0.20000
 BRILLOUIN|     3           0.01600       -0.40000       -0.40000        0.00000
 BRILLOUIN|     4           0.01600       -0.40000       -0.40000        0.20000
 BRILLOUIN|     5           0.01600       -0.40000       -0.40000        0.40000
 BRILLOUIN|     6           0.01600       -0.40000       -0.20000       -0.40000
 BRILLOUIN|     7           0.01600       -0.40000       -0.20000       -0.20000
 BRILLOUIN|     8           0.01600       -0.40000       -0.20000        0.00000
 BRILLOUIN|     9           0.01600       -0.40000       -0.20000        0.20000
 BRILLOUIN|    10           0.01600       -0.40000       -0.20000        0.40000
 BRILLOUIN|    11           0.01600       -0.40000        0.00000       -0.40000
 BRILLOUIN|    12           0.01600       -0.40000        0.00000       -0.20000
 BRILLOUIN|    13           0.01600       -0.40000        0.00000        0.00000
 BRILLOUIN|    14           0.01600       -0.40000        0.00000        0.20000
 BRILLOUIN|    15           0.01600       -0.40000        0.00000        0.40000
 BRILLOUIN|    16           0.01600       -0.40000        0.20000       -0.40000
 BRILLOUIN|    17           0.01600       -0.40000        0.20000       -0.20000
 BRILLOUIN|    18           0.01600       -0.40000        0.20000        0.00000
 BRILLOUIN|    19           0.01600       -0.40000        0.20000        0.20000
 BRILLOUIN|    20           0.01600       -0.40000        0.20000        0.40000
 BRILLOUIN|    21           0.01600       -0.40000        0.40000       -0.40000
 BRILLOUIN|    22           0.01600       -0.40000        0.40000       -0.20000
 BRILLOUIN|    23           0.01600       -0.40000        0.40000        0.00000
 BRILLOUIN|    24           0.01600       -0.40000        0.40000        0.20000
 BRILLOUIN|    25           0.01600       -0.40000        0.40000        0.40000
 BRILLOUIN|    26           0.01600       -0.20000       -0.40000       -0.40000
 BRILLOUIN|    27           0.01600       -0.20000       -0.40000       -0.20000
 BRILLOUIN|    28           0.01600       -0.20000       -0.40000        0.00000
 BRILLOUIN|    29           0.01600       -0.20000       -0.40000        0.20000
 BRILLOUIN|    30           0.01600       -0.20000       -0.40000        0.40000
 BRILLOUIN|    31           0.01600       -0.20000       -0.20000       -0.40000
 BRILLOUIN|    32           0.01600       -0.20000       -0.20000       -0.20000
 BRILLOUIN|    33           0.01600       -0.20000       -0.20000        0.00000
 BRILLOUIN|    34           0.01600       -0.20000       -0.20000        0.20000
 BRILLOUIN|    35           0.01600       -0.20000       -0.20000        0.40000
 BRILLOUIN|    36           0.01600       -0.20000        0.00000       -0.40000
 BRILLOUIN|    37           0.01600       -0.20000        0.00000       -0.20000
 BRILLOUIN|    38           0.01600       -0.20000        0.00000        0.00000
 BRILLOUIN|    39           0.01600       -0.20000        0.00000        0.20000
 BRILLOUIN|    40           0.01600       -0.20000        0.00000        0.40000
 BRILLOUIN|    41           0.01600       -0.20000        0.20000       -0.40000
 BRILLOUIN|    42           0.01600       -0.20000        0.20000       -0.20000
 BRILLOUIN|    43           0.01600       -0.20000        0.20000        0.00000
 BRILLOUIN|    44           0.01600       -0.20000        0.20000        0.20000
 BRILLOUIN|    45           0.01600       -0.20000        0.20000        0.40000
 BRILLOUIN|    46           0.01600       -0.20000        0.40000       -0.40000
 BRILLOUIN|    47           0.01600       -0.20000        0.40000       -0.20000
 BRILLOUIN|    48           0.01600       -0.20000        0.40000        0.00000
 BRILLOUIN|    49           0.01600       -0.20000        0.40000        0.20000
 BRILLOUIN|    50           0.01600       -0.20000        0.40000        0.40000
 BRILLOUIN|    51           0.01600        0.00000       -0.40000       -0.40000
 BRILLOUIN|    52           0.01600        0.00000       -0.40000       -0.20000
 BRILLOUIN|    53           0.01600        0.00000       -0.40000        0.00000
 BRILLOUIN|    54           0.01600        0.00000       -0.40000        0.20000
 BRILLOUIN|    55           0.01600        0.00000       -0.40000        0.40000
 BRILLOUIN|    56           0.01600        0.00000       -0.20000       -0.40000
 BRILLOUIN|    57           0.01600        0.00000       -0.20000       -0.20000
 BRILLOUIN|    58           0.01600        0.00000       -0.20000        0.00000
 BRILLOUIN|    59           0.01600        0.00000       -0.20000        0.20000
 BRILLOUIN|    60           0.01600        0.00000       -0.20000        0.40000
 BRILLOUIN|    61           0.01600        0.00000        0.00000       -0.40000
 BRILLOUIN|    62           0.01600        0.00000        0.00000       -0.20000
 BRILLOUIN|    63           0.00800        0.00000        0.00000        0.00000
 *******************************************************************************

 *** WARNING in qs_scf_initialization.F:718 :: MO derivative methods flag ***
 *** has been switched off for kpoint calculation                         ***


 Extrapolation method: initial_guess

 Number of electrons:                                                         32
 Number of occupied orbitals:                                                 16
 Number of molecular orbitals:                                                16

 Number of orbital functions:                                                232
 Number of independent orbital functions:                                    232


 SCF WAVEFUNCTION OPTIMIZATION

  ----------------------------------- OT ---------------------------------------
  Minimizer      : DIIS                : direct inversion
                                         in the iterative subspace
                                         using   7 DIIS vectors
                                         safer DIIS on
  Preconditioner : FULL_ALL            : diagonalization, state selective
  Precond_solver : DEFAULT
  stepsize       :    0.00100000                  energy_gap     :    0.00100000
  ortho_irac     : CHOL                           irac_degree    :             4
  max_irac       :            50                  eps_irac       :   0.10000E-09
  eps_irac_switch:   0.10000E-01                  eps_irac_quick_exit: 0.100E-04
  on_the_fly_loc : F
  ----------------------------------- OT ---------------------------------------

  Step     Update method      Time    Convergence         Total energy    Change
  ------------------------------------------------------------------------------

 *** WARNING in qs_ks_methods.F:773 :: Native SKALA grid evaluation with   ***
 *** k-points is using the CPU TorchScript path. Use a mutually compatible ***
 *** BLAS, ScaLAPACK, OpenMP, and LibTorch runtime stack, or select        ***
 *** NATIVE_GRID_USE_CUDA T.                                               ***

 SKALA_GPW| Atom-composite cross support/maxima   2.489187485724E+00   3.438680430301E-02   1.715555025220E-01   1.162601284920E+00
 SKALA_GPW| Active atom-composite XC energy  -1.1982657624729317E+01
 SKALA_GPW| Active atom-composite electrons   3.2040520427446467E+01
 SKALA_GPW| Active atom-composite density range   2.6326184236757921E-05   1.3492998045904583E-01
 SKALA_GPW| Active atom-composite tau range   2.3435099094232048E-03   1.8825271265940688E+00
 SKALA_GPW| Active atom-composite tau integral   2.3690105466454664E+01
 SKALA_GPW| Active atom-composite max gradient   3.5067093182161946E-01
     1 OT DIIS     0.10E-02  284.0     0.01235231       -38.6900130075 -3.87E+01
 SKALA_GPW| Atom-composite cross support/maxima   2.489187485724E+00   3.437120733754E-02   1.729591690716E-01   1.173248237975E+00
 SKALA_GPW| Active atom-composite XC energy  -1.1938275459264499E+01
 SKALA_GPW| Active atom-composite electrons   3.2040526934438958E+01
 SKALA_GPW| Active atom-composite density range   2.5317072831446130E-05   1.3486207670177761E-01
 SKALA_GPW| Active atom-composite tau range   2.3640758239912340E-03   1.8904485881342703E+00
 SKALA_GPW| Active atom-composite tau integral   2.3578239028475060E+01
 SKALA_GPW| Active atom-composite max gradient   3.5129109680666204E-01
     2 OT DIIS     0.10E-02  250.9     0.00305906       -38.6551839543  3.48E-02
 SKALA_GPW| Atom-composite cross support/maxima   2.489187485724E+00   3.437645209510E-02   1.726677352155E-01   1.170975682220E+00
 SKALA_GPW| Active atom-composite XC energy  -1.1942540999971895E+01
 SKALA_GPW| Active atom-composite electrons   3.2040527210878977E+01
 SKALA_GPW| Active atom-composite density range   2.5384699326176652E-05   1.3486784084348699E-01
 SKALA_GPW| Active atom-composite tau range   2.3603552015944553E-03   1.8886529473488052E+00
 SKALA_GPW| Active atom-composite tau integral   2.3597262171276459E+01
 SKALA_GPW| Active atom-composite max gradient   3.5114159297873504E-01
     3 OT DIIS     0.10E-02  252.4     0.00448806       -38.6592877473 -4.10E-03
 SKALA_GPW| Atom-composite cross support/maxima   2.489187485724E+00   3.439261866503E-02   1.716032335393E-01   1.162760212577E+00
 SKALA_GPW| Active atom-composite XC energy  -1.1983895998208228E+01
 SKALA_GPW| Active atom-composite electrons   3.2040523958717770E+01
 SKALA_GPW| Active atom-composite density range   2.5805467574462060E-05   1.3489712498795825E-01
 SKALA_GPW| Active atom-composite tau range   2.3459736609025622E-03   1.8822737884068292E+00
 SKALA_GPW| Active atom-composite tau integral   2.3676038628780116E+01
 SKALA_GPW| Active atom-composite max gradient   3.5061530161660315E-01
     4 OT SD       0.10E-02  250.5     0.00201637       -38.6936521135 -3.44E-02
 SKALA_GPW| Atom-composite cross support/maxima   2.489187485724E+00   3.439085097067E-02   1.718015715295E-01   1.164232456986E+00
 SKALA_GPW| Active atom-composite XC energy  -1.1977831849080960E+01
 SKALA_GPW| Active atom-composite electrons   3.2040526845773947E+01
 SKALA_GPW| Active atom-composite density range   2.5520917615109995E-05   1.3488900489843489E-01
 SKALA_GPW| Active atom-composite tau range   2.3490931371067860E-03   1.8833112153700540E+00
 SKALA_GPW| Active atom-composite tau integral   2.3657974101405252E+01
 SKALA_GPW| Active atom-composite max gradient   3.5069027954105458E-01
     5 OT DIIS     0.10E-02  252.5     0.00830808       -38.6900239902  3.63E-03
 SKALA_GPW| Atom-composite cross support/maxima   2.489187485724E+00   3.439222466985E-02   1.716560078874E-01   1.163146597617E+00
 SKALA_GPW| Active atom-composite XC energy  -1.1983181028707873E+01
 SKALA_GPW| Active atom-composite electrons   3.2040525223689485E+01
 SKALA_GPW| Active atom-composite density range   2.5688279427775462E-05   1.3489336956393769E-01
 SKALA_GPW| Active atom-composite tau range   2.3468670705055522E-03   1.8825284617317366E+00
 SKALA_GPW| Active atom-composite tau integral   2.3670814920634395E+01
 SKALA_GPW| Active atom-composite max gradient   3.5063292059406925E-01
     6 OT SD       0.10E-02  254.1     0.00196725       -38.6937007083 -3.68E-03
 SKALA_GPW| Atom-composite cross support/maxima   2.489187485724E+00   3.439572483831E-02   1.714281917664E-01   1.161365082103E+00
 SKALA_GPW| Active atom-composite XC energy  -1.1979904411155214E+01
 SKALA_GPW| Active atom-composite electrons   3.2040525703793861E+01
 SKALA_GPW| Active atom-composite density range   2.5677159333506450E-05   1.3489731764982324E-01
 SKALA_GPW| Active atom-composite tau range   2.3438532712110856E-03   1.8811056698001805E+00
 SKALA_GPW| Active atom-composite tau integral   2.3687937823887033E+01
 SKALA_GPW| Active atom-composite max gradient   3.5051259451102024E-01
     7 OT DIIS     0.10E-02  252.6     0.01700966       -38.6880134296  5.69E-03
 SKALA_GPW| Atom-composite cross support/maxima   2.489187485724E+00   3.438165985820E-02   1.721058614686E-01   1.166768959965E+00
 SKALA_GPW| Active atom-composite XC energy  -1.1967094486363182E+01
 SKALA_GPW| Active atom-composite electrons   3.2040523285973649E+01
 SKALA_GPW| Active atom-composite density range   2.5956282803850372E-05   1.3490715415237509E-01
 SKALA_GPW| Active atom-composite tau range   2.3515058450303710E-03   1.8856579067619217E+00
 SKALA_GPW| Active atom-composite tau integral   2.3645636382429078E+01
 SKALA_GPW| Active atom-composite max gradient   3.5092140803008032E-01
     8 OT SD       0.10E-02  250.7     0.01180742       -38.6799929874  8.02E-03
 SKALA_GPW| Atom-composite cross support/maxima   2.489187485724E+00   3.439499175751E-02   1.707223161027E-01   1.156220997926E+00
 SKALA_GPW| Active atom-composite XC energy  -1.1793512111071395E+01
 SKALA_GPW| Active atom-composite electrons   3.2040517200673449E+01
 SKALA_GPW| Active atom-composite density range   2.6715743125800551E-05   1.3494881592782310E-01
 SKALA_GPW| Active atom-composite tau range   2.3320310667705835E-03   1.8775646212314967E+00
 SKALA_GPW| Active atom-composite tau integral   2.3756481707001615E+01
 SKALA_GPW| Active atom-composite max gradient   3.5025276883265677E-01
     9 OT DIIS     0.10E-02  252.9     0.10149191       -38.4887995455  1.91E-01
 SKALA_GPW| Atom-composite cross support/maxima   2.489187485724E+00   3.438955358686E-02   1.720493517597E-01   1.166078843067E+00
 SKALA_GPW| Active atom-composite XC energy  -1.1965023762146465E+01
 SKALA_GPW| Active atom-composite electrons   3.2040528494411454E+01
 SKALA_GPW| Active atom-composite density range   2.5282996533891600E-05   1.3487068461279580E-01
 SKALA_GPW| Active atom-composite tau range   2.3529198687037970E-03   1.8846516800279109E+00
 SKALA_GPW| Active atom-composite tau integral   2.3637351992013507E+01
 SKALA_GPW| Active atom-composite max gradient   3.5079632839406050E-01
    10 OT DIIS     0.10E-02  251.0     0.01170586       -38.6795523564 -1.91E-01
 SKALA_GPW| Atom-composite cross support/maxima   2.489187485724E+00   3.439662683053E-02   1.717125609382E-01   1.163385053408E+00
 SKALA_GPW| Active atom-composite XC energy  -1.1980052943411415E+01
 SKALA_GPW| Active atom-composite electrons   3.2040530129946298E+01
 SKALA_GPW| Active atom-composite density range   2.5149052470266331E-05   1.3486913998587002E-01
 SKALA_GPW| Active atom-composite tau range   2.3488908966480724E-03   1.8824114259618430E+00
 SKALA_GPW| Active atom-composite tau integral   2.3659860743854040E+01
 SKALA_GPW| Active atom-composite max gradient   3.5059962940377809E-01
    11 OT DIIS     0.10E-02  255.3     0.00644999       -38.6922707565 -1.27E-02
 SKALA_GPW| Atom-composite cross support/maxima   2.489187485724E+00   3.439811989913E-02   1.716825945840E-01   1.163151153002E+00
 SKALA_GPW| Active atom-composite XC energy  -1.1980882991639938E+01
 SKALA_GPW| Active atom-composite electrons   3.2040530709217158E+01
 SKALA_GPW| Active atom-composite density range   2.5099922851400114E-05   1.3486896036723273E-01
 SKALA_GPW| Active atom-composite tau range   2.3485862757979363E-03   1.8821998045391628E+00
 SKALA_GPW| Active atom-composite tau integral   2.3661560157040231E+01
 SKALA_GPW| Active atom-composite max gradient   3.5057946985386534E-01
    12 OT DIIS     0.10E-02  252.6     0.00544450       -38.6929141285 -6.43E-04
 SKALA_GPW| Atom-composite cross support/maxima   2.489187485724E+00   3.439932039240E-02   1.715796696366E-01   1.162366287268E+00
 SKALA_GPW| Active atom-composite XC energy  -1.1983166573637885E+01
 SKALA_GPW| Active atom-composite electrons   3.2040530397288414E+01
 SKALA_GPW| Active atom-composite density range   2.5150905985711625E-05   1.3487350860024727E-01
 SKALA_GPW| Active atom-composite tau range   2.3471692558510483E-03   1.8816049558796557E+00
 SKALA_GPW| Active atom-composite tau integral   2.3669772118561035E+01
 SKALA_GPW| Active atom-composite max gradient   3.5053165563327915E-01
    13 OT DIIS     0.10E-02  251.3     0.00078064       -38.6940966117 -1.18E-03
 SKALA_GPW| Atom-composite cross support/maxima   2.489187485724E+00   3.440213933221E-02   1.715148318792E-01   1.161811431126E+00
 SKALA_GPW| Active atom-composite XC energy  -1.1983262731951573E+01
 SKALA_GPW| Active atom-composite electrons   3.2040532153591030E+01
 SKALA_GPW| Active atom-composite density range   2.4993501641319693E-05   1.3486921898677032E-01
 SKALA_GPW| Active atom-composite tau range   2.3466071421939121E-03   1.8810836151211956E+00
 SKALA_GPW| Active atom-composite tau integral   2.3673061460907075E+01
 SKALA_GPW| Active atom-composite max gradient   3.5048223127995126E-01
    14 OT DIIS     0.10E-02  252.8     0.00381104       -38.6938012490  2.95E-04
 SKALA_GPW| Atom-composite cross support/maxima   2.489187485724E+00   3.440239826112E-02   1.715177087061E-01   1.161824700009E+00
 SKALA_GPW| Active atom-composite XC energy  -1.1983257895068768E+01
 SKALA_GPW| Active atom-composite electrons   3.2040532405410524E+01
 SKALA_GPW| Active atom-composite density range   2.4966578263577177E-05   1.3486808483926302E-01
 SKALA_GPW| Active atom-composite tau range   2.3467106101672966E-03   1.8810792747689964E+00
 SKALA_GPW| Active atom-composite tau integral   2.3672512229285871E+01
 SKALA_GPW| Active atom-composite max gradient   3.5048075351288510E-01
    15 OT DIIS     0.10E-02  248.7     0.00342486       -38.6938836555 -8.24E-05
 SKALA_GPW| Atom-composite cross support/maxima   2.489187485724E+00   3.440522136586E-02   1.715292857092E-01   1.161829646429E+00
 SKALA_GPW| Active atom-composite XC energy  -1.1983017323011421E+01
 SKALA_GPW| Active atom-composite electrons   3.2040534713726402E+01
 SKALA_GPW| Active atom-composite density range   2.4726295384275288E-05   1.3485891375865436E-01
 SKALA_GPW| Active atom-composite tau range   2.3474179585828798E-03   1.8809523284120964E+00
 SKALA_GPW| Active atom-composite tau integral   2.3668842393150364E+01
 SKALA_GPW| Active atom-composite max gradient   3.5046063066864913E-01
    16 OT DIIS     0.10E-02  250.4     0.00135942       -38.6942428802 -3.59E-04
 SKALA_GPW| Atom-composite cross support/maxima   2.489187485724E+00   3.441806519951E-02   1.714831015721E-01   1.161138233894E+00
 SKALA_GPW| Active atom-composite XC energy  -1.1982048864253013E+01
 SKALA_GPW| Active atom-composite electrons   3.2040544620873625E+01
 SKALA_GPW| Active atom-composite density range   2.3762684175560045E-05   1.3482537332961772E-01
 SKALA_GPW| Active atom-composite tau range   2.3489279915449943E-03   1.8798846927169484E+00
 SKALA_GPW| Active atom-composite tau integral   2.3661462883986687E+01
 SKALA_GPW| Active atom-composite max gradient   3.5033415513486188E-01
    17 OT SD       0.10E-02  253.6     0.00085630       -38.6946291245 -3.86E-04
 SKALA_GPW| Atom-composite cross support/maxima   2.489187485724E+00   3.442105185162E-02   1.714446969616E-01   1.160692043183E+00
 SKALA_GPW| Active atom-composite XC energy  -1.1981644363018511E+01
 SKALA_GPW| Active atom-composite electrons   3.2040545518457478E+01
 SKALA_GPW| Active atom-composite density range   2.3666446770612137E-05   1.3481942909322497E-01
 SKALA_GPW| Active atom-composite tau range   2.3484158619109553E-03   1.8794779440100355E+00
 SKALA_GPW| Active atom-composite tau integral   2.3664726286532186E+01
 SKALA_GPW| Active atom-composite max gradient   3.5030092120862211E-01
    18 OT DIIS     0.10E-02  250.6     0.00599021       -38.6938032360  8.26E-04
 SKALA_GPW| Atom-composite cross support/maxima   2.489187485724E+00   3.441325237537E-02   1.715161605459E-01   1.161523146983E+00
 SKALA_GPW| Active atom-composite XC energy  -1.1982352780021975E+01
 SKALA_GPW| Active atom-composite electrons   3.2040540731793079E+01
 SKALA_GPW| Active atom-composite density range   2.4137536194714093E-05   1.3483874162541587E-01
 SKALA_GPW| Active atom-composite tau range   2.3484588878851308E-03   1.8804002372701958E+00
 SKALA_GPW| Active atom-composite tau integral   2.3663600917919968E+01
 SKALA_GPW| Active atom-composite max gradient   3.5039318102712913E-01
    19 OT DIIS     0.10E-02  250.9     0.00056561       -38.6945084159 -7.05E-04
 SKALA_GPW| Atom-composite cross support/maxima   2.489187485724E+00   3.441825372084E-02   1.715004226803E-01   1.161300848693E+00
 SKALA_GPW| Active atom-composite XC energy  -1.1982176272670994E+01
 SKALA_GPW| Active atom-composite electrons   3.2040543862475197E+01
 SKALA_GPW| Active atom-composite density range   2.3847398929931207E-05   1.3483063998863934E-01
 SKALA_GPW| Active atom-composite tau range   2.3487503709486010E-03   1.8800823320951436E+00
 SKALA_GPW| Active atom-composite tau integral   2.3662221236311115E+01
 SKALA_GPW| Active atom-composite max gradient   3.5035813314579317E-01
    20 OT DIIS     0.10E-02  252.0     0.00052262       -38.6946182409 -1.10E-04
 SKALA_GPW| Atom-composite cross support/maxima   2.489187485724E+00   3.443266755043E-02   1.714396837166E-01   1.160496115709E+00
 SKALA_GPW| Active atom-composite XC energy  -1.1981535861572365E+01
 SKALA_GPW| Active atom-composite electrons   3.2040553822715545E+01
 SKALA_GPW| Active atom-composite density range   2.2930059493352084E-05   1.3480133486244339E-01
 SKALA_GPW| Active atom-composite tau range   2.3497873687932545E-03   1.8789623399413240E+00
 SKALA_GPW| Active atom-composite tau integral   2.3657326009779364E+01
 SKALA_GPW| Active atom-composite max gradient   3.5023305381296443E-01
    21 OT DIIS     0.10E-02  250.6     0.00045726       -38.6949681839 -3.50E-04
 SKALA_GPW| Atom-composite cross support/maxima   2.489187485724E+00   3.446788324280E-02   1.712836924791E-01   1.158467435457E+00
 SKALA_GPW| Active atom-composite XC energy  -1.1979962261777180E+01
 SKALA_GPW| Active atom-composite electrons   3.2040578454204443E+01
 SKALA_GPW| Active atom-composite density range   2.0793590574615106E-05   1.3472885724580774E-01
 SKALA_GPW| Active atom-composite tau range   2.3523389549948786E-03   1.8761635198157884E+00
 SKALA_GPW| Active atom-composite tau integral   2.3645346061091868E+01
 SKALA_GPW| Active atom-composite max gradient   3.4992097004915690E-01
    22 OT DIIS     0.10E-02  252.9     0.00029897       -38.6957830146 -8.15E-04
 SKALA_GPW| Atom-composite cross support/maxima   2.489187485724E+00   3.465819906615E-02   1.704636529351E-01   1.147692179493E+00
 SKALA_GPW| Active atom-composite XC energy  -1.1971264187448673E+01
 SKALA_GPW| Active atom-composite electrons   3.2040713488412095E+01
 SKALA_GPW| Active atom-composite density range   1.2493974343295855E-05   1.3434590622691744E-01
 SKALA_GPW| Active atom-composite tau range   2.3662689898007335E-03   1.8612849097425381E+00
 SKALA_GPW| Active atom-composite tau integral   2.3580712298853452E+01
 SKALA_GPW| Active atom-composite max gradient   3.4826822246548228E-01
    23 OT DIIS     0.10E-02  251.9     0.00086890       -38.6989760131 -3.19E-03
 SKALA_GPW| Atom-composite cross support/maxima   2.489187485724E+00   3.474683614461E-02   1.700681710158E-01   1.142583630569E+00
 SKALA_GPW| Active atom-composite XC energy  -1.1967009666142324E+01
 SKALA_GPW| Active atom-composite electrons   3.2040778392329727E+01
 SKALA_GPW| Active atom-composite density range   1.0529252214244722E-05   1.3416107875669614E-01
 SKALA_GPW| Active atom-composite tau range   2.3731431783163082E-03   1.8542037326801606E+00
 SKALA_GPW| Active atom-composite tau integral   2.3550424892879370E+01
 SKALA_GPW| Active atom-composite max gradient   3.4747145204772489E-01
    24 OT DIIS     0.10E-02  252.7     0.00058141       -38.6997854189 -8.09E-04
 SKALA_GPW| Atom-composite cross support/maxima   2.489187485724E+00   3.476584536261E-02   1.699959293485E-01   1.141586727271E+00
 SKALA_GPW| Active atom-composite XC energy  -1.1966169539086051E+01
 SKALA_GPW| Active atom-composite electrons   3.2040791228661966E+01
 SKALA_GPW| Active atom-composite density range   1.0290618538383312E-05   1.3412744081523376E-01
 SKALA_GPW| Active atom-composite tau range   2.3744913602741936E-03   1.8528332834741155E+00
 SKALA_GPW| Active atom-composite tau integral   2.3544246639548746E+01
 SKALA_GPW| Active atom-composite max gradient   3.4732259644965091E-01
    25 OT DIIS     0.10E-02  255.6     0.00022475       -38.6999082389 -1.23E-04
 SKALA_GPW| Atom-composite cross support/maxima   2.489187485724E+00   3.481115681586E-02   1.698143696815E-01   1.139153442561E+00
 SKALA_GPW| Active atom-composite XC energy  -1.1964181211415493E+01
 SKALA_GPW| Active atom-composite electrons   3.2040822630301335E+01
 SKALA_GPW| Active atom-composite density range   9.9449161669110109E-06   1.3404524378786559E-01
 SKALA_GPW| Active atom-composite tau range   2.3776929562008492E-03   1.8494973899165510E+00
 SKALA_GPW| Active atom-composite tau integral   2.3529981437777977E+01
 SKALA_GPW| Active atom-composite max gradient   3.4695792668738323E-01
    26 OT DIIS     0.10E-02  255.4     0.00011718       -38.7000975639 -1.89E-04
 SKALA_GPW| Atom-composite cross support/maxima   2.489187485724E+00   3.481241732405E-02   1.698365047150E-01   1.139323599025E+00
 SKALA_GPW| Active atom-composite XC energy  -1.1964384545443563E+01
 SKALA_GPW| Active atom-composite electrons   3.2040820557432191E+01
 SKALA_GPW| Active atom-composite density range   9.9546477290088364E-06   1.3405690206326457E-01
 SKALA_GPW| Active atom-composite tau range   2.3773820632258464E-03   1.8497584707685484E+00
 SKALA_GPW| Active atom-composite tau integral   2.3530963536436492E+01
 SKALA_GPW| Active atom-composite max gradient   3.4699871134228844E-01
    27 OT DIIS     0.10E-02  252.8     0.00010294       -38.7001029622 -5.40E-06
 SKALA_GPW| Atom-composite cross support/maxima   2.489187485724E+00   3.482225123958E-02   1.698022877606E-01   1.138839177009E+00
 SKALA_GPW| Active atom-composite XC energy  -1.1964004028671212E+01
 SKALA_GPW| Active atom-composite electrons   3.2040826803280048E+01
 SKALA_GPW| Active atom-composite density range   9.9189818137321306E-06   1.3404118052037056E-01
 SKALA_GPW| Active atom-composite tau range   2.3780122481887912E-03   1.8490945511067607E+00
 SKALA_GPW| Active atom-composite tau integral   2.3528218691356731E+01
 SKALA_GPW| Active atom-composite max gradient   3.4692753075309823E-01
    28 OT DIIS     0.10E-02  251.1     0.00010780       -38.7001281112 -2.51E-05
 SKALA_GPW| Atom-composite cross support/maxima   2.489187485724E+00   3.483092630801E-02   1.698210096732E-01   1.138839959924E+00
 SKALA_GPW| Active atom-composite XC energy  -1.1964144008399927E+01
 SKALA_GPW| Active atom-composite electrons   3.2040826935106693E+01
 SKALA_GPW| Active atom-composite density range   9.9126509328362200E-06   1.3405224346916669E-01
 SKALA_GPW| Active atom-composite tau range   2.3778497086015386E-03   1.8491427574476029E+00
 SKALA_GPW| Active atom-composite tau integral   2.3528378836130603E+01
 SKALA_GPW| Active atom-composite max gradient   3.4695574173838833E-01
    29 OT DIIS     0.10E-02  248.6     0.00009276       -38.7001514457 -2.33E-05
 SKALA_GPW| Atom-composite cross support/maxima   2.489187485724E+00   3.484236726483E-02   1.698061830955E-01   1.138494046469E+00
 SKALA_GPW| Active atom-composite XC energy  -1.1963945253429799E+01
 SKALA_GPW| Active atom-composite electrons   3.2040831483520165E+01
 SKALA_GPW| Active atom-composite density range   9.9023131695241684E-06   1.3404692034495280E-01
 SKALA_GPW| Active atom-composite tau range   2.3782132274556183E-03   1.8486949876902430E+00
 SKALA_GPW| Active atom-composite tau integral   2.3526492371164547E+01
 SKALA_GPW| Active atom-composite max gradient   3.4692020580380223E-01
    30 OT DIIS     0.10E-02  251.2     0.00009129       -38.7001762274 -2.48E-05
 SKALA_GPW| Atom-composite cross support/maxima   2.489187485724E+00   3.486173735192E-02   1.702034586639E-01   1.141560966444E+00
 SKALA_GPW| Active atom-composite XC energy  -1.1967753614209979E+01
 SKALA_GPW| Active atom-composite electrons   3.2040793038784201E+01
 SKALA_GPW| Active atom-composite density range   9.9893584187479845E-06   1.3425005042745058E-01
 SKALA_GPW| Active atom-composite tau range   2.3726670645079313E-03   1.8533319276772042E+00
 SKALA_GPW| Active atom-composite tau integral   2.3545905549047269E+01
 SKALA_GPW| Active atom-composite max gradient   3.4763939125251353E-01
    31 OT DIIS     0.10E-02  249.4     0.00018401       -38.7002314198 -5.52E-05
 SKALA_GPW| Atom-composite cross support/maxima   2.489187485724E+00   3.493681294353E-02   1.701316148288E-01   1.139509552861E+00
 SKALA_GPW| Active atom-composite XC energy  -1.1966670496292604E+01
 SKALA_GPW| Active atom-composite electrons   3.2040820291098044E+01
 SKALA_GPW| Active atom-composite density range   1.0112999506477205E-05   1.3422753433769796E-01
 SKALA_GPW| Active atom-composite tau range   2.3747141055368202E-03   1.8507104195092794E+00
 SKALA_GPW| Active atom-composite tau integral   2.3534753485582332E+01
 SKALA_GPW| Active atom-composite max gradient   3.4745213039126971E-01
    32 OT DIIS     0.10E-02  251.6     0.00009296       -38.7003514215 -1.20E-04
 SKALA_GPW| Atom-composite cross support/maxima   2.489187485724E+00   3.491781753058E-02   1.703386108198E-01   1.141659792424E+00
 SKALA_GPW| Active atom-composite XC energy  -1.1968789364008199E+01
 SKALA_GPW| Active atom-composite electrons   3.2040792698263957E+01
 SKALA_GPW| Active atom-composite density range   1.0010306219929155E-05   1.3432718918694223E-01
 SKALA_GPW| Active atom-composite tau range   2.3714537288443325E-03   1.8537753445781930E+00
 SKALA_GPW| Active atom-composite tau integral   2.3547660202139618E+01
 SKALA_GPW| Active atom-composite max gradient   3.4784573902446542E-01
    33 OT DIIS     0.10E-02  249.8     0.00015352       -38.7003424485  8.97E-06
 SKALA_GPW| Atom-composite cross support/maxima   2.489187485724E+00   3.496617640564E-02   1.704577002415E-01   1.141770750519E+00
 SKALA_GPW| Active atom-composite XC energy  -1.1969729448003690E+01
 SKALA_GPW| Active atom-composite electrons   3.2040792116105550E+01
 SKALA_GPW| Active atom-composite density range   1.0152273401314860E-05   1.3439615496717852E-01
 SKALA_GPW| Active atom-composite tau range   2.3703352556609849E-03   1.8542059956134120E+00
 SKALA_GPW| Active atom-composite tau integral   2.3549438537817487E+01
 SKALA_GPW| Active atom-composite max gradient   3.4803228425693067E-01
    34 OT DIIS     0.10E-02  252.6     0.00004988       -38.7003960797 -5.36E-05
 SKALA_GPW| Atom-composite cross support/maxima   2.489187485724E+00   3.496950081134E-02   1.704860692956E-01   1.141949367289E+00
 SKALA_GPW| Active atom-composite XC energy  -1.1969959266616385E+01
 SKALA_GPW| Active atom-composite electrons   3.2040790041923920E+01
 SKALA_GPW| Active atom-composite density range   1.0159827583615388E-05   1.3441006095915733E-01
 SKALA_GPW| Active atom-composite tau range   2.3700059301805976E-03   1.8544797203453727E+00
 SKALA_GPW| Active atom-composite tau integral   2.3550445653513005E+01
 SKALA_GPW| Active atom-composite max gradient   3.4807993989441610E-01
    35 OT DIIS     0.10E-02  253.8     0.00007496       -38.7003983485 -2.27E-06
 SKALA_GPW| Atom-composite cross support/maxima   2.489187485724E+00   3.498343484814E-02   1.706212569222E-01   1.142856518356E+00
 SKALA_GPW| Active atom-composite XC energy  -1.1971222222271990E+01
 SKALA_GPW| Active atom-composite electrons   3.2040778704280648E+01
 SKALA_GPW| Active atom-composite density range   1.0184171691657307E-05   1.3448015133771052E-01
 SKALA_GPW| Active atom-composite tau range   2.3681966855910530E-03   1.8558912132818577E+00
 SKALA_GPW| Active atom-composite tau integral   2.3556449039982308E+01
 SKALA_GPW| Active atom-composite max gradient   3.4831917978510685E-01
    36 OT SD       0.10E-02  255.6     0.00003959       -38.7004036983 -5.35E-06
 SKALA_GPW| Atom-composite cross support/maxima   2.489187485724E+00   3.498360758032E-02   1.706215959173E-01   1.142853064883E+00
 SKALA_GPW| Active atom-composite XC energy  -1.1971215286924188E+01
 SKALA_GPW| Active atom-composite electrons   3.2040778728084540E+01
 SKALA_GPW| Active atom-composite density range   1.0185104078512530E-05   1.3447976731269376E-01
 SKALA_GPW| Active atom-composite tau range   2.3682004861259884E-03   1.8558856245806545E+00
 SKALA_GPW| Active atom-composite tau integral   2.3556420441876394E+01
 SKALA_GPW| Active atom-composite max gradient   3.4831869754170064E-01
    37 OT DIIS     0.10E-02  251.4     0.00021321       -38.7004025813  1.12E-06
 SKALA_GPW| Atom-composite cross support/maxima   2.489187485724E+00   3.498421661233E-02   1.706260492748E-01   1.142883635387E+00
 SKALA_GPW| Active atom-composite XC energy  -1.1971262347882849E+01
 SKALA_GPW| Active atom-composite electrons   3.2040778330026356E+01
 SKALA_GPW| Active atom-composite density range   1.0186466665680627E-05   1.3448245071578591E-01
 SKALA_GPW| Active atom-composite tau range   2.3681322352947492E-03   1.8559340749656348E+00
 SKALA_GPW| Active atom-composite tau integral   2.3556642456393167E+01
 SKALA_GPW| Active atom-composite max gradient   3.4832705803293751E-01
    38 OT DIIS     0.10E-02  252.0     0.00002658       -38.7004041290 -1.55E-06
 SKALA_GPW| Atom-composite cross support/maxima   2.489187485724E+00   3.498235344727E-02   1.705922066902E-01   1.142627486120E+00
 SKALA_GPW| Active atom-composite XC energy  -1.1970934753581707E+01
 SKALA_GPW| Active atom-composite electrons   3.2040781528859021E+01
 SKALA_GPW| Active atom-composite density range   1.0188146795118980E-05   1.3446499088344105E-01
 SKALA_GPW| Active atom-composite tau range   2.3686005355780283E-03   1.8555441966927990E+00
 SKALA_GPW| Active atom-composite tau integral   2.3554996588382011E+01
 SKALA_GPW| Active atom-composite max gradient   3.4826559553911690E-01
    39 OT DIIS     0.10E-02  252.6     0.00002394       -38.7004048397 -7.11E-07
 SKALA_GPW| Atom-composite cross support/maxima   2.489187485724E+00   3.498657522221E-02   1.705907117923E-01   1.142535869513E+00
 SKALA_GPW| Active atom-composite XC energy  -1.1970895417317656E+01
 SKALA_GPW| Active atom-composite electrons   3.2040782717891950E+01
 SKALA_GPW| Active atom-composite density range   1.0210651613225263E-05   1.3446485210831169E-01
 SKALA_GPW| Active atom-composite tau range   2.3686720627260544E-03   1.8554307344044370E+00
 SKALA_GPW| Active atom-composite tau integral   2.3554522747240547E+01
 SKALA_GPW| Active atom-composite max gradient   3.4825959410632529E-01
    40 OT DIIS     0.10E-02  250.9     0.00002019       -38.7004073514 -2.51E-06
 SKALA_GPW| Atom-composite cross support/maxima   2.489187485724E+00   3.499152850903E-02   1.705999861319E-01   1.142523914588E+00
 SKALA_GPW| Active atom-composite XC energy  -1.1970956782051577E+01
 SKALA_GPW| Active atom-composite electrons   3.2040782902497412E+01
 SKALA_GPW| Active atom-composite density range   1.0234247888117609E-05   1.3447017070220579E-01
 SKALA_GPW| Active atom-composite tau range   2.3685961977543417E-03   1.8554381015819867E+00
 SKALA_GPW| Active atom-composite tau integral   2.3554557623288410E+01
 SKALA_GPW| Active atom-composite max gradient   3.4827280233491814E-01
    41 OT DIIS     0.10E-02  251.0     0.00002006       -38.7004094889 -2.14E-06
 SKALA_GPW| Atom-composite cross support/maxima   2.489187485724E+00   3.500220136752E-02   1.706241979837E-01   1.142534428797E+00
 SKALA_GPW| Active atom-composite XC energy  -1.1971131912616251E+01
 SKALA_GPW| Active atom-composite electrons   3.2040782862494801E+01
 SKALA_GPW| Active atom-composite density range   1.0287217858298559E-05   1.3448383813378376E-01
 SKALA_GPW| Active atom-composite tau range   2.3683733871527747E-03   1.8555080462590505E+00
 SKALA_GPW| Active atom-composite tau integral   2.3554856211989325E+01
 SKALA_GPW| Active atom-composite max gradient   3.4830921981650070E-01
    42 OT DIIS     0.10E-02  256.8     0.00001815       -38.7004125854 -3.10E-06
 SKALA_GPW| Atom-composite cross support/maxima   2.489187485724E+00   3.500595017607E-02   1.706325851744E-01   1.142538438869E+00
 SKALA_GPW| Active atom-composite XC energy  -1.1971185254159437E+01
 SKALA_GPW| Active atom-composite electrons   3.2040782814658840E+01
 SKALA_GPW| Active atom-composite density range   1.0306557030839714E-05   1.3448827869879515E-01
 SKALA_GPW| Active atom-composite tau range   2.3682967060147538E-03   1.8555303685349593E+00
 SKALA_GPW| Active atom-composite tau integral   2.3554945158277430E+01
 SKALA_GPW| Active atom-composite max gradient   3.4832119345739265E-01
    43 OT SD       0.10E-02  251.3     0.00001915       -38.7004134900 -9.05E-07
 SKALA_GPW| Atom-composite cross support/maxima   2.489187485724E+00   3.500604654261E-02   1.706314987868E-01   1.142530120531E+00
 SKALA_GPW| Active atom-composite XC energy  -1.1971187697279802E+01
 SKALA_GPW| Active atom-composite electrons   3.2040782829210002E+01
 SKALA_GPW| Active atom-composite density range   1.0307199589588978E-05   1.3448807330846962E-01
 SKALA_GPW| Active atom-composite tau range   2.3682901955872494E-03   1.8555212786458655E+00
 SKALA_GPW| Active atom-composite tau integral   2.3554981595773228E+01
 SKALA_GPW| Active atom-composite max gradient   3.4832007700239231E-01
    44 OT DIIS     0.10E-02  251.6     0.00005752       -38.7004135144 -2.44E-08
 SKALA_GPW| Atom-composite cross support/maxima   2.489187485724E+00   3.501020292900E-02   1.706361444568E-01   1.142494722199E+00
 SKALA_GPW| Active atom-composite XC energy  -1.1971184687664033E+01
 SKALA_GPW| Active atom-composite electrons   3.2040783280357040E+01
 SKALA_GPW| Active atom-composite density range   1.0331347662831392E-05   1.3449010584035820E-01
 SKALA_GPW| Active atom-composite tau range   2.3682846508174594E-03   1.8554825044865746E+00
 SKALA_GPW| Active atom-composite tau integral   2.3554763503341750E+01
 SKALA_GPW| Active atom-composite max gradient   3.4832353279221795E-01
    45 OT DIIS     0.10E-02  251.7     0.00001879       -38.7004146851 -1.17E-06
 SKALA_GPW| Atom-composite cross support/maxima   2.489187485724E+00   3.501050674595E-02   1.706370005264E-01   1.142497667608E+00
 SKALA_GPW| Active atom-composite XC energy  -1.1971188190019554E+01
 SKALA_GPW| Active atom-composite electrons   3.2040783223526901E+01
 SKALA_GPW| Active atom-composite density range   1.0332625447341537E-05   1.3449045604211948E-01
 SKALA_GPW| Active atom-composite tau range   2.3682744421717364E-03   1.8554870696437074E+00
 SKALA_GPW| Active atom-composite tau integral   2.3554780551476895E+01
 SKALA_GPW| Active atom-composite max gradient   3.4832465600484552E-01
    46 OT DIIS     0.10E-02  256.0     0.00001674       -38.7004148324 -1.47E-07
 SKALA_GPW| Atom-composite cross support/maxima   2.489187485724E+00   3.501369563240E-02   1.706154929516E-01   1.142265143486E+00
 SKALA_GPW| Active atom-composite XC energy  -1.1970925074040196E+01
 SKALA_GPW| Active atom-composite electrons   3.2040785858686057E+01
 SKALA_GPW| Active atom-composite density range   1.0362471166709686E-05   1.3447860605849282E-01
 SKALA_GPW| Active atom-composite tau range   2.3686001636511740E-03   1.8551466909321770E+00
 SKALA_GPW| Active atom-composite tau integral   2.3553363285513498E+01
 SKALA_GPW| Active atom-composite max gradient   3.4827999269957360E-01
    47 OT SD       0.10E-02  247.8     0.00001834       -38.7004166351 -1.80E-06
 SKALA_GPW| Atom-composite cross support/maxima   2.489187485724E+00   3.501377345313E-02   1.706147216032E-01   1.142258557998E+00
 SKALA_GPW| Active atom-composite XC energy  -1.1970930042446083E+01
 SKALA_GPW| Active atom-composite electrons   3.2040785847077807E+01
 SKALA_GPW| Active atom-composite density range   1.0363037608610015E-05   1.3447852524575196E-01
 SKALA_GPW| Active atom-composite tau range   2.3685908630523421E-03   1.8551405425832577E+00
 SKALA_GPW| Active atom-composite tau integral   2.3553411604677226E+01
 SKALA_GPW| Active atom-composite max gradient   3.4827934370229829E-01
    48 OT DIIS     0.10E-02  253.0     0.00007160       -38.7004166120  2.30E-08
 SKALA_GPW| Atom-composite cross support/maxima   2.489187485724E+00   3.501601754786E-02   1.705836185643E-01   1.141963041318E+00
 SKALA_GPW| Active atom-composite XC energy  -1.1970562004470853E+01
 SKALA_GPW| Active atom-composite electrons   3.2040789242116297E+01
 SKALA_GPW| Active atom-composite density range   1.0392129451933241E-05   1.3446121219411122E-01
 SKALA_GPW| Active atom-composite tau range   2.3690524178973699E-03   1.8546974682242499E+00
 SKALA_GPW| Active atom-composite tau integral   2.3551513551569396E+01
 SKALA_GPW| Active atom-composite max gradient   3.4821667332520190E-01
    49 OT DIIS     0.10E-02  253.8     0.00001363       -38.7004178965 -1.28E-06
 SKALA_GPW| Atom-composite cross support/maxima   2.489187485724E+00   3.501864395053E-02   1.705755432674E-01   1.141853959591E+00
 SKALA_GPW| Active atom-composite XC energy  -1.1970444187881585E+01
 SKALA_GPW| Active atom-composite electrons   3.2040790394827638E+01
 SKALA_GPW| Active atom-composite density range   1.0413128804613592E-05   1.3445651510378348E-01
 SKALA_GPW| Active atom-composite tau range   2.3691834826021435E-03   1.8545406338498833E+00
 SKALA_GPW| Active atom-composite tau integral   2.3550858530927464E+01
 SKALA_GPW| Active atom-composite max gradient   3.4819809349797609E-01
    50 OT SD       0.10E-02  250.8     0.00002375       -38.7004183520 -4.55E-07

  Leaving inner SCF loop after reaching    50 steps.


  Electronic density on regular grids:        -32.0000000000        0.0000000000
  Core density on regular grids:               32.0000000000       -0.0000000000
  Total charge density on r-space grids:       -0.0000000000
  Total charge density g-space grids:          -0.0000000000

  Overlap energy of the core charge distribution:               0.00000000260711
  Self energy of the core charge distribution:                -94.36045747698161
  Core Hamiltonian energy:                                     25.02342284590414
  Hartree energy:                                              42.75389757596304
  Exchange-correlation energy:                                  0.00000000000000
  Dispersion energy:                                           -0.14683711164909

  GAPW_XC| Exc from hard and soft atomic rho1:                -11.97044418788158

  Total energy:                                               -38.70041835203799

  outer SCF iter =    1 RMS gradient =   0.24E-04 energy =        -38.7004183520

  ----------------------------------- OT ---------------------------------------
  Minimizer      : DIIS                : direct inversion
                                         in the iterative subspace
                                         using   7 DIIS vectors
                                         safer DIIS on
  Preconditioner : FULL_ALL            : diagonalization, state selective
  Precond_solver : DEFAULT
  stepsize       :    0.00100000                  energy_gap     :    0.00100000
  ortho_irac     : CHOL                           irac_degree    :             4
  max_irac       :            50                  eps_irac       :   0.10000E-09
  eps_irac_switch:   0.10000E-01                  eps_irac_quick_exit: 0.100E-04
  on_the_fly_loc : F
  ----------------------------------- OT ---------------------------------------

  Step     Update method      Time    Convergence         Total energy    Change
  ------------------------------------------------------------------------------
 SKALA_GPW| Atom-composite cross support/maxima   2.489187485724E+00   3.501874359521E-02   1.705752307832E-01   1.141849141872E+00
 SKALA_GPW| Active atom-composite XC energy  -1.1970457817772285E+01
 SKALA_GPW| Active atom-composite electrons   3.2040790333146809E+01
 SKALA_GPW| Active atom-composite density range   1.0413551101921825E-05   1.3445674099262356E-01
 SKALA_GPW| Active atom-composite tau range   2.3691621404525968E-03   1.8545389059626045E+00
 SKALA_GPW| Active atom-composite tau integral   2.3550958520177534E+01
 SKALA_GPW| Active atom-composite max gradient   3.4819832372458981E-01
     1 OT DIIS     0.10E-02  512.7     0.00002188       -38.7004179009  4.51E-07
 SKALA_GPW| Atom-composite cross support/maxima   2.489187485724E+00   3.501883219061E-02   1.705756967164E-01   1.141852581421E+00
 SKALA_GPW| Active atom-composite XC energy  -1.1970457764095510E+01
 SKALA_GPW| Active atom-composite electrons   3.2040790282368320E+01
 SKALA_GPW| Active atom-composite density range   1.0413697718841819E-05   1.3445685941753197E-01
 SKALA_GPW| Active atom-composite tau range   2.3691604481022991E-03   1.8545431372365875E+00
 SKALA_GPW| Active atom-composite tau integral   2.3550963166810316E+01
 SKALA_GPW| Active atom-composite max gradient   3.4819890138001464E-01
     2 OT DIIS     0.10E-02  253.2     0.00001921       -38.7004180883 -1.87E-07
 SKALA_GPW| Atom-composite cross support/maxima   2.489187485724E+00   3.501937353291E-02   1.705785291875E-01   1.141873200869E+00
 SKALA_GPW| Active atom-composite XC energy  -1.1970459921359137E+01
 SKALA_GPW| Active atom-composite electrons   3.2040789954416816E+01
 SKALA_GPW| Active atom-composite density range   1.0414564363785128E-05   1.3445764970428165E-01
 SKALA_GPW| Active atom-composite tau range   2.3691437288335814E-03   1.8545691669120505E+00
 SKALA_GPW| Active atom-composite tau integral   2.3551006020790449E+01
 SKALA_GPW| Active atom-composite max gradient   3.4820253838310578E-01
     3 OT DIIS     0.10E-02  253.2     0.00001034       -38.7004187977 -7.09E-07
 SKALA_GPW| Atom-composite cross support/maxima   2.489187485724E+00   3.502199011257E-02   1.705919979465E-01   1.141962171157E+00
 SKALA_GPW| Active atom-composite XC energy  -1.1970545808488835E+01
 SKALA_GPW| Active atom-composite electrons   3.2040787900316552E+01
 SKALA_GPW| Active atom-composite density range   1.0417966842091175E-05   1.3446325189417987E-01
 SKALA_GPW| Active atom-composite tau range   2.3688931527695496E-03   1.8546994817398619E+00
 SKALA_GPW| Active atom-composite tau integral   2.3551597344697520E+01
 SKALA_GPW| Active atom-composite max gradient   3.4822295912222517E-01
     4 OT DIIS     0.10E-02  252.4     0.00000955       -38.7004203294 -1.53E-06
 SKALA_GPW| Atom-composite cross support/maxima   2.489187485724E+00   3.503544997873E-02   1.706608412937E-01   1.142415350642E+00
 SKALA_GPW| Active atom-composite XC energy  -1.1971012404431196E+01
 SKALA_GPW| Active atom-composite electrons   3.2040777187526359E+01
 SKALA_GPW| Active atom-composite density range   1.0436755864158542E-05   1.3449264342250791E-01
 SKALA_GPW| Active atom-composite tau range   2.3675476125344986E-03   1.8553701082108707E+00
 SKALA_GPW| Active atom-composite tau integral   2.3554769047213060E+01
 SKALA_GPW| Active atom-composite max gradient   3.4832931442328041E-01
     5 OT DIIS     0.10E-02  252.5     0.00000813       -38.7004246590 -4.33E-06
 SKALA_GPW| Atom-composite cross support/maxima   2.489187485724E+00   3.503799456570E-02   1.706733998965E-01   1.142497980879E+00
 SKALA_GPW| Active atom-composite XC energy  -1.1971080935626098E+01
 SKALA_GPW| Active atom-composite electrons   3.2040775310900514E+01
 SKALA_GPW| Active atom-composite density range   1.0440393831898098E-05   1.3449769514930410E-01
 SKALA_GPW| Active atom-composite tau range   2.3673235917412950E-03   1.8554891363539348E+00
 SKALA_GPW| Active atom-composite tau integral   2.3555277350178347E+01
 SKALA_GPW| Active atom-composite max gradient   3.4834797041380294E-01
     6 OT DIIS     0.10E-02  252.9     0.00000139       -38.7004249013 -2.42E-07
 SKALA_GPW| Atom-composite cross support/maxima   2.489187485724E+00   3.503801472234E-02   1.706733694481E-01   1.142497861549E+00
 SKALA_GPW| Active atom-composite XC energy  -1.1971080886063660E+01
 SKALA_GPW| Active atom-composite electrons   3.2040775301513129E+01
 SKALA_GPW| Active atom-composite density range   1.0440364259907409E-05   1.3449768910014881E-01
 SKALA_GPW| Active atom-composite tau range   2.3673211766713758E-03   1.8554890682714800E+00
 SKALA_GPW| Active atom-composite tau integral   2.3555279345049613E+01
 SKALA_GPW| Active atom-composite max gradient   3.4834793301459865E-01
     7 OT DIIS     0.10E-02  251.9     0.00000131       -38.7004248922  9.03E-09
 SKALA_GPW| Atom-composite cross support/maxima   2.489187485724E+00   3.503690428533E-02   1.706581335686E-01   1.142402217357E+00
 SKALA_GPW| Active atom-composite XC energy  -1.1970949649040499E+01
 SKALA_GPW| Active atom-composite electrons   3.2040776941661136E+01
 SKALA_GPW| Active atom-composite density range   1.0434225412372933E-05   1.3449071784172520E-01
 SKALA_GPW| Active atom-composite tau range   2.3674761836843853E-03   1.8553470456319099E+00
 SKALA_GPW| Active atom-composite tau integral   2.3554627680214363E+01
 SKALA_GPW| Active atom-composite max gradient   3.4832325933489583E-01
     8 OT DIIS     0.10E-02  248.8     0.00000083       -38.7004249279 -3.56E-08
 SKALA_GPW| Atom-composite cross support/maxima   2.489187485724E+00   3.503627235638E-02   1.706502841785E-01   1.142351715173E+00
 SKALA_GPW| Active atom-composite XC energy  -1.1970881480904344E+01
 SKALA_GPW| Active atom-composite electrons   3.2040777830483762E+01
 SKALA_GPW| Active atom-composite density range   1.0430999224479709E-05   1.3448707068317597E-01
 SKALA_GPW| Active atom-composite tau range   2.3675616036005691E-03   1.8552721927352545E+00
 SKALA_GPW| Active atom-composite tau integral   2.3554284295680610E+01
 SKALA_GPW| Active atom-composite max gradient   3.4831032447525889E-01
     9 OT DIIS     0.10E-02  249.4     0.00000095       -38.7004249214  6.45E-09
 SKALA_GPW| Atom-composite cross support/maxima   2.489187485724E+00   3.503627431965E-02   1.706501154899E-01   1.142350579560E+00
 SKALA_GPW| Active atom-composite XC energy  -1.1970881233961848E+01
 SKALA_GPW| Active atom-composite electrons   3.2040777857674499E+01
 SKALA_GPW| Active atom-composite density range   1.0430821752407948E-05   1.3448705977939726E-01
 SKALA_GPW| Active atom-composite tau range   2.3675611264749098E-03   1.8552710213095571E+00
 SKALA_GPW| Active atom-composite tau integral   2.3554284180660098E+01
 SKALA_GPW| Active atom-composite max gradient   3.4831012958500090E-01
    10 OT DIIS     0.10E-02  250.1     0.00000021       -38.7004249196  1.81E-09

  *** SCF run converged in    10 steps ***


  Electronic density on regular grids:        -32.0000000000        0.0000000000
  Core density on regular grids:               32.0000000000       -0.0000000000
  Total charge density on r-space grids:       -0.0000000000
  Total charge density g-space grids:          -0.0000000000

  Overlap energy of the core charge distribution:               0.00000000260711
  Self energy of the core charge distribution:                -94.36045747698161
  Core Hamiltonian energy:                                     25.02720818021159
  Hartree energy:                                              42.75054272014662
  Exchange-correlation energy:                                  0.00000000000000
  Dispersion energy:                                           -0.14683711164909

  GAPW_XC| Exc from hard and soft atomic rho1:                -11.97088123396185

  Total energy:                                               -38.70042491962723

  outer SCF iter =    2 RMS gradient =   0.21E-06 energy =        -38.7004249196
  outer SCF loop converged in   2 iterations or   60 steps


 !-----------------------------------------------------------------------------!
                     Mulliken Population Analysis

 #  Atom  Element  Kind  Atomic population                           Net charge
       1     Si       1          3.892311                              0.107689
       2     Si       1          3.896998                              0.103002
       3     Si       1          3.896986                              0.103014
       4     Si       1          3.896993                              0.103007
       5     C        2          4.107086                             -0.107086
       6     C        2          4.103208                             -0.103208
       7     C        2          4.103208                             -0.103208
       8     C        2          4.103208                             -0.103208
 # Total charge                             32.000000                  0.000000

 !-----------------------------------------------------------------------------!

 !-----------------------------------------------------------------------------!
                           Hirshfeld Charges

  #Atom  Element  Kind  Ref Charge     Population                    Net charge
      1       Si     1       4.000          3.904                         0.096
      2       Si     1       4.000          3.905                         0.095
      3       Si     1       4.000          3.905                         0.095
      4       Si     1       4.000          3.905                         0.095
      5       C      2       4.000          4.095                        -0.095
      6       C      2       4.000          4.095                        -0.095
      7       C      2       4.000          4.095                        -0.095
      8       C      2       4.000          4.095                        -0.095

  Total Charge                                                           -0.000
 !-----------------------------------------------------------------------------!

 ENERGY| Total FORCE_EVAL ( QS ) energy [hartree]            -38.700424919627231

 -------------------------------------------------------------------------------
 -                                                                             -
 -                                DBCSR STATISTICS                             -
 -                                                                             -
 -------------------------------------------------------------------------------
 COUNTER                                    TOTAL       BLAS       SMM       ACC
 flops    16 x    16 x    16            127991808     100.0%      0.0%      0.0%     
 flops    16 x    16 x   232           3651895296     100.0%      0.0%      0.0%     
 flops    29 x    16 x    16           9039937536     100.0%      0.0%      0.0%     
 flops    29 x    16 x    29          80730832896     100.0%      0.0%      0.0%     
 flops inhomo. stacks                           0       0.0%      0.0%      0.0%
 flops total                        93.550658E+09     100.0%      0.0%      0.0%
 flops max/rank                     93.550658E+09     100.0%      0.0%      0.0%
 matmuls inhomo. stacks                         0       0.0%      0.0%      0.0%
 matmuls total                            3655008     100.0%      0.0%      0.0%
 number of processed stacks               1030176     100.0%      0.0%      0.0%
 average stack size                                     3.5       0.0       0.0
 marketing flops                    93.377888E+09
 -------------------------------------------------------------------------------
 # multiplications                         169344
 max memory usage/rank              19.603038E+09
 # max total images/rank                        1
 # max 3D layers                                1
 # MPI messages exchanged                       0
 -------------------------------------------------------------------------------

 -------------------------------------------------------------------------------
 -                                                                             -
 -                                GRID STATISTICS                              -
 -                                                                             -
 -------------------------------------------------------------------------------
 LP    KERNEL             BACKEND                              COUNT     PERCENT
 6     collocate ortho    CPU                                3293688      34.21%
 6     integrate ortho    CPU                                3187440      33.11%
 8     collocate ortho    CPU                                1599104      16.61%
 8     integrate ortho    CPU                                1547520      16.07%
 0     collocate general  CPU                                     24       0.00%
 0     integrate general  CPU                                      8       0.00%
 -------------------------------------------------------------------------------

 -------------------------------------------------------------------------------
 -                                                                             -
 -                          OFFLOAD MEMPOOL STATISTICS                         -
 -                                                                             -
 -------------------------------------------------------------------------------
 Memory consumption                Number of allocations  Used [MiB]  Size [MiB]
 Host                                                  9         167          59
 -------------------------------------------------------------------------------

 MEMORY| Estimated peak process memory [MiB]                                4659

 -------------------------------------------------------------------------------
 ----                             MULTIGRID INFO                            ----
 -------------------------------------------------------------------------------
 count for grid        1:           8470          cutoff [a.u.]          400.00
 count for grid        2:          14360          cutoff [a.u.]          133.33
 count for grid        3:          23762          cutoff [a.u.]           44.44
 count for grid        4:          27661          cutoff [a.u.]           14.81
 count for grid        5:          12081          cutoff [a.u.]            4.94
 total gridlevel count  :          86334

 -------------------------------------------------------------------------------
 -                                                                             -
 -                           R E F E R E N C E S                               -
 -                                                                             -
 -------------------------------------------------------------------------------
 
 CP2K version 2026.2 (Development Version), the CP2K developers group (2026).
 CP2K is freely available from https://www.cp2k.org/ .
 
 M. Iannuzzi, J. Wilhelm, F. Stein, A. Bussy, H. Elgabarty, D. Golze, A. Hehn, 
 M. Graml, S. Marek, B. Sertcan Gökmen, C. Schran, H. Forbert, R. Z. 
 Khaliullin, A. Kozhevnikov, M. Taillefumier, R. Meli, V. V. Rybkin, M. Brehm, 
 R. Schade, O. Schütt, J. V. Pototschnig, H. Mirhosseini, A. Knüpfer, D. Marx, 
 M. Krack, J. Hutter, T. D. Kühne.
 J. Phys. Chem. B 130, 1237-1310 (2026).
 The CP2K Program Package Made Simple.
 https://doi.org/10.1021/acs.jpcb.5c05851

 L. Wittmann, I. Gordiy, M. Friede, B. Helmich-Paris, S. Grimme, A. Hansen, M. 
 Bursch.
 Phys. Chem. Chem. Phys. 26, 21379-21394 (2024).
 Extension of the D3 and D4 London dispersion corrections to the full actinides 
 series.
 https://doi.org/10.1039/d4cp01514b

 T. D. Kühne, M. Iannuzzi, M. Del Ben, V. V. Rybkin, P. Seewald, F. Stein, T. 
 Laino, R. Z. Khaliullin, O. Schütt, F. Schiffmann, D. Golze, J. Wilhelm, S. 
 Chulkov, M. H. Bani-Hashemian, V. Weber, U. Borstnik, M. Taillefumier, A. S. 
 Jakobovits, A. Lazzaro, H. Pabst, T. Müller, R. Schade, M. Guidon, S. 
 Andermatt, N. Holmberg, G. K. Schenter, A. Hehn, A. Bussy, F. Belleflamme, G. 
 Tabacchi, A. Glöß, M. Lass, I. Bethune, C. J. Mundy, C. Plessl, M. Watkins, 
 J. VandeVondele, M. Krack, J. Hutter.
 J. Chem. Phys. 152, 194103 (2020).
 CP2K: An electronic structure and molecular dynamics software package - 
 Quickstep: Efficient and accurate electronic structure calculations.
 https://doi.org/10.1063/5.0007045

 A. Togo, I. Tanaka.
 arXiv, 1808.01590 (2018).
 Spglib : a software library for crystal symmetry search.

 L. Goerigk, A. Hansen, C. Bauer, S. Ehrlich, A. Najibi, S. Grimme.
 Phys. Chem. Chem. Phys. 19, 32184-32215 (2017).
 A look at the density functional theory zoo with the advanced GMTKN55 database 
 for general main group thermochemistry, kinetics and noncovalent interactions.
 https://doi.org/10.1039/C7CP04913G

 O. Schuett, P. Messmer, J. Hutter, J. VandeVondele.
 Electronic Structure Calculations on Graphics Processing Units, 173-190 (2016).
 GPU-Accelerated Sparse Matrix-Matrix Multiplication for Linear Scaling Density 
 Functional Theory.
 https://doi.org/10.1002/9781118670712.ch8

 U. Borstnik, J. VandeVondele, V. Weber, J. Hutter.
 Parallel Comput. 40, 47-58 (2014).
 Sparse matrix multiplication: The distributed block-compressed sparse row 
 library.
 https://doi.org/10.1016/j.parco.2014.03.012

 S. Grimme, S. Ehrlich, L. Goerigk.
 J. Comput. Chem. 32, 1456 (2011).
 Effect of the damping function in dispersion corrected density functional 
 theory.
 https://doi.org/10.1002/jcc.21759

 S. Grimme, J. Antony, S. Ehrlich, H. Krieg.
 J. Chem. Phys. 132, 154104 (2010).
 A consistent and accurate ab initio parametrization of density functional 
 dispersion correction (DFT-D) for the 94 elements H-Pu.
 https://doi.org/10.1063/1.3382344

 V. Weber, J. VandeVondele, J. Hutter, A. M. N. Niklasson.
 J. Chem. Phys. 128, 084113 (2008).
 Direct energy functional minimization under orthogonality constraints.
 https://doi.org/10.1063/1.2841077

 J. VandeVondele, J. Hutter.
 J. Chem. Phys. 127, 114105 (2007).
 Gaussian basis sets for accurate calculations on molecular systems in gas and 
 condensed phases.
 https://doi.org/10.1063/1.2770708

 M. Krack.
 Theor. Chem. Acc. 114, 145-152 (2005).
 Pseudopotentials for H to Kr optimized for gradient-corrected 
 exchange-correlation functionals.
 https://doi.org/10.1007/s00214-005-0655-y

 M. Frigo, S. G. Johnson.
 Proc. IEEE 93, 216-231 (2005).
 The design and implementation of FFTW3.
 https://doi.org/10.1109/JPROC.2004.840301

 J. VandeVondele, J. Hutter.
 J. Chem. Phys. 118, 4365-4369 (2003).
 An efficient orbital transformation method for electronic structure 
 calculations.
 https://doi.org/10.1063/1.1543154

 C. Hartwigsen, S. Goedecker, J. Hutter.
 Phys. Rev. B 58, 3641-3662 (1998).
 Relativistic separable dual-space Gaussian pseudopotentials from H to Rn.
 https://doi.org/10.1103/PhysRevB.58.3641

 S. Goedecker, M. Teter, J. Hutter.
 Phys. Rev. B 54, 1703-1710 (1996).
 Separable dual-space Gaussian pseudopotentials.
 https://doi.org/10.1103/PhysRevB.54.1703

 C.-L. Fu, K.-M. Ho.
 Phys. Rev. B 28, 5480-5486 (1983).
 First-principles calculation of the equilibrium ground-state properties of 
 transition metals: Applications to Nb and Mo.
 https://doi.org/10.1103/PhysRevB.28.5480


 -------------------------------------------------------------------------------
 -                                                                             -
 -                                T I M I N G                                  -
 -                                                                             -
 -------------------------------------------------------------------------------
 SUBROUTINE                       CALLS  ASD         SELF TIME        TOTAL TIME
                                MAXIMUM       AVERAGE  MAXIMUM  AVERAGE  MAXIMUM
 CP2K                                 1  1.0     0.05     0.05 15172.09 15172.09
 qs_energies                          1  2.0     0.00     0.00 15171.04 15171.04
 scf_env_do_scf                       1  3.0     0.00     0.00 15166.91 15166.91
 qs_ks_update_qs_env                 62  5.0     0.00     0.00 14784.52 14784.52
 rebuild_ks_matrix                   60  6.0     0.00     0.00 14782.53 14782.53
 qs_ks_build_kohn_sham_matrix        60  7.0     0.04     0.04 14782.53 14782.53
 scf_env_do_scf_inner_loop           60  4.0     0.47     0.47 14630.08 14630.08
 calculate_vxc_atom                  60  8.0 10873.23 10873.23 14605.23 14605.23
 skala_atom_torch_backward          180  9.0   977.30   977.30   977.30   977.30
 calc_tau_atom                     1440  9.0   881.44   881.44   881.44   881.44
 skala_atom_torch_forward           180  9.0     0.03     0.03   664.82   664.82
 torch_model_forward_mol_tensor     180 10.0   664.79   664.79   664.79   664.79
 dgaVtaudgb                         960  9.0   626.00   626.00   626.00   626.00
 init_scf_loop                        2  4.0     0.00     0.00   536.83   536.83
 gaVxcgb_GC                         960  9.0   528.85   528.85   528.85   528.85
 -------------------------------------------------------------------------------

 The number of warnings for this run is : 2
 
 -------------------------------------------------------------------------------
  **** **** ******  **  PROGRAM ENDED AT                 2026-09-04 08:01:56.330
 ***** ** ***  *** **   PROGRAM RAN ON                                    ctu029
 **    ****   ******    PROGRAM RAN BY                                  kuehne88
 ***** **    ** ** **   PROGRAM PROCESS ID                                 40540
  **** **  *******  **  PROGRAM STOPPED IN /data/home2/kuehne88/cp2k-native-skal
                                           a/goldzak12/runs/diagnostic-volume-ne
                                           ighbor-rosi-wave110-20260904/producti
                                           on/gapwxc-gth/SiC/v10
