 DBCSR| CPU Multiplication driver                                           BLAS (U)
 DBCSR| Multrec recursion limit                                              512 (U)
 DBCSR| Multiplication stack size                                           1000 (D)
 DBCSR| Maximum elements for images                                    UNLIMITED (U)
 DBCSR| Multiplicative factor virtual images                                   1 (U)
 DBCSR| Use multiplication densification                                       T (D)
 DBCSR| Multiplication size stacks                                             3 (U)
 DBCSR| Use memory pool for CPU allocation                                     F (U)
 DBCSR| Number of 3D layers                                               SINGLE (U)
 DBCSR| Use MPI memory allocation                                              F (U)
 DBCSR| Use RMA algorithm                                                      F (U)
 DBCSR| Use Communication thread                                               T (U)
 DBCSR| Communication thread load                                             60 (D)
 DBCSR| MPI: My process id                                                     0
 DBCSR| MPI: Number of processes                                               1
 DBCSR| OMP: Current number of threads                                         8
 DBCSR| OMP: Max number of threads                                             8
 DBCSR| Split modifier for TAS multiplication algorithm                  1.0E+00 (U)


  **** **** ******  **  PROGRAM STARTED AT               2026-09-09 11:59:31.995
 ***** ** ***  *** **   PROGRAM STARTED ON                                 terok
 **    ****   ******    PROGRAM STARTED BY                              kuehne88
 ***** **    ** ** **   PROGRAM PROCESS ID                               4071232
  **** **  *******  **  PROGRAM STARTED IN /home/kuehne88/work/native-skala-tero
                                           k/pccp-validation-20260909/derivative
                                           -checks/gapw-gth-direct/force-plus-0.
                                           0005

 CP2K| version string:                 CP2K version 2026.2 (Development Version)
 CP2K| source code revision number:                                   37aedacbb3
 CP2K| cp2kflags: omp fftw3 gauxc gauxc_mpi gauxc_onedft gauxc_host parallel sca
 CP2K|            lapack mpi_f08 openblas libtorch libtorch_cuda
 CP2K| is freely available from                            https://www.cp2k.org/
 CP2K| Program compiled at                                   2026-09-08 17:22:32
 CP2K| Program compiled on                                                 terok
 CP2K| Program compiled for                                               x86_64
 CP2K| Data directory path    /home/kuehne88/work/native-skala-terok/x23-mini/ru
 CP2K| Input file name                                                 input.inp

 GLOBAL| Force Environment number                                              1
 GLOBAL| Basis set file name                             BASIS_MOLOPT_UZH_2026.2
 GLOBAL| Potential file name                                POTENTIAL_UZH_2026.2
 GLOBAL| MM Potential file name                                     MM_POTENTIAL
 GLOBAL| Coordinate file name                                      __STD_INPUT__
 GLOBAL| Method name                                                        CP2K
 GLOBAL| Project name                                         fd_gapw-gth-direct
 GLOBAL| Run type                                                   ENERGY_FORCE
 GLOBAL| FFT library                                                       FFTW3
 GLOBAL| Diagonalization library                                       ScaLAPACK
 GLOBAL| Cholesky decomposition library                                ScaLAPACK
 GLOBAL| DGEMM library                                                      BLAS
 GLOBAL| Direct generalized diagonalization requested                          F
 GLOBAL| Orthonormality check for eigenvectors                          DISABLED
 GLOBAL| Matrix multiplication library                                 ScaLAPACK
 GLOBAL| All-to-all communication in single precision                          F
 GLOBAL| Grid backend                                                       AUTO
 GLOBAL| Global print level                                               MEDIUM
 GLOBAL| MPI I/O enabled                                                       T
 GLOBAL| Total number of message passing processes                             1
 GLOBAL| Number of distributed systems (nodes)                                 1
 GLOBAL| Number of threads for this process                                    8
 GLOBAL| This output is from process                                           0
 GLOBAL| OpenMP stack size per thread (OMP_STACKSIZE)                       256M
 GLOBAL| CPU model name                                       AMD EPYC Processor

 MEMORY| system memory details [Kb]
 MEMORY|                        rank 0           min           max       average
 MEMORY| MemTotal            528104844     528104844     528104844     528104844
 MEMORY| MemFree             234984824     234984824     234984824     234984824
 MEMORY| Buffers                   664           664           664           664
 MEMORY| Cached              243274784     243274784     243274784     243274784
 MEMORY| Slab                 36088432      36088432      36088432      36088432
 MEMORY| SReclaimable         29872140      29872140      29872140      29872140
 MEMORY| MemLikelyFree       508132412     508132412     508132412     508132412


 *** Fundamental physical constants (SI units) ***

 *** Literature: B. J. Mohr and B. N. Taylor,
 ***             CODATA recommended values of the fundamental physical
 ***             constants: 2006, Web Version 5.1
 ***             http://physics.nist.gov/constants

 Speed of light in vacuum [m/s]                             2.99792458000000E+08
 Magnetic constant or permeability of vacuum [N/A**2]       1.25663706143592E-06
 Electric constant or permittivity of vacuum [F/m]          8.85418781762039E-12
 Planck constant (h) [J*s]                                  6.62606896000000E-34
 Planck constant (h-bar) [J*s]                              1.05457162825177E-34
 Elementary charge [C]                                      1.60217648700000E-19
 Electron mass [kg]                                         9.10938215000000E-31
 Electron g factor [ ]                                     -2.00231930436220E+00
 Proton mass [kg]                                           1.67262163700000E-27
 Fine-structure constant                                    7.29735253760000E-03
 Rydberg constant [1/m]                                     1.09737315685270E+07
 Avogadro constant [1/mol]                                  6.02214179000000E+23
 Boltzmann constant [J/K]                                   1.38065040000000E-23
 Atomic mass unit [kg]                                      1.66053878200000E-27
 Bohr radius [m]                                            5.29177208590000E-11

 *** Conversion factors ***

 [u] -> [a.u.]                                              1.82288848426455E+03
 [Angstrom] -> [Bohr] = [a.u.]                              1.88972613288564E+00
 [a.u.] = [Bohr] -> [Angstrom]                              5.29177208590000E-01
 [a.u.] -> [s]                                              2.41888432650478E-17
 [a.u.] -> [fs]                                             2.41888432650478E-02
 [a.u.] -> [J]                                              4.35974393937059E-18
 [a.u.] -> [N]                                              8.23872205491840E-08
 [a.u.] -> [K]                                              3.15774647902944E+05
 [a.u.] -> [kJ/mol]                                         2.62549961709828E+03
 [a.u.] -> [kcal/mol]                                       6.27509468713739E+02
 [a.u.] -> [Pa]                                             2.94210107994716E+13
 [a.u.] -> [bar]                                            2.94210107994716E+08
 [a.u.] -> [atm]                                            2.90362800883016E+08
 [a.u.] -> [eV]                                             2.72113838565563E+01
 [a.u.] -> [Hz]                                             6.57968392072181E+15
 [a.u.] -> [1/cm] (wave numbers)                            2.19474631370540E+05
 [a.u./Bohr**2] -> [1/cm]                                   5.14048714338585E+03
 

 CELL| Volume [angstrom^3]:                                           512.000000
 CELL| Vector a [angstrom]:       8.000     0.000     0.000   |a| =     8.000000
 CELL| Vector b [angstrom]:       0.000     8.000     0.000   |b| =     8.000000
 CELL| Vector c [angstrom]:       0.000     0.000     8.000   |c| =     8.000000
 CELL| Angle (b,c), alpha [degree]:                                    90.000000
 CELL| Angle (a,c), beta  [degree]:                                    90.000000
 CELL| Angle (a,b), gamma [degree]:                                    90.000000
 CELL| Numerically orthorhombic:                                             YES
 CELL| Periodicity                                                           XYZ

 CELL_REF| Volume [angstrom^3]:                                       512.000000
 CELL_REF| Vector a [angstrom     8.000     0.000     0.000   |a| =     8.000000
 CELL_REF| Vector b [angstrom     0.000     8.000     0.000   |b| =     8.000000
 CELL_REF| Vector c [angstrom     0.000     0.000     8.000   |c| =     8.000000
 CELL_REF| Angle (b,c), alpha [degree]:                                90.000000
 CELL_REF| Angle (a,c), beta  [degree]:                                90.000000
 CELL_REF| Angle (a,b), gamma [degree]:                                90.000000
 CELL_REF| Numerically orthorhombic:                                         YES
 CELL_REF| Periodicity                                                       XYZ

 GENERATE|  Preliminary Number of Bonds generated:                             0
 GENERATE|  Achieved consistency in connectivity generation.

 *******************************************************************************
 *******************************************************************************
 **                                                                           **
 **     #####                         ##              ##                      **
 **    ##   ##            ##          ##              ##                      **
 **   ##     ##                       ##            ######                    **
 **   ##     ##  ##   ##  ##   #####  ##  ##   ####   ##    #####    #####    **
 **   ##     ##  ##   ##  ##  ##      ## ##   ##      ##   ##   ##  ##   ##   **
 **   ##  ## ##  ##   ##  ##  ##      ####     ###    ##   ######   ######    **
 **    ##  ###   ##   ##  ##  ##      ## ##      ##   ##   ##       ##        **
 **     #######   #####   ##   #####  ##  ##  ####    ##    #####   ##        **
 **           ##                                                    ##        **
 **                                                                           **
 **                                                ... make the atoms dance   **
 **                                                                           **
 **            Copyright (C) by CP2K developers group (2000-2026)             **
 **                      J. Chem. Phys. 152, 194103 (2020)                    **
 **                                                                           **
 *******************************************************************************

 DFT| Spin restricted Kohn-Sham (RKS) calculation                            RKS
 DFT| Multiplicity                                                             1
 DFT| Number of spin states                                                    1
 DFT| Charge                                                                   0
 DFT| Self-interaction correction (SIC)                                       NO
 DFT| Cutoffs: density                                              1.000000E-10
 DFT|          gradient                                             1.000000E-10
 DFT|          tau                                                  1.000000E-10
 DFT|          cutoff_smoothing_range                               0.000000E+00
 DFT| XC density smoothing                                                  NONE
 DFT| XC derivatives                                                          PW

 FUNCTIONAL| GAUXC:
 FUNCTIONAL| Functional computed by GauXC Skala model SKALA                     


 QS| Method:                                                                GAPW
 QS| Density plane wave grid type                        NON-SPHERICAL FULLSPACE
 QS| Number of grid levels:                                                    5
 QS| Density cutoff [a.u.]:                                                200.0
 QS| Multi grid cutoff [a.u.]: 1) grid level                               200.0
 QS|                           2) grid level                                66.7
 QS|                           3) grid level                                22.2
 QS|                           4) grid level                                 7.4
 QS|                           5) grid level                                 2.5
 QS| Grid level progression factor:                                          3.0
 QS| Relative density cutoff [a.u.]:                                        30.0
 QS| Interaction thresholds: eps_pgf_orb:                                1.0E-06
 QS|                         eps_filter_matrix:                          0.0E+00
 QS|                         eps_core_charge:                            1.0E-14
 QS|                         eps_rho_gspace:                             1.0E-12
 QS|                         eps_rho_rspace:                             1.0E-12
 QS|                         eps_gvg_rspace:                             1.0E-06
 QS|                         eps_ppl:                                    1.0E-02
 QS|                         eps_ppnl:                                   1.0E-08
 QS| GAPW|      XC integration using accurate scheme: Ref. exponent     6.000000
 QS| GAPW|      One center basis extended with primitives (small:s)
 QS| GAPW|                   eps_fit:                                    1.0E-04
 QS| GAPW|                   eps_iso:                                    1.0E-12
 QS| GAPW|                   eps_svd:                                    1.0E-08
 QS| GAPW|                   eps_cpc:                                    1.0E-12
 QS| GAPW|   atom-r-grid: quadrature:                                     GC_LOG
 QS| GAPW|      atom-s-grid:  max l :                                          6
 QS| GAPW|      max_l_rho0 :                                                   4
 QS| GAPW|      At least one kind is NOT PAW, i.e. it has only soft AO 
 QS| GAPW|      The NOT PAW atoms are treated fully GPW


 ATOMIC KIND INFORMATION

  1. Atomic kind: O                                     Number of atoms:       1

     Orbital Basis Set                                   TZV2P-MOLOPT-PBE-GTH-q6

       Number of orbital shell sets:                                           1
       Number of orbital shells:                                               9
       Number of primitive Cartesian functions:                                5
       Number of Cartesian basis functions:                                   34
       Number of spherical basis functions:                                   29
       Norm type:                                                              2

       Normalised Cartesian orbitals:

                        Set   Shell   Orbital            Exponent    Coefficient

                          1       1    2s               10.277042      -0.485504
                                                         3.564053      -0.220015
                                                         1.313636       0.373321
                                                         0.488903       0.264765
                                                         0.155332       0.020043

                          1       2    3s               10.277042       0.224066
                                                         3.564053       0.080746
                                                         1.313636      -0.123482
                                                         0.488903      -0.035459
                                                         0.155332       0.195554

                          1       3    4s               10.277042      -3.846583
                                                         3.564053      -0.604002
                                                         1.313636       0.878850
                                                         0.488903      -0.388670
                                                         0.155332       0.020403

                          1       4    3px              10.277042      -1.528218
                                                         3.564053      -1.277699
                                                         1.313636      -0.654740
                                                         0.488903      -0.229926
                                                         0.155332      -0.043447
                          1       4    3py              10.277042      -1.528218
                                                         3.564053      -1.277699
                                                         1.313636      -0.654740
                                                         0.488903      -0.229926
                                                         0.155332      -0.043447
                          1       4    3pz              10.277042      -1.528218
                                                         3.564053      -1.277699
                                                         1.313636      -0.654740
                                                         0.488903      -0.229926
                                                         0.155332      -0.043447

                          1       5    4px              10.277042       2.036465
                                                         3.564053       1.678955
                                                         1.313636       0.821025
                                                         0.488903       0.173956
                                                         0.155332      -0.133459
                          1       5    4py              10.277042       2.036465
                                                         3.564053       1.678955
                                                         1.313636       0.821025
                                                         0.488903       0.173956
                                                         0.155332      -0.133459
                          1       5    4pz              10.277042       2.036465
                                                         3.564053       1.678955
                                                         1.313636       0.821025
                                                         0.488903       0.173956
                                                         0.155332      -0.133459

                          1       6    5px              10.277042       4.160760
                                                         3.564053       3.839534
                                                         1.313636       1.365137
                                                         0.488903      -0.557232
                                                         0.155332       0.019989
                          1       6    5py              10.277042       4.160760
                                                         3.564053       3.839534
                                                         1.313636       1.365137
                                                         0.488903      -0.557232
                                                         0.155332       0.019989
                          1       6    5pz              10.277042       4.160760
                                                         3.564053       3.839534
                                                         1.313636       1.365137
                                                         0.488903      -0.557232
                                                         0.155332       0.019989

                          1       7    4dx2             10.277042      -5.653729
                                                         3.564053       2.384130
                                                         1.313636       0.763128
                                                         0.488903       0.368121
                                                         0.155332      -0.007951
                          1       7    4dxy             10.277042      -9.792547
                                                         3.564053       4.129435
                                                         1.313636       1.321776
                                                         0.488903       0.637605
                                                         0.155332      -0.013772
                          1       7    4dxz             10.277042      -9.792547
                                                         3.564053       4.129435
                                                         1.313636       1.321776
                                                         0.488903       0.637605
                                                         0.155332      -0.013772
                          1       7    4dy2             10.277042      -5.653729
                                                         3.564053       2.384130
                                                         1.313636       0.763128
                                                         0.488903       0.368121
                                                         0.155332      -0.007951
                          1       7    4dyz             10.277042      -9.792547
                                                         3.564053       4.129435
                                                         1.313636       1.321776
                                                         0.488903       0.637605
                                                         0.155332      -0.013772
                          1       7    4dz2             10.277042      -5.653729
                                                         3.564053       2.384130
                                                         1.313636       0.763128
                                                         0.488903       0.368121
                                                         0.155332      -0.007951

                          1       8    5dx2             10.277042      -1.240143
                                                         3.564053       0.370203
                                                         1.313636       0.144297
                                                         0.488903       0.056503
                                                         0.155332       0.057456
                          1       8    5dxy             10.277042      -2.147990
                                                         3.564053       0.641211
                                                         1.313636       0.249929
                                                         0.488903       0.097865
                                                         0.155332       0.099516
                          1       8    5dxz             10.277042      -2.147990
                                                         3.564053       0.641211
                                                         1.313636       0.249929
                                                         0.488903       0.097865
                                                         0.155332       0.099516
                          1       8    5dy2             10.277042      -1.240143
                                                         3.564053       0.370203
                                                         1.313636       0.144297
                                                         0.488903       0.056503
                                                         0.155332       0.057456
                          1       8    5dyz             10.277042      -2.147990
                                                         3.564053       0.641211
                                                         1.313636       0.249929
                                                         0.488903       0.097865
                                                         0.155332       0.099516
                          1       8    5dz2             10.277042      -1.240143
                                                         3.564053       0.370203
                                                         1.313636       0.144297
                                                         0.488903       0.056503
                                                         0.155332       0.057456

                          1       9    5fx3             10.277042      -6.690350
                                                         3.564053       0.340627
                                                         1.313636       0.043047
                                                         0.488903       0.291962
                                                         0.155332      -0.000154
                          1       9    5fx2y            10.277042     -14.960077
                                                         3.564053       0.761664
                                                         1.313636       0.096256
                                                         0.488903       0.652848
                                                         0.155332      -0.000345
                          1       9    5fx2z            10.277042     -14.960077
                                                         3.564053       0.761664
                                                         1.313636       0.096256
                                                         0.488903       0.652848
                                                         0.155332      -0.000345
                          1       9    5fxy2            10.277042     -14.960077
                                                         3.564053       0.761664
                                                         1.313636       0.096256
                                                         0.488903       0.652848
                                                         0.155332      -0.000345
                          1       9    5fxyz            10.277042     -25.911613
                                                         3.564053       1.319241
                                                         1.313636       0.166721
                                                         0.488903       1.130766
                                                         0.155332      -0.000597
                          1       9    5fxz2            10.277042     -14.960077
                                                         3.564053       0.761664
                                                         1.313636       0.096256
                                                         0.488903       0.652848
                                                         0.155332      -0.000345
                          1       9    5fy3             10.277042      -6.690350
                                                         3.564053       0.340627
                                                         1.313636       0.043047
                                                         0.488903       0.291962
                                                         0.155332      -0.000154
                          1       9    5fy2z            10.277042     -14.960077
                                                         3.564053       0.761664
                                                         1.313636       0.096256
                                                         0.488903       0.652848
                                                         0.155332      -0.000345
                          1       9    5fyz2            10.277042     -14.960077
                                                         3.564053       0.761664
                                                         1.313636       0.096256
                                                         0.488903       0.652848
                                                         0.155332      -0.000345
                          1       9    5fz3             10.277042      -6.690350
                                                         3.564053       0.340627
                                                         1.313636       0.043047
                                                         0.488903       0.291962
                                                         0.155332      -0.000154

       Atomic covalent radius [Angstrom]:                                  0.730

       Atomic van der Waals radius [Angstrom]:                             1.520

     GTH Potential information for                                    GTH-PBE-q6

       Description:                       Goedecker-Teter-Hutter pseudopotential
                                           Goedecker et al., PRB 54, 1703 (1996)
                                          Hartwigsen et al., PRB 58, 3641 (1998)
                                                      Krack, TCA 114, 145 (2005)

       Gaussian exponent of the core charge distribution:               8.366479
       Electronic configuration (s p d ...):                       2   4   0   0

       Parameters of the local part of the GTH pseudopotential:

                          rloc        C1          C2          C3          C4
                        0.244463  -16.675482    2.489086

       Parameters of the non-local part of the GTH pseudopotential:

                   l      r(l)      h(i,j,l)

                   0    0.220971   18.334469

  2. Atomic kind: H                                     Number of atoms:       2

     Orbital Basis Set                                   TZV2P-MOLOPT-PBE-GTH-q1

       Number of orbital shell sets:                                           1
       Number of orbital shells:                                               6
       Number of primitive Cartesian functions:                                5
       Number of Cartesian basis functions:                                   15
       Number of spherical basis functions:                                   14
       Norm type:                                                              2

       Normalised Cartesian orbitals:

                        Set   Shell   Orbital            Exponent    Coefficient

                          1       1    2s                9.586642       0.069481
                                                         2.202360       0.112147
                                                         0.604094       0.130550
                                                         0.146498       0.088477
                                                         0.139526       0.035929

                          1       2    3s                9.586642      -0.087313
                                                         2.202360      -0.117928
                                                         0.604094      -0.099372
                                                         0.146498      -0.105375
                                                         0.139526       0.287433

                          1       3    4s                9.586642       0.882480
                                                         2.202360       0.096105
                                                         0.604094      -0.739894
                                                         0.146498       0.120904
                                                         0.139526       0.013904

                          1       4    3px               9.586642      -2.186125
                                                         2.202360       1.112625
                                                         0.604094       0.330981
                                                         0.146498       0.087385
                                                         0.139526      -0.016905
                          1       4    3py               9.586642      -2.186125
                                                         2.202360       1.112625
                                                         0.604094       0.330981
                                                         0.146498       0.087385
                                                         0.139526      -0.016905
                          1       4    3pz               9.586642      -2.186125
                                                         2.202360       1.112625
                                                         0.604094       0.330981
                                                         0.146498       0.087385
                                                         0.139526      -0.016905

                          1       5    4px               9.586642       1.866908
                                                         2.202360       0.174551
                                                         0.604094       0.060190
                                                         0.146498       0.014182
                                                         0.139526       0.100545
                          1       5    4py               9.586642       1.866908
                                                         2.202360       0.174551
                                                         0.604094       0.060190
                                                         0.146498       0.014182
                                                         0.139526       0.100545
                          1       5    4pz               9.586642       1.866908
                                                         2.202360       0.174551
                                                         0.604094       0.060190
                                                         0.146498       0.014182
                                                         0.139526       0.100545

                          1       6    4dx2              9.586642       0.111501
                                                         2.202360      -0.020603
                                                         0.604094      -0.012612
                                                         0.146498      -0.000171
                                                         0.139526       0.052995
                          1       6    4dxy              9.586642       0.193125
                                                         2.202360      -0.035686
                                                         0.604094      -0.021844
                                                         0.146498      -0.000296
                                                         0.139526       0.091790
                          1       6    4dxz              9.586642       0.193125
                                                         2.202360      -0.035686
                                                         0.604094      -0.021844
                                                         0.146498      -0.000296
                                                         0.139526       0.091790
                          1       6    4dy2              9.586642       0.111501
                                                         2.202360      -0.020603
                                                         0.604094      -0.012612
                                                         0.146498      -0.000171
                                                         0.139526       0.052995
                          1       6    4dyz              9.586642       0.193125
                                                         2.202360      -0.035686
                                                         0.604094      -0.021844
                                                         0.146498      -0.000296
                                                         0.139526       0.091790
                          1       6    4dz2              9.586642       0.111501
                                                         2.202360      -0.020603
                                                         0.604094      -0.012612
                                                         0.146498      -0.000171
                                                         0.139526       0.052995

       Atomic covalent radius [Angstrom]:                                  0.320

       Atomic van der Waals radius [Angstrom]:                             1.090

     GTH Potential information for                                    GTH-PBE-q1

       Description:                       Goedecker-Teter-Hutter pseudopotential
                                           Goedecker et al., PRB 54, 1703 (1996)
                                          Hartwigsen et al., PRB 58, 3641 (1998)
                                                      Krack, TCA 114, 145 (2005)

       Gaussian exponent of the core charge distribution:              12.426182
       Electronic configuration (s p d ...):                       1   0   0   0

       Parameters of the local part of the GTH pseudopotential:

                          rloc        C1          C2          C3          C4
                        0.200593   -4.178068    0.724409


 MOLECULE KIND INFORMATION


 All atoms are their own molecule, skipping detailed information


 TOTAL NUMBERS AND MAXIMUM NUMBERS

  Total number of            - Atomic kinds:                                   2
                             - Atoms:                                          3
                             - Shell sets:                                     3
                             - Shells:                                        21
                             - Primitive Cartesian functions:                 15
                             - Cartesian basis functions:                     64
                             - Spherical basis functions:                     57

  Maximum angular momentum of- Orbital basis functions:                        3
                             - Local part of the GTH pseudopotential:          2
                             - Non-local part of the GTH pseudopotential:      0


 MODULE QUICKSTEP: ATOMIC COORDINATES IN ANGSTROM

   Atom Kind Element         X             Y             Z       Z(eff)     Mass
      1    1 O     8      4.000000      4.000000      4.000000   6.0000  15.9994
      2    2 H     1      4.760265      4.000000      4.590000   1.0000   1.0079
      3    2 H     1      3.760000      4.740000      4.590000   1.0000   1.0079



 SCF PARAMETERS         Density guess:                                   RESTART
                        --------------------------------------------------------
                        max_scf:                                             200
                        max_scf_history:                                       0
                        max_diis:                                              4
                        --------------------------------------------------------
                        eps_scf:                                        1.00E-09
                        eps_scf_history:                                0.00E+00
                        eps_diis:                                       0.00E+00
                        eps_eigval:                                     1.00E-05
                        --------------------------------------------------------
                        level_shift [a.u.]:                             0.000000
                        --------------------------------------------------------
                        Outer loop SCF in use 
                        No variables optimised in outer loop
                        eps_scf                                         1.00E-09
                        max_scf                                                2
                        No outer loop optimization
                        step_size                                       5.00E-01

 PW_GRID| Information for grid number                                          1
 PW_GRID| Cutoff [a.u.]                                                    200.0
 PW_GRID| spherical cutoff:                                                   NO
 PW_GRID|   Bounds   1            -50      49                Points:         100
 PW_GRID|   Bounds   2            -50      49                Points:         100
 PW_GRID|   Bounds   3            -50      49                Points:         100
 PW_GRID| Volume element (a.u.^3)  0.3455E-02     Volume (a.u.^3)      3455.1473
 PW_GRID| Grid span                                                    FULLSPACE

 PW_GRID| Information for grid number                                          2
 PW_GRID| Number of the reference grid                                         1
 PW_GRID| Cutoff [a.u.]                                                     66.7
 PW_GRID| spherical cutoff:                                                   NO
 PW_GRID|   Bounds   1            -30      29                Points:          60
 PW_GRID|   Bounds   2            -30      29                Points:          60
 PW_GRID|   Bounds   3            -30      29                Points:          60
 PW_GRID| Volume element (a.u.^3)  0.1600E-01     Volume (a.u.^3)      3455.1473
 PW_GRID| Grid span                                                    FULLSPACE

 PW_GRID| Information for grid number                                          3
 PW_GRID| Number of the reference grid                                         1
 PW_GRID| Cutoff [a.u.]                                                     22.2
 PW_GRID| spherical cutoff:                                                   NO
 PW_GRID|   Bounds   1            -18      17                Points:          36
 PW_GRID|   Bounds   2            -18      17                Points:          36
 PW_GRID|   Bounds   3            -18      17                Points:          36
 PW_GRID| Volume element (a.u.^3)  0.7406E-01     Volume (a.u.^3)      3455.1473
 PW_GRID| Grid span                                                    FULLSPACE

 PW_GRID| Information for grid number                                          4
 PW_GRID| Number of the reference grid                                         1
 PW_GRID| Cutoff [a.u.]                                                      7.4
 PW_GRID| spherical cutoff:                                                   NO
 PW_GRID|   Bounds   1            -10       9                Points:          20
 PW_GRID|   Bounds   2            -10       9                Points:          20
 PW_GRID|   Bounds   3            -10       9                Points:          20
 PW_GRID| Volume element (a.u.^3)  0.4319         Volume (a.u.^3)      3455.1473
 PW_GRID| Grid span                                                    FULLSPACE

 PW_GRID| Information for grid number                                          5
 PW_GRID| Number of the reference grid                                         1
 PW_GRID| Cutoff [a.u.]                                                      2.5
 PW_GRID| spherical cutoff:                                                   NO
 PW_GRID|   Bounds   1             -6       5                Points:          12
 PW_GRID|   Bounds   2             -6       5                Points:          12
 PW_GRID|   Bounds   3             -6       5                Points:          12
 PW_GRID| Volume element (a.u.^3)   2.000         Volume (a.u.^3)      3455.1473
 PW_GRID| Grid span                                                    FULLSPACE

 POISSON| Solver                                                        PERIODIC
 POISSON| Periodicity                                                        XYZ

 RS_GRID| Information for grid number                                          1
 RS_GRID|   Bounds   1            -50      49                Points:         100
 RS_GRID|   Bounds   2            -50      49                Points:         100
 RS_GRID|   Bounds   3            -50      49                Points:         100

 RS_GRID| Information for grid number                                          2
 RS_GRID|   Bounds   1            -30      29                Points:          60
 RS_GRID|   Bounds   2            -30      29                Points:          60
 RS_GRID|   Bounds   3            -30      29                Points:          60

 RS_GRID| Information for grid number                                          3
 RS_GRID|   Bounds   1            -18      17                Points:          36
 RS_GRID|   Bounds   2            -18      17                Points:          36
 RS_GRID|   Bounds   3            -18      17                Points:          36

 RS_GRID| Information for grid number                                          4
 RS_GRID|   Bounds   1            -10       9                Points:          20
 RS_GRID|   Bounds   2            -10       9                Points:          20
 RS_GRID|   Bounds   3            -10       9                Points:          20

 RS_GRID| Information for grid number                                          5
 RS_GRID|   Bounds   1             -6       5                Points:          12
 RS_GRID|   Bounds   2             -6       5                Points:          12
 RS_GRID|   Bounds   3             -6       5                Points:          12

 Extrapolation method: initial_guess

 Number of electrons:                                                          8
 Number of occupied orbitals:                                                  4
 Number of molecular orbitals:                                                 4

 Number of orbital functions:                                                 57
 Number of independent orbital functions:                                     57


 SCF WAVEFUNCTION OPTIMIZATION

  ----------------------------------- OT ---------------------------------------
  Minimizer      : DIIS                : direct inversion
                                         in the iterative subspace
                                         using   7 DIIS vectors
                                         safer DIIS on
  Preconditioner : FULL_ALL            : diagonalization, state selective
  Precond_solver : DEFAULT
  stepsize       :    0.05000000                  energy_gap     :    0.08000000
  eps_taylor     :   0.10000E-15                  max_taylor     :             4
  ----------------------------------- OT ---------------------------------------

  Step     Update method      Time    Convergence         Total energy    Change
  ------------------------------------------------------------------------------
 SKALA_GPW| Atom-composite cross support/maxima   0.000000000000E+00   0.000000000000E+00   0.000000000000E+00   0.000000000000E+00
 SKALA_GPW| Active atom-composite XC energy  -4.2411997040652274E+00
 SKALA_GPW| Active atom-composite electrons   7.9999972419539933E+00
 SKALA_GPW| Active atom-composite density range  -2.3335517951013336E-18   6.1141523935236286E-01
 SKALA_GPW| Active atom-composite tau range  -1.0856711768419224E-17   1.6317151952403851E+01
 SKALA_GPW| Active atom-composite tau integral   1.3576511055143719E+01
 SKALA_GPW| Active atom-composite max gradient   2.3375871660100094E+00
     1 OT DIIS     0.50E-01    9.3     0.00002535       -17.2171132229 -1.72E+01
 SKALA_GPW| Atom-composite cross support/maxima   0.000000000000E+00   0.000000000000E+00   0.000000000000E+00   0.000000000000E+00
 SKALA_GPW| Active atom-composite XC energy  -4.2411803164903104E+00
 SKALA_GPW| Active atom-composite electrons   7.9999972420427916E+00
 SKALA_GPW| Active atom-composite density range  -4.6765379987484256E-18   6.1141193168596331E-01
 SKALA_GPW| Active atom-composite tau range  -2.6550380082335222E-17   1.6316925733721217E+01
 SKALA_GPW| Active atom-composite tau integral   1.3576384180512038E+01
 SKALA_GPW| Active atom-composite max gradient   2.3375630974702615E+00
     2 OT DIIS     0.50E-01    7.7     0.00001885       -17.2171132298 -6.89E-09
 SKALA_GPW| Atom-composite cross support/maxima   0.000000000000E+00   0.000000000000E+00   0.000000000000E+00   0.000000000000E+00
 SKALA_GPW| Active atom-composite XC energy  -4.2411510368469507E+00
 SKALA_GPW| Active atom-composite electrons   7.9999972421655450E+00
 SKALA_GPW| Active atom-composite density range  -4.4684757302643892E-18   6.1140963562937922E-01
 SKALA_GPW| Active atom-composite tau range  -1.4741443737442356E-17   1.6316592413830879E+01
 SKALA_GPW| Active atom-composite tau integral   1.3576188038236252E+01
 SKALA_GPW| Active atom-composite max gradient   2.3375304589884878E+00
     3 OT DIIS     0.50E-01    7.7     0.00000743       -17.2171132324 -2.61E-09
 SKALA_GPW| Atom-composite cross support/maxima   0.000000000000E+00   0.000000000000E+00   0.000000000000E+00   0.000000000000E+00
 SKALA_GPW| Active atom-composite XC energy  -4.2411569699710219E+00
 SKALA_GPW| Active atom-composite electrons   7.9999972421166339E+00
 SKALA_GPW| Active atom-composite density range  -3.9104223302925732E-18   6.1141572982067427E-01
 SKALA_GPW| Active atom-composite tau range  -1.2569506189280451E-17   1.6316668555039769E+01
 SKALA_GPW| Active atom-composite tau integral   1.3576216747994646E+01
 SKALA_GPW| Active atom-composite max gradient   2.3375433889483785E+00
     4 OT DIIS     0.50E-01    7.6     0.00000140       -17.2171132368 -4.45E-09
 SKALA_GPW| Atom-composite cross support/maxima   0.000000000000E+00   0.000000000000E+00   0.000000000000E+00   0.000000000000E+00
 SKALA_GPW| Active atom-composite XC energy  -4.2411581919720094E+00
 SKALA_GPW| Active atom-composite electrons   7.9999972421063763E+00
 SKALA_GPW| Active atom-composite density range  -2.7299405495292092E-18   6.1141669162511714E-01
 SKALA_GPW| Active atom-composite tau range  -1.0975377320302717E-17   1.6316662921696324E+01
 SKALA_GPW| Active atom-composite tau integral   1.3576219681525073E+01
 SKALA_GPW| Active atom-composite max gradient   2.3375422789802935E+00
     5 OT DIIS     0.50E-01    7.9     0.00000021       -17.2171132343  2.50E-09
 SKALA_GPW| Atom-composite cross support/maxima   0.000000000000E+00   0.000000000000E+00   0.000000000000E+00   0.000000000000E+00
 SKALA_GPW| Active atom-composite XC energy  -4.2411581996687158E+00
 SKALA_GPW| Active atom-composite electrons   7.9999972421067076E+00
 SKALA_GPW| Active atom-composite density range  -2.8215171446442950E-18   6.1141685145285518E-01
 SKALA_GPW| Active atom-composite tau range  -5.6918678543661264E-18   1.6316660586429045E+01
 SKALA_GPW| Active atom-composite tau integral   1.3576218988342507E+01
 SKALA_GPW| Active atom-composite max gradient   2.3375419401070912E+00
     6 OT DIIS     0.50E-01    8.1     0.00000004       -17.2171132373 -2.99E-09
 SKALA_GPW| Atom-composite cross support/maxima   0.000000000000E+00   0.000000000000E+00   0.000000000000E+00   0.000000000000E+00
 SKALA_GPW| Active atom-composite XC energy  -4.2411581937738116E+00
 SKALA_GPW| Active atom-composite electrons   7.9999972421068284E+00
 SKALA_GPW| Active atom-composite density range  -1.3944223346046624E-18   6.1141688035302466E-01
 SKALA_GPW| Active atom-composite tau range  -1.5224536118620841E-17   1.6316660261772835E+01
 SKALA_GPW| Active atom-composite tau integral   1.3576218858397844E+01
 SKALA_GPW| Active atom-composite max gradient   2.3375418971159818E+00
     7 OT DIIS     0.50E-01    8.1     0.00000002       -17.2171132393 -2.01E-09
 SKALA_GPW| Atom-composite cross support/maxima   0.000000000000E+00   0.000000000000E+00   0.000000000000E+00   0.000000000000E+00
 SKALA_GPW| Active atom-composite XC energy  -4.2411581925987640E+00
 SKALA_GPW| Active atom-composite electrons   7.9999972421065522E+00
 SKALA_GPW| Active atom-composite density range  -3.5239132930216768E-18   6.1141690984121511E-01
 SKALA_GPW| Active atom-composite tau range  -2.0035192667950734E-17   1.6316660430191529E+01
 SKALA_GPW| Active atom-composite tau integral   1.3576218894576451E+01
 SKALA_GPW| Active atom-composite max gradient   2.3375419266165562E+00
     8 OT DIIS     0.50E-01    7.9     3.9992E-09       -17.2171132379  1.41E-09
 SKALA_GPW| Atom-composite cross support/maxima   0.000000000000E+00   0.000000000000E+00   0.000000000000E+00   0.000000000000E+00
 SKALA_GPW| Active atom-composite XC energy  -4.2411581887153211E+00
 SKALA_GPW| Active atom-composite electrons   7.9999972421066330E+00
 SKALA_GPW| Active atom-composite density range  -2.2775587516143752E-18   6.1141691037961043E-01
 SKALA_GPW| Active atom-composite tau range  -1.5742346275593958E-17   1.6316660410589549E+01
 SKALA_GPW| Active atom-composite tau integral   1.3576218879840297E+01
 SKALA_GPW| Active atom-composite max gradient   2.3375419241511186E+00
     9 OT DIIS     0.50E-01    8.2     2.4432E-09       -17.2171132372  7.02E-10
 SKALA_GPW| Atom-composite cross support/maxima   0.000000000000E+00   0.000000000000E+00   0.000000000000E+00   0.000000000000E+00
 SKALA_GPW| Active atom-composite XC energy  -4.2411581900354625E+00
 SKALA_GPW| Active atom-composite electrons   7.9999972421065584E+00
 SKALA_GPW| Active atom-composite density range  -3.1067305741466384E-18   6.1141691362852491E-01
 SKALA_GPW| Active atom-composite tau range  -9.9592614876588013E-18   1.6316660433710936E+01
 SKALA_GPW| Active atom-composite tau integral   1.3576218887698309E+01
 SKALA_GPW| Active atom-composite max gradient   2.3375419270640241E+00
    10 OT DIIS     0.50E-01    8.1     1.1592E-09       -17.2171132378 -6.23E-10
 SKALA_GPW| Atom-composite cross support/maxima   0.000000000000E+00   0.000000000000E+00   0.000000000000E+00   0.000000000000E+00
 SKALA_GPW| Active atom-composite XC energy  -4.2411581915271270E+00
 SKALA_GPW| Active atom-composite electrons   7.9999972421065628E+00
 SKALA_GPW| Active atom-composite density range  -8.7480672712120502E-19   6.1141691469717374E-01
 SKALA_GPW| Active atom-composite tau range  -1.7990625159138053E-17   1.6316660447717439E+01
 SKALA_GPW| Active atom-composite tau integral   1.3576218895956039E+01
 SKALA_GPW| Active atom-composite max gradient   2.3375419286929842E+00
    11 OT DIIS     0.50E-01    7.9     7.8603E-10       -17.2171132378  6.49E-11

  *** SCF run converged in    11 steps ***


  Electronic density on regular grids:         -7.9999999992        0.0000000008
  Core density on regular grids:                8.0000000000       -0.0000000000
  Hard and soft densities (Lebedev):           -0.0000000000       -0.0000000000
  Total Rho_soft + Rho1_hard - Rho1_soft       -7.9999999992
  Total charge density (r-space):               0.0000000008
  Total Rho_soft + Rho0_soft (g-space):         0.0000000008

  Overlap energy of the core charge distribution:               0.00000004683488
  Self energy of the core charge distribution:                -44.35427365113802
  Core Hamiltonian energy:                                     12.86316561797644
  Hartree energy:                                              18.51515294008713
  Exchange-correlation energy:                                  0.00000000000000

  GAPW| Exc from hard and soft atomic rho1:                    -4.24115819152713
  GAPW| local Eh = 1 center integrals:                          0.00000000000000

  Total energy:                                               -17.21711323776670

  outer SCF iter =    1 RMS gradient =   0.79E-09 energy =        -17.2171132378
  outer SCF loop converged in   1 iterations or   11 steps


 !-----------------------------------------------------------------------------!
                     Mulliken Population Analysis

 #  Atom  Element  Kind  Atomic population                           Net charge
       1     O        1          6.317304                             -0.317304
       2     H        2          0.845845                              0.154155
       3     H        2          0.836851                              0.163149
 # Total charge                              8.000000                  0.000000

 !-----------------------------------------------------------------------------!

 !-----------------------------------------------------------------------------!
                           Hirshfeld Charges

  #Atom  Element  Kind  Ref Charge     Population                    Net charge
      1       O      1       6.000          7.105                        -1.105
      2       H      2       1.000          0.448                         0.552
      3       H      2       1.000          0.445                         0.555

  Total Charge                                                            0.002
 !-----------------------------------------------------------------------------!
 SKALA_GPW| Composite-direction one-center VXC contraction     0.0000000000E+00
 SKALA_GPW| Composite-direction one-center rho contraction     0.0000000000E+00
 SKALA_GPW| Composite-direction one-center tau contraction     0.0000000000E+00
 SKALA_GPW| Native atom force 1   0.000000000000E+00   0.000000000000E+00   0.000000000000E+00
 SKALA_GPW| Native atom force 2   0.000000000000E+00   0.000000000000E+00   0.000000000000E+00
 SKALA_GPW| Native atom force 3   0.000000000000E+00   0.000000000000E+00   0.000000000000E+00
 SKALA_GPW| Atom-composite cross support/maxima   0.000000000000E+00   0.000000000000E+00   0.000000000000E+00   0.000000000000E+00
 SKALA_GPW| Atom-composite model-atom force 1   7.892297967840E-03   1.157260974038E-02   1.836266921311E-02
 SKALA_GPW| Atom-composite grid-coordinate force 1  -7.892297967840E-03  -1.157260974038E-02  -1.836266921311E-02
 SKALA_GPW| Atom-composite moving-smooth force 1  -4.221711716618E-01  -5.559760256841E-01  -9.105747249095E-01
 SKALA_GPW| Atom-composite cross-region force 1   0.000000000000E+00   0.000000000000E+00   0.000000000000E+00
 SKALA_GPW| Atom-composite NLCC-center force 1   0.000000000000E+00   0.000000000000E+00   0.000000000000E+00
 SKALA_GPW| Atom-composite NLCC-target force 1   0.000000000000E+00   0.000000000000E+00   0.000000000000E+00
 SKALA_GPW| Atom-composite partition force 1   4.302115339413E-01   5.675796287551E-01   9.292696966211E-01
 SKALA_GPW| Atom-composite explicit force 1   8.040362279490E-03   1.160360307105E-02   1.869497171167E-02
 SKALA_GPW| Atom-composite model-atom force 2   5.289921236098E-04   2.852865404677E-04   6.635586863170E-04
 SKALA_GPW| Atom-composite grid-coordinate force 2  -5.289921236098E-04  -2.852865404677E-04  -6.635586863170E-04
 SKALA_GPW| Atom-composite moving-smooth force 2   7.460910278023E-01  -9.661432825658E-02   4.776796636908E-01
 SKALA_GPW| Atom-composite cross-region force 2   0.000000000000E+00   0.000000000000E+00   0.000000000000E+00
 SKALA_GPW| Atom-composite NLCC-center force 2   0.000000000000E+00   0.000000000000E+00   0.000000000000E+00
 SKALA_GPW| Atom-composite NLCC-target force 2   0.000000000000E+00   0.000000000000E+00   0.000000000000E+00
 SKALA_GPW| Atom-composite partition force 2  -7.458207863852E-01   9.686682468233E-02  -4.771343717699E-01
 SKALA_GPW| Atom-composite explicit force 2   2.702414170770E-04   2.524964257560E-04   5.452919208998E-04
 SKALA_GPW| Atom-composite model-atom force 3   1.101125801522E-04   5.438574696301E-04   7.054734040756E-04
 SKALA_GPW| Atom-composite grid-coordinate force 3  -1.101125801522E-04  -5.438574696301E-04  -7.054734040756E-04
 SKALA_GPW| Atom-composite moving-smooth force 3  -3.155945185754E-01   6.647619451702E-01   4.525809875131E-01
 SKALA_GPW| Atom-composite cross-region force 3   0.000000000000E+00   0.000000000000E+00   0.000000000000E+00
 SKALA_GPW| Atom-composite NLCC-center force 3   0.000000000000E+00   0.000000000000E+00   0.000000000000E+00
 SKALA_GPW| Atom-composite NLCC-target force 3   0.000000000000E+00   0.000000000000E+00   0.000000000000E+00
 SKALA_GPW| Atom-composite partition force 3   3.156092524439E-01  -6.644464534374E-01  -4.521353248513E-01
 SKALA_GPW| Atom-composite explicit force 3   1.473386846451E-05   3.154917327962E-04   4.456626618465E-04
 SKALA_GPW| Atom-composite explicit virial
 SKALA_GPW|     1.2146555203E+00   -4.4134697031E-01    4.7965934566E-01
 SKALA_GPW|    -4.4051689214E-01    9.2916164175E-01    6.3281630649E-01
 SKALA_GPW|     4.8043621348E-01    6.3226482394E-01    1.0360793979E+00
 SKALA_GPW| Atom-composite cross-image virial
 SKALA_GPW|     0.0000000000E+00    0.0000000000E+00    0.0000000000E+00
 SKALA_GPW|     0.0000000000E+00    0.0000000000E+00    0.0000000000E+00
 SKALA_GPW|     0.0000000000E+00    0.0000000000E+00    0.0000000000E+00
 SKALA_GPW| Atom-composite feature virial
 SKALA_GPW|     1.3615908762E-01    1.9142320700E-02   -1.3308345877E-02
 SKALA_GPW|     1.9142320700E-02    1.4776008286E-01   -1.7440713901E-02
 SKALA_GPW|    -1.3308345877E-02   -1.7440713901E-02    1.5017186559E-01
 SKALA_GPW| Atom-composite interpolation virial
 SKALA_GPW|     3.0375653437E+00    4.4833961726E-01   -4.8308393317E-01
 SKALA_GPW|     4.4732763262E-01    3.3265884546E+00   -6.3802934127E-01
 SKALA_GPW|    -4.8424040394E-01   -6.3747568880E-01    3.2215569616E+00
 SKALA_GPW| Active atom-composite XC energy  -4.2411581921735477E+00
 SKALA_GPW| Active atom-composite electrons   7.9999972421064856E+00
 SKALA_GPW| Active atom-composite density range  -3.0036018503289961E-18   6.1141691585239732E-01
 SKALA_GPW| Active atom-composite tau range  -1.5253458927417259E-17   1.6316660465040631E+01
 SKALA_GPW| Active atom-composite tau integral   1.3576218903383882E+01
 SKALA_GPW| Active atom-composite max gradient   2.3375419307310641E+00

 ENERGY| Total FORCE_EVAL ( QS ) energy [hartree]            -17.217113237766696

 FORCES| Atomic forces [hartree/bohr]
 FORCES|   Atom     x               y               z               |f|
 FORCES|      1  6.14806315E-03  2.47718831E-02  3.08512738E-02   4.00405541E-02
 FORCES|      2  3.20797356E-02 -3.41376981E-02 -1.10084605E-02   4.81214928E-02
 FORCES|      3 -3.80227297E-02  9.66110351E-03 -1.94953067E-02   4.38078975E-02
 FORCES| Sum     2.05068958E-04  2.95288534E-04  3.47506563E-04
 FORCES| Total atomic force                                       5.00009407E-04

 STRESS| Analytical stress tensor [bar]
 STRESS|                        x                   y                   z
 STRESS|      x        5.38550616272E+03  -4.53363038554E+03  -5.62792416564E+02
 STRESS|      y       -4.53363038554E+03   1.10798958348E+03  -2.30058074328E+03
 STRESS|      z       -5.62792416564E+02  -2.30058074328E+03  -2.98248939237E+03
 STRESS| 1/3 Trace                                             1.17033545128E+03
 STRESS| Determinant                                           2.91025071643E+09

 STRESS| Eigenvectors and eigenvalues of the analytical stress tensor [bar]
 STRESS|                        1                   2                   3
 STRESS| Eigenvalues  -4.72748206845E+03  -7.40570622105E+01   8.31254548449E+03
 STRESS|      x           0.283881417745      0.472979174817      0.834087549870
 STRESS|      y           0.534414356496      0.644195762072     -0.547186545612
 STRESS|      z           0.796123505638     -0.601084453565      0.069891655104

 -------------------------------------------------------------------------------
 -                                                                             -
 -                                DBCSR STATISTICS                             -
 -                                                                             -
 -------------------------------------------------------------------------------
 COUNTER                                    TOTAL       BLAS       SMM       ACC
 flops     4 x     4 x     4                 1408     100.0%      0.0%      0.0%     
 flops    29 x    14 x     4                42224     100.0%      0.0%      0.0%     
 flops    14 x    29 x     4                42224     100.0%      0.0%      0.0%     
 flops    14 x     4 x     4                50176     100.0%      0.0%      0.0%     
 flops    29 x     4 x     4                51968     100.0%      0.0%      0.0%     
 flops    14 x    14 x     4                61152     100.0%      0.0%      0.0%     
 flops     4 x     4 x    57                82080     100.0%      0.0%      0.0%     
 flops    29 x    29 x     4                87464     100.0%      0.0%      0.0%     
 flops    14 x     4 x    14               188160     100.0%      0.0%      0.0%     
 flops    29 x     4 x    14               194880     100.0%      0.0%      0.0%     
 flops    14 x     4 x    29               194880     100.0%      0.0%      0.0%     
 flops    29 x     4 x    29               201840     100.0%      0.0%      0.0%     
 flops    14 x     4 x    57               306432     100.0%      0.0%      0.0%     
 flops    29 x     4 x    57               317376     100.0%      0.0%      0.0%     
 flops inhomo. stacks                           0       0.0%      0.0%      0.0%
 flops total                         1.822264E+06     100.0%      0.0%      0.0%
 flops max/rank                      1.822264E+06     100.0%      0.0%      0.0%
 matmuls inhomo. stacks                         0       0.0%      0.0%      0.0%
 matmuls total                                644     100.0%      0.0%      0.0%
 number of processed stacks                   541     100.0%      0.0%      0.0%
 average stack size                                     1.2       0.0       0.0
 marketing flops                     1.928920E+06
 -------------------------------------------------------------------------------
 # multiplications                            180
 max memory usage/rank               8.209945E+09
 # max total images/rank                        1
 # max 3D layers                                1
 # MPI messages exchanged                       0
 -------------------------------------------------------------------------------
 -                                                                             -
 -                      DBCSR MESSAGE PASSING PERFORMANCE                      -
 -                                                                             -
 -------------------------------------------------------------------------------
 ROUTINE             CALLS      AVE VOLUME [Bytes]
 MP_Bcast               15                     12.
 MP_Allreduce          886                      9.
 MP_Alltoall           785                    967.
 MP_ISend              716                     69.
 MP_IRecv              716                     69.
 -------------------------------------------------------------------------------

 -------------------------------------------------------------------------------
 -                                                                             -
 -                                GRID STATISTICS                              -
 -                                                                             -
 -------------------------------------------------------------------------------
 LP    KERNEL             BACKEND                              COUNT     PERCENT
 6     collocate ortho    CPU                                   3180      17.42%
 6     integrate ortho    CPU                                   2915      15.97%
 4     collocate ortho    CPU                                   2664      14.60%
 4     integrate ortho    CPU                                   2442      13.38%
 7     integrate ortho    CPU                                   1487       8.15%
 5     collocate ortho    CPU                                   1380       7.56%
 7     collocate ortho    CPU                                   1380       7.56%
 5     integrate ortho    CPU                                   1265       6.93%
 8     integrate ortho    CPU                                    588       3.22%
 8     collocate ortho    CPU                                    516       2.83%
 9     integrate ortho    CPU                                    265       1.45%
 10    integrate ortho    CPU                                    115       0.63%
 11    integrate ortho    CPU                                     43       0.24%
 0     collocate general  CPU                                      6       0.03%
 0     integrate general  CPU                                      3       0.02%
 3     integrate general  CPU                                      3       0.02%
 -------------------------------------------------------------------------------

 -------------------------------------------------------------------------------
 -                                                                             -
 -                          OFFLOAD MEMPOOL STATISTICS                         -
 -                                                                             -
 -------------------------------------------------------------------------------
 Memory consumption                Number of allocations  Used [MiB]  Size [MiB]
 Host                                                  8          17    89737484
 -------------------------------------------------------------------------------

 MEMORY| Estimated peak process memory [MiB]                                1359

 -------------------------------------------------------------------------------
 ----                             MULTIGRID INFO                            ----
 -------------------------------------------------------------------------------
 count for grid        1:          18627          cutoff [a.u.]          200.00
 count for grid        2:           5775          cutoff [a.u.]           66.67
 count for grid        3:           4376          cutoff [a.u.]           22.22
 count for grid        4:            105          cutoff [a.u.]            7.41
 count for grid        5:              0          cutoff [a.u.]            2.47
 total gridlevel count  :          28883

 -------------------------------------------------------------------------------
 -                                                                             -
 -                         MESSAGE PASSING PERFORMANCE                         -
 -                                                                             -
 -------------------------------------------------------------------------------

 ROUTINE             CALLS      AVE VOLUME [Bytes]
 MP_Group                5
 MP_Bcast               66                   1596.
 MP_Allreduce          817                1175043.
 MP_Sync                 9
 MP_comm_split           4
 -------------------------------------------------------------------------------


 -------------------------------------------------------------------------------
 -                                                                             -
 -                           R E F E R E N C E S                               -
 -                                                                             -
 -------------------------------------------------------------------------------
 
 CP2K version 2026.2 (Development Version), the CP2K developers group (2026).
 CP2K is freely available from https://www.cp2k.org/ .
 
 M. Iannuzzi, J. Wilhelm, F. Stein, A. Bussy, H. Elgabarty, D. Golze, A. Hehn, 
 M. Graml, S. Marek, B. Sertcan Gökmen, C. Schran, H. Forbert, R. Z. 
 Khaliullin, A. Kozhevnikov, M. Taillefumier, R. Meli, V. V. Rybkin, M. Brehm, 
 R. Schade, O. Schütt, J. V. Pototschnig, H. Mirhosseini, A. Knüpfer, D. Marx, 
 M. Krack, J. Hutter, T. D. Kühne.
 J. Phys. Chem. B 130, 1237-1310 (2026).
 The CP2K Program Package Made Simple.
 https://doi.org/10.1021/acs.jpcb.5c05851

 T. D. Kühne, M. Iannuzzi, M. Del Ben, V. V. Rybkin, P. Seewald, F. Stein, T. 
 Laino, R. Z. Khaliullin, O. Schütt, F. Schiffmann, D. Golze, J. Wilhelm, S. 
 Chulkov, M. H. Bani-Hashemian, V. Weber, U. Borstnik, M. Taillefumier, A. S. 
 Jakobovits, A. Lazzaro, H. Pabst, T. Müller, R. Schade, M. Guidon, S. 
 Andermatt, N. Holmberg, G. K. Schenter, A. Hehn, A. Bussy, F. Belleflamme, G. 
 Tabacchi, A. Glöß, M. Lass, I. Bethune, C. J. Mundy, C. Plessl, M. Watkins, 
 J. VandeVondele, M. Krack, J. Hutter.
 J. Chem. Phys. 152, 194103 (2020).
 CP2K: An electronic structure and molecular dynamics software package - 
 Quickstep: Efficient and accurate electronic structure calculations.
 https://doi.org/10.1063/5.0007045

 O. Schuett, P. Messmer, J. Hutter, J. VandeVondele.
 Electronic Structure Calculations on Graphics Processing Units, 173-190 (2016).
 GPU-Accelerated Sparse Matrix-Matrix Multiplication for Linear Scaling Density 
 Functional Theory.
 https://doi.org/10.1002/9781118670712.ch8

 U. Borstnik, J. VandeVondele, V. Weber, J. Hutter.
 Parallel Comput. 40, 47-58 (2014).
 Sparse matrix multiplication: The distributed block-compressed sparse row 
 library.
 https://doi.org/10.1016/j.parco.2014.03.012

 J. VandeVondele, J. Hutter.
 J. Chem. Phys. 127, 114105 (2007).
 Gaussian basis sets for accurate calculations on molecular systems in gas and 
 condensed phases.
 https://doi.org/10.1063/1.2770708

 M. Krack.
 Theor. Chem. Acc. 114, 145-152 (2005).
 Pseudopotentials for H to Kr optimized for gradient-corrected 
 exchange-correlation functionals.
 https://doi.org/10.1007/s00214-005-0655-y

 M. Frigo, S. G. Johnson.
 Proc. IEEE 93, 216-231 (2005).
 The design and implementation of FFTW3.
 https://doi.org/10.1109/JPROC.2004.840301

 J. VandeVondele, J. Hutter.
 J. Chem. Phys. 118, 4365-4369 (2003).
 An efficient orbital transformation method for electronic structure 
 calculations.
 https://doi.org/10.1063/1.1543154

 M. Krack, M. Parrinello.
 Phys. Chem. Chem. Phys. 2, 2105-2112 (2000).
 All-electron ab-initio molecular dynamics.
 https://doi.org/10.1039/b001167n

 G. Lippert, J. Hutter, M. Parrinello.
 Theor. Chem. Acc. 103, 124-140 (1999).
 The Gaussian and augmented-plane-wave density functional method for ab initio 
 molecular dynamics simulations.
 https://doi.org/10.1007/s002140050523

 C. Hartwigsen, S. Goedecker, J. Hutter.
 Phys. Rev. B 58, 3641-3662 (1998).
 Relativistic separable dual-space Gaussian pseudopotentials from H to Rn.
 https://doi.org/10.1103/PhysRevB.58.3641

 S. Goedecker, M. Teter, J. Hutter.
 Phys. Rev. B 54, 1703-1710 (1996).
 Separable dual-space Gaussian pseudopotentials.
 https://doi.org/10.1103/PhysRevB.54.1703


 -------------------------------------------------------------------------------
 -                                                                             -
 -                                T I M I N G                                  -
 -                                                                             -
 -------------------------------------------------------------------------------
 SUBROUTINE                       CALLS  ASD         SELF TIME        TOTAL TIME
                                MAXIMUM       AVERAGE  MAXIMUM  AVERAGE  MAXIMUM
 CP2K                                 1  1.0    0.006    0.006  104.384  104.384
 qs_forces                            1  2.0    0.000    0.000  104.129  104.129
 rebuild_ks_matrix                   12  6.8    0.000    0.000  102.843  102.843
 qs_ks_build_kohn_sham_matrix        12  7.8    0.003    0.003  102.843  102.843
 calculate_vxc_atom                  12  8.8   41.032   41.032  101.543  101.543
 qs_energies                          1  3.0    0.000    0.000   88.887   88.887
 scf_env_do_scf                       1  4.0    0.000    0.000   88.730   88.730
 qs_ks_update_qs_env                 12  6.0    0.000    0.000   87.612   87.612
 scf_env_do_scf_inner_loop           11  5.0    0.001    0.001   79.406   79.406
 skala_atom_torch_backward           12  9.8   34.355   34.355   34.355   34.355
 skala_atom_torch_forward            12  9.8    0.002    0.002   24.867   24.867
 torch_model_forward_mol_tensor      12 10.8   24.866   24.866   24.866   24.866
 qs_ks_update_qs_env_forces           1  3.0    0.000    0.000   15.232   15.232
 init_scf_loop                        1  5.0    0.000    0.000    9.324    9.324
 -------------------------------------------------------------------------------

 The number of warnings for this run is : 0
 
 -------------------------------------------------------------------------------
  **** **** ******  **  PROGRAM ENDED AT                 2026-09-09 12:01:17.975
 ***** ** ***  *** **   PROGRAM RAN ON                                     terok
 **    ****   ******    PROGRAM RAN BY                                  kuehne88
 ***** **    ** ** **   PROGRAM PROCESS ID                               4071232
  **** **  *******  **  PROGRAM STOPPED IN /home/kuehne88/work/native-skala-tero
                                           k/pccp-validation-20260909/derivative
                                           -checks/gapw-gth-direct/force-plus-0.
                                           0005
