 DBCSR| CPU Multiplication driver                                           BLAS (U)
 DBCSR| Multrec recursion limit                                              512 (U)
 DBCSR| Multiplication stack size                                           1000 (D)
 DBCSR| Maximum elements for images                                    UNLIMITED (U)
 DBCSR| Multiplicative factor virtual images                                   1 (U)
 DBCSR| Use multiplication densification                                       T (D)
 DBCSR| Multiplication size stacks                                             3 (U)
 DBCSR| Use memory pool for CPU allocation                                     F (U)
 DBCSR| OMP: Current number of threads                                         8
 DBCSR| OMP: Max number of threads                                             8
 DBCSR| Split modifier for TAS multiplication algorithm                  1.0E+00 (U)


  **** **** ******  **  PROGRAM STARTED AT               2026-09-01 04:14:52.216
 ***** ** ***  *** **   PROGRAM STARTED ON                                cge008
 **    ****   ******    PROGRAM STARTED BY                              kuehne88
 ***** **    ** ** **   PROGRAM PROCESS ID                               1835011
  **** **  *******  **  PROGRAM STARTED IN /data/home2/kuehne88/cp2k-native-skal
                                           a/goldzak12/runs/production/gapw-ae/M
                                           gS/v10

 CP2K| version string:                 CP2K version 2026.2 (Development Version)
 CP2K| source code revision number:                                   c1bff3eeb8
 CP2K| cp2kflags: omp fftw3 spglib openblas libtorch libtorch_cuda              
 CP2K| is freely available from                            https://www.cp2k.org/
 CP2K| Program compiled at                                   2026-08-23 23:01:13
 CP2K| Program compiled on                                                cge022
 CP2K| Program compiled for                                               x86_64
 CP2K| Data directory path            /home/kuehne88/cp2k-native-skala/cp2k/data
 CP2K| Input file name                                          actual-input.inp

 GLOBAL| Force Environment number                                              1
 GLOBAL| Basis set file name                             BASIS_MOLOPT_UZH_2026.2
 GLOBAL| Potential file name                                POTENTIAL_UZH_2026.2
 GLOBAL| MM Potential file name                                     MM_POTENTIAL
 GLOBAL| Coordinate file name                                      __STD_INPUT__
 GLOBAL| Method name                                                        CP2K
 GLOBAL| Project name                         G12_MgS_gapw-ae_v1p1000000000_k444
 GLOBAL| Run type                                                         ENERGY
 GLOBAL| FFT library                                                       FFTW3
 GLOBAL| Diagonalization library                                       ScaLAPACK
 GLOBAL| Cholesky decomposition library                                ScaLAPACK
 GLOBAL| DGEMM library                                                      BLAS
 GLOBAL| Direct generalized diagonalization requested                          F
 GLOBAL| Orthonormality check for eigenvectors                          DISABLED
 GLOBAL| Matrix multiplication library                                 ScaLAPACK
 GLOBAL| All-to-all communication in single precision                          F
 GLOBAL| FFTs using library dependent lengths                                  F
 GLOBAL| Grid backend                                                       AUTO
 GLOBAL| Global print level                                               MEDIUM
 GLOBAL| MPI I/O enabled                                                       T
 GLOBAL| Total number of message passing processes                             1
 GLOBAL| Number of distributed systems (nodes)                                 1
 GLOBAL| Number of threads for this process                                    8
 GLOBAL| This output is from process                                           0
 GLOBAL| OpenMP stack size per thread (OMP_STACKSIZE)                       256M
 GLOBAL| CPU model name                          AMD EPYC 9654 96-Core Processor

 MEMORY| system memory details [Kb]
 MEMORY|                        rank 0           min           max       average
 MEMORY| MemTotal           1584927752    1584927752    1584927752    1584927752
 MEMORY| MemFree            1460456048    1460456048    1460456048    1460456048
 MEMORY| Buffers                     0             0             0             0
 MEMORY| Cached               15363844      15363844      15363844      15363844
 MEMORY| Slab                  2973844       2973844       2973844       2973844
 MEMORY| SReclaimable           624704        624704        624704        624704
 MEMORY| MemLikelyFree      1476444596    1476444596    1476444596    1476444596


 *** Fundamental physical constants (SI units) ***

 *** Literature: B. J. Mohr and B. N. Taylor,
 ***             CODATA recommended values of the fundamental physical
 ***             constants: 2006, Web Version 5.1
 ***             http://physics.nist.gov/constants

 Speed of light in vacuum [m/s]                             2.99792458000000E+08
 Magnetic constant or permeability of vacuum [N/A**2]       1.25663706143592E-06
 Electric constant or permittivity of vacuum [F/m]          8.85418781762039E-12
 Planck constant (h) [J*s]                                  6.62606896000000E-34
 Planck constant (h-bar) [J*s]                              1.05457162825177E-34
 Elementary charge [C]                                      1.60217648700000E-19
 Electron mass [kg]                                         9.10938215000000E-31
 Electron g factor [ ]                                     -2.00231930436220E+00
 Proton mass [kg]                                           1.67262163700000E-27
 Fine-structure constant                                    7.29735253760000E-03
 Rydberg constant [1/m]                                     1.09737315685270E+07
 Avogadro constant [1/mol]                                  6.02214179000000E+23
 Boltzmann constant [J/K]                                   1.38065040000000E-23
 Atomic mass unit [kg]                                      1.66053878200000E-27
 Bohr radius [m]                                            5.29177208590000E-11

 *** Conversion factors ***

 [u] -> [a.u.]                                              1.82288848426455E+03
 [Angstrom] -> [Bohr] = [a.u.]                              1.88972613288564E+00
 [a.u.] = [Bohr] -> [Angstrom]                              5.29177208590000E-01
 [a.u.] -> [s]                                              2.41888432650478E-17
 [a.u.] -> [fs]                                             2.41888432650478E-02
 [a.u.] -> [J]                                              4.35974393937059E-18
 [a.u.] -> [N]                                              8.23872205491840E-08
 [a.u.] -> [K]                                              3.15774647902944E+05
 [a.u.] -> [kJ/mol]                                         2.62549961709828E+03
 [a.u.] -> [kcal/mol]                                       6.27509468713739E+02
 [a.u.] -> [Pa]                                             2.94210107994716E+13
 [a.u.] -> [bar]                                            2.94210107994716E+08
 [a.u.] -> [atm]                                            2.90362800883016E+08
 [a.u.] -> [eV]                                             2.72113838565563E+01
 [a.u.] -> [Hz]                                             6.57968392072181E+15
 [a.u.] -> [1/cm] (wave numbers)                            2.19474631370540E+05
 [a.u./Bohr**2] -> [1/cm]                                   5.14048714338585E+03
 

 CELL| Volume [angstrom^3]:                                           153.600485
 CELL| Vector a [angstrom]:       5.355     0.000     0.000   |a| =     5.355469
 CELL| Vector b [angstrom]:       0.000     5.355     0.000   |b| =     5.355469
 CELL| Vector c [angstrom]:       0.000     0.000     5.355   |c| =     5.355469
 CELL| Angle (b,c), alpha [degree]:                                    90.000000
 CELL| Angle (a,c), beta  [degree]:                                    90.000000
 CELL| Angle (a,b), gamma [degree]:                                    90.000000
 CELL| Numerically orthorhombic:                                             YES
 CELL| Periodicity                                                           XYZ

 CELL_REF| Volume [angstrom^3]:                                       153.600485
 CELL_REF| Vector a [angstrom     5.355     0.000     0.000   |a| =     5.355469
 CELL_REF| Vector b [angstrom     0.000     5.355     0.000   |b| =     5.355469
 CELL_REF| Vector c [angstrom     0.000     0.000     5.355   |c| =     5.355469
 CELL_REF| Angle (b,c), alpha [degree]:                                90.000000
 CELL_REF| Angle (a,c), beta  [degree]:                                90.000000
 CELL_REF| Angle (a,b), gamma [degree]:                                90.000000
 CELL_REF| Numerically orthorhombic:                                         YES
 CELL_REF| Periodicity                                                       XYZ

 GENERATE|  Preliminary Number of Bonds generated:                             0
 GENERATE|  Achieved consistency in connectivity generation.

 *******************************************************************************
 *******************************************************************************
 **                                                                           **
 **     #####                         ##              ##                      **
 **    ##   ##            ##          ##              ##                      **
 **   ##     ##                       ##            ######                    **
 **   ##     ##  ##   ##  ##   #####  ##  ##   ####   ##    #####    #####    **
 **   ##     ##  ##   ##  ##  ##      ## ##   ##      ##   ##   ##  ##   ##   **
 **   ##  ## ##  ##   ##  ##  ##      ####     ###    ##   ######   ######    **
 **    ##  ###   ##   ##  ##  ##      ## ##      ##   ##   ##       ##        **
 **     #######   #####   ##   #####  ##  ##  ####    ##    #####   ##        **
 **           ##                                                    ##        **
 **                                                                           **
 **                                                ... make the atoms dance   **
 **                                                                           **
 **            Copyright (C) by CP2K developers group (2000-2026)             **
 **                      J. Chem. Phys. 152, 194103 (2020)                    **
 **                                                                           **
 *******************************************************************************

 DFT| Spin restricted Kohn-Sham (RKS) calculation                            RKS
 DFT| Multiplicity                                                             1
 DFT| Number of spin states                                                    1
 DFT| Charge                                                                   0
 DFT| Self-interaction correction (SIC)                                       NO
 DFT| Cutoffs: density                                              1.000000E-10
 DFT|          gradient                                             1.000000E-10
 DFT|          tau                                                  1.000000E-10
 DFT|          cutoff_smoothing_range                               0.000000E+00
 DFT| XC density smoothing                                                  NONE
 DFT| XC derivatives                                                          PW

 FUNCTIONAL| GAUXC:
 FUNCTIONAL| Functional computed by GauXC Skala model SKALA                     

 vdW POTENTIAL|                                                   Pair Potential
 vdW POTENTIAL|          DFT-D3 (Version 3.1)
 vdW POTENTIAL|          Potential Form: S. Grimme et al, JCP 132: 154104 (2010)
 vdW POTENTIAL|          BJ Damping: S. Grimme et al, JCC 32: 1456 (2011)
 vdW POTENTIAL|          Cutoff Radius [Bohr]:                             37.79
 vdW POTENTIAL|          s6 Scaling Factor:                               1.0000
 vdW POTENTIAL|          a1 Damping Factor:                               0.3981
 vdW POTENTIAL|          s8 Scaling Factor:                               1.9889
 vdW POTENTIAL|          a2 Damping Factor:                               4.4211
 vdW POTENTIAL|          Cutoff for CN calculation:                   0.1000E-05

 QS| Method:                                                                GAPW
 QS| Density plane wave grid type                        NON-SPHERICAL FULLSPACE
 QS| Number of grid levels:                                                    5
 QS| Density cutoff [a.u.]:                                                400.0
 QS| Multi grid cutoff [a.u.]: 1) grid level                               400.0
 QS|                           2) grid level                               133.3
 QS|                           3) grid level                                44.4
 QS|                           4) grid level                                14.8
 QS|                           5) grid level                                 4.9
 QS| Grid level progression factor:                                          3.0
 QS| Relative density cutoff [a.u.]:                                        30.0
 QS| Interaction thresholds: eps_pgf_orb:                                1.0E-07
 QS|                         eps_filter_matrix:                          0.0E+00
 QS|                         eps_core_charge:                            1.0E-16
 QS|                         eps_rho_gspace:                             1.0E-14
 QS|                         eps_rho_rspace:                             1.0E-14
 QS|                         eps_gvg_rspace:                             1.0E-07
 QS|                         eps_ppl:                                    1.0E-02
 QS|                         eps_ppnl:                                   1.0E-09
 QS| GAPW|      XC integration using accurate scheme: Ref. exponent     6.000000
 QS| GAPW|      One center basis extended with primitives (small:s)
 QS| GAPW|                   eps_fit:                                    1.0E-04
 QS| GAPW|                   eps_iso:                                    1.0E-12
 QS| GAPW|                   eps_svd:                                    1.0E-08
 QS| GAPW|                   eps_cpc:                                    1.0E-14
 QS| GAPW|   atom-r-grid: quadrature:                                     GC_LOG
 QS| GAPW|      atom-s-grid:  max l :                                          6
 QS| GAPW|      max_l_rho0 :                                                   4


 ATOMIC KIND INFORMATION

  1. Atomic kind: Mg                                    Number of atoms:       4

     Orbital Basis Set                                       TZVPP-MOLOPT-PBE-ae

       Number of orbital shell sets:                                           3
       Number of orbital shells:                                              12
       Number of primitive Cartesian functions:                               17
       Number of Cartesian basis functions:                                   35
       Number of spherical basis functions:                                   32
       Norm type:                                                              2

       Normalised Cartesian orbitals:

                        Set   Shell   Orbital            Exponent    Coefficient

                          1       1    1s            31438.408440       1.007726
                                                      4715.551058       1.792164
                                                      1073.121768       3.083264
                                                       303.646056       4.568154
                                                        98.439313       5.660231
                                                        34.863642       4.596987
                                                        12.946643       1.578342

                          2       1    1s              179.629327       0.140747
                                                        42.016549       5.677421
                                                        12.311363       4.652481
                                                         4.184588      -4.422794
                                                         1.316573       0.683759

                          2       2    2px             179.629327       5.945027
                                                        42.016549       7.420392
                                                        12.311363       7.025135
                                                         4.184588       3.718459
                                                         1.316573       1.006696
                          2       2    2py             179.629327       5.945027
                                                        42.016549       7.420392
                                                        12.311363       7.025135
                                                         4.184588       3.718459
                                                         1.316573       1.006696
                          2       2    2pz             179.629327       5.945027
                                                        42.016549       7.420392
                                                        12.311363       7.025135
                                                         4.184588       3.718459
                                                         1.316573       1.006696

                          3       1    1s                2.432121       0.267274
                                                         1.234435       0.460352
                                                         0.461937       0.048654
                                                         0.134753       0.028217
                                                         0.046225       0.010873

                          3       2    2s                2.432121      -0.121122
                                                         1.234435      -0.239679
                                                         0.461937      -0.062597
                                                         0.134753       0.094652
                                                         0.046225       0.040850

                          3       3    3s                2.432121      -0.102368
                                                         1.234435       0.089736
                                                         0.461937      -0.055097
                                                         0.134753      -0.241264
                                                         0.046225       0.112664

                          3       4    2px               2.432121       1.981193
                                                         1.234435      -0.697331
                                                         0.461937       0.572016
                                                         0.134753      -0.013629
                                                         0.046225      -0.016898
                          3       4    2py               2.432121       1.981193
                                                         1.234435      -0.697331
                                                         0.461937       0.572016
                                                         0.134753      -0.013629
                                                         0.046225      -0.016898
                          3       4    2pz               2.432121       1.981193
                                                         1.234435      -0.697331
                                                         0.461937       0.572016
                                                         0.134753      -0.013629
                                                         0.046225      -0.016898

                          3       5    3px               2.432121      -1.647652
                                                         1.234435      -0.923085
                                                         0.461937      -0.002823
                                                         0.134753       0.102326
                                                         0.046225      -0.005274
                          3       5    3py               2.432121      -1.647652
                                                         1.234435      -0.923085
                                                         0.461937      -0.002823
                                                         0.134753       0.102326
                                                         0.046225      -0.005274
                          3       5    3pz               2.432121      -1.647652
                                                         1.234435      -0.923085
                                                         0.461937      -0.002823
                                                         0.134753       0.102326
                                                         0.046225      -0.005274

                          3       6    4px               2.432121       1.081914
                                                         1.234435       0.307579
                                                         0.461937       0.120457
                                                         0.134753       0.034057
                                                         0.046225       0.013896
                          3       6    4py               2.432121       1.081914
                                                         1.234435       0.307579
                                                         0.461937       0.120457
                                                         0.134753       0.034057
                                                         0.046225       0.013896
                          3       6    4pz               2.432121       1.081914
                                                         1.234435       0.307579
                                                         0.461937       0.120457
                                                         0.134753       0.034057
                                                         0.046225       0.013896

                          3       7    3dx2              2.432121      10.645684
                                                         1.234435      -1.284877
                                                         0.461937      -0.193617
                                                         0.134753       0.021431
                                                         0.046225      -0.002172
                          3       7    3dxy              2.432121      18.438865
                                                         1.234435      -2.225472
                                                         0.461937      -0.335355
                                                         0.134753       0.037119
                                                         0.046225      -0.003762
                          3       7    3dxz              2.432121      18.438865
                                                         1.234435      -2.225472
                                                         0.461937      -0.335355
                                                         0.134753       0.037119
                                                         0.046225      -0.003762
                          3       7    3dy2              2.432121      10.645684
                                                         1.234435      -1.284877
                                                         0.461937      -0.193617
                                                         0.134753       0.021431
                                                         0.046225      -0.002172
                          3       7    3dyz              2.432121      18.438865
                                                         1.234435      -2.225472
                                                         0.461937      -0.335355
                                                         0.134753       0.037119
                                                         0.046225      -0.003762
                          3       7    3dz2              2.432121      10.645684
                                                         1.234435      -1.284877
                                                         0.461937      -0.193617
                                                         0.134753       0.021431
                                                         0.046225      -0.002172

                          3       8    4dx2              2.432121       0.315126
                                                         1.234435       0.008994
                                                         0.461937       0.209033
                                                         0.134753       0.025687
                                                         0.046225       0.001494
                          3       8    4dxy              2.432121       0.545814
                                                         1.234435       0.015577
                                                         0.461937       0.362055
                                                         0.134753       0.044492
                                                         0.046225       0.002587
                          3       8    4dxz              2.432121       0.545814
                                                         1.234435       0.015577
                                                         0.461937       0.362055
                                                         0.134753       0.044492
                                                         0.046225       0.002587
                          3       8    4dy2              2.432121       0.315126
                                                         1.234435       0.008994
                                                         0.461937       0.209033
                                                         0.134753       0.025687
                                                         0.046225       0.001494
                          3       8    4dyz              2.432121       0.545814
                                                         1.234435       0.015577
                                                         0.461937       0.362055
                                                         0.134753       0.044492
                                                         0.046225       0.002587
                          3       8    4dz2              2.432121       0.315126
                                                         1.234435       0.008994
                                                         0.461937       0.209033
                                                         0.134753       0.025687
                                                         0.046225       0.001494

                          3       9    5dx2              2.432121       0.540776
                                                         1.234435      -0.157298
                                                         0.461937      -0.156875
                                                         0.134753      -0.001602
                                                         0.046225       0.007513
                          3       9    5dxy              2.432121       0.936652
                                                         1.234435      -0.272449
                                                         0.461937      -0.271716
                                                         0.134753      -0.002774
                                                         0.046225       0.013012
                          3       9    5dxz              2.432121       0.936652
                                                         1.234435      -0.272449
                                                         0.461937      -0.271716
                                                         0.134753      -0.002774
                                                         0.046225       0.013012
                          3       9    5dy2              2.432121       0.540776
                                                         1.234435      -0.157298
                                                         0.461937      -0.156875
                                                         0.134753      -0.001602
                                                         0.046225       0.007513
                          3       9    5dyz              2.432121       0.936652
                                                         1.234435      -0.272449
                                                         0.461937      -0.271716
                                                         0.134753      -0.002774
                                                         0.046225       0.013012
                          3       9    5dz2              2.432121       0.540776
                                                         1.234435      -0.157298
                                                         0.461937      -0.156875
                                                         0.134753      -0.001602
                                                         0.046225       0.007513

       Atomic covalent radius [Angstrom]:                                  1.360

       Atomic van der Waals radius [Angstrom]:                             1.730

     The atoms of this atomic kind are PAW atoms (GAPW):
       Hard Gaussian function radius:                                      1.900
       Rho0 radius:                                                        1.900
       Maximum GTO radius used for PAW projector construction:            24.566

     GAPW Soft Basis Set                                TZVPP-MOLOPT-PBE-ae_soft

       Number of orbital shell sets:                                           3
       Number of orbital shells:                                              12
       Number of primitive Cartesian functions:                                6
       Number of Cartesian basis functions:                                   35
       Number of spherical basis functions:                                   32
       Norm type:                                                              2

       Normalised Cartesian orbitals:

                        Set   Shell   Orbital            Exponent    Coefficient

                          1       1    1s         

                          2       1    1s                1.316573       0.683759

                          2       2    2px               1.316573       1.006696
                          2       2    2py               1.316573       1.006696
                          2       2    2pz               1.316573       1.006696

                          3       1    1s                2.432121       0.267274
                                                         1.234435       0.460352
                                                         0.461937       0.048654
                                                         0.134753       0.028217
                                                         0.046225       0.010873

                          3       2    2s                2.432121      -0.121122
                                                         1.234435      -0.239679
                                                         0.461937      -0.062597
                                                         0.134753       0.094652
                                                         0.046225       0.040850

                          3       3    3s                2.432121      -0.102368
                                                         1.234435       0.089736
                                                         0.461937      -0.055097
                                                         0.134753      -0.241264
                                                         0.046225       0.112664

                          3       4    2px               2.432121       1.981193
                                                         1.234435      -0.697331
                                                         0.461937       0.572016
                                                         0.134753      -0.013629
                                                         0.046225      -0.016898
                          3       4    2py               2.432121       1.981193
                                                         1.234435      -0.697331
                                                         0.461937       0.572016
                                                         0.134753      -0.013629
                                                         0.046225      -0.016898
                          3       4    2pz               2.432121       1.981193
                                                         1.234435      -0.697331
                                                         0.461937       0.572016
                                                         0.134753      -0.013629
                                                         0.046225      -0.016898

                          3       5    3px               2.432121      -1.647652
                                                         1.234435      -0.923085
                                                         0.461937      -0.002823
                                                         0.134753       0.102326
                                                         0.046225      -0.005274
                          3       5    3py               2.432121      -1.647652
                                                         1.234435      -0.923085
                                                         0.461937      -0.002823
                                                         0.134753       0.102326
                                                         0.046225      -0.005274
                          3       5    3pz               2.432121      -1.647652
                                                         1.234435      -0.923085
                                                         0.461937      -0.002823
                                                         0.134753       0.102326
                                                         0.046225      -0.005274

                          3       6    4px               2.432121       1.081914
                                                         1.234435       0.307579
                                                         0.461937       0.120457
                                                         0.134753       0.034057
                                                         0.046225       0.013896
                          3       6    4py               2.432121       1.081914
                                                         1.234435       0.307579
                                                         0.461937       0.120457
                                                         0.134753       0.034057
                                                         0.046225       0.013896
                          3       6    4pz               2.432121       1.081914
                                                         1.234435       0.307579
                                                         0.461937       0.120457
                                                         0.134753       0.034057
                                                         0.046225       0.013896

                          3       7    3dx2              2.432121      10.645684
                                                         1.234435      -1.284877
                                                         0.461937      -0.193617
                                                         0.134753       0.021431
                                                         0.046225      -0.002172
                          3       7    3dxy              2.432121      18.438865
                                                         1.234435      -2.225472
                                                         0.461937      -0.335355
                                                         0.134753       0.037119
                                                         0.046225      -0.003762
                          3       7    3dxz              2.432121      18.438865
                                                         1.234435      -2.225472
                                                         0.461937      -0.335355
                                                         0.134753       0.037119
                                                         0.046225      -0.003762
                          3       7    3dy2              2.432121      10.645684
                                                         1.234435      -1.284877
                                                         0.461937      -0.193617
                                                         0.134753       0.021431
                                                         0.046225      -0.002172
                          3       7    3dyz              2.432121      18.438865
                                                         1.234435      -2.225472
                                                         0.461937      -0.335355
                                                         0.134753       0.037119
                                                         0.046225      -0.003762
                          3       7    3dz2              2.432121      10.645684
                                                         1.234435      -1.284877
                                                         0.461937      -0.193617
                                                         0.134753       0.021431
                                                         0.046225      -0.002172

                          3       8    4dx2              2.432121       0.315126
                                                         1.234435       0.008994
                                                         0.461937       0.209033
                                                         0.134753       0.025687
                                                         0.046225       0.001494
                          3       8    4dxy              2.432121       0.545814
                                                         1.234435       0.015577
                                                         0.461937       0.362055
                                                         0.134753       0.044492
                                                         0.046225       0.002587
                          3       8    4dxz              2.432121       0.545814
                                                         1.234435       0.015577
                                                         0.461937       0.362055
                                                         0.134753       0.044492
                                                         0.046225       0.002587
                          3       8    4dy2              2.432121       0.315126
                                                         1.234435       0.008994
                                                         0.461937       0.209033
                                                         0.134753       0.025687
                                                         0.046225       0.001494
                          3       8    4dyz              2.432121       0.545814
                                                         1.234435       0.015577
                                                         0.461937       0.362055
                                                         0.134753       0.044492
                                                         0.046225       0.002587
                          3       8    4dz2              2.432121       0.315126
                                                         1.234435       0.008994
                                                         0.461937       0.209033
                                                         0.134753       0.025687
                                                         0.046225       0.001494

                          3       9    5dx2              2.432121       0.540776
                                                         1.234435      -0.157298
                                                         0.461937      -0.156875
                                                         0.134753      -0.001602
                                                         0.046225       0.007513
                          3       9    5dxy              2.432121       0.936652
                                                         1.234435      -0.272449
                                                         0.461937      -0.271716
                                                         0.134753      -0.002774
                                                         0.046225       0.013012
                          3       9    5dxz              2.432121       0.936652
                                                         1.234435      -0.272449
                                                         0.461937      -0.271716
                                                         0.134753      -0.002774
                                                         0.046225       0.013012
                          3       9    5dy2              2.432121       0.540776
                                                         1.234435      -0.157298
                                                         0.461937      -0.156875
                                                         0.134753      -0.001602
                                                         0.046225       0.007513
                          3       9    5dyz              2.432121       0.936652
                                                         1.234435      -0.272449
                                                         0.461937      -0.271716
                                                         0.134753      -0.002774
                                                         0.046225       0.013012
                          3       9    5dz2              2.432121       0.540776
                                                         1.234435      -0.157298
                                                         0.461937      -0.156875
                                                         0.134753      -0.001602
                                                         0.046225       0.007513

     AE Potential information for                                            ALL

       Description:                                       All-electron potential
                                          Krack, Parrinello, PCCP 2, 2105 (2000)

       Gaussian exponent of the core charge distribution:              11.236029
       Electronic configuration (s p d ...):                           6   6   0

  2. Atomic kind: S                                     Number of atoms:       4

     Orbital Basis Set                                       TZVPP-MOLOPT-PBE-ae

       Number of orbital shell sets:                                           3
       Number of orbital shells:                                              14
       Number of primitive Cartesian functions:                               17
       Number of Cartesian basis functions:                                   48
       Number of spherical basis functions:                                   42
       Norm type:                                                              2

       Normalised Cartesian orbitals:

                        Set   Shell   Orbital            Exponent    Coefficient

                          1       1    1s            60700.943664       1.476128
                                                      9102.630460       2.715092
                                                      2071.464789       4.589094
                                                       585.934823       6.954969
                                                       190.479130       8.693815
                                                        67.668075       7.512637
                                                        24.765148       2.768602

                          2       1    1s              564.299947      -0.099555
                                                       133.435938       0.657203
                                                        42.458538       2.552463
                                                        15.602047       0.510094
                                                         6.412455      -3.378408

                          2       2    2px             564.299947      15.172905
                                                       133.435938      18.462241
                                                        42.458538      21.408666
                                                        15.602047      16.129425
                                                         6.412455       8.641889
                          2       2    2py             564.299947      15.172905
                                                       133.435938      18.462241
                                                        42.458538      21.408666
                                                        15.602047      16.129425
                                                         6.412455       8.641889
                          2       2    2pz             564.299947      15.172905
                                                       133.435938      18.462241
                                                        42.458538      21.408666
                                                        15.602047      16.129425
                                                         6.412455       8.641889

                          3       1    1s                6.979742      -0.364059
                                                         2.588982       1.264457
                                                         0.960895       0.130293
                                                         0.337374       0.012100
                                                         0.108835       0.013266

                          3       2    2s                6.979742      -0.088161
                                                         2.588982      -0.118998
                                                         0.960895       0.048241
                                                         0.337374       0.245140
                                                         0.108835       0.034021

                          3       3    3s                6.979742       0.112763
                                                         2.588982      -0.138109
                                                         0.960895      -0.101980
                                                         0.337374      -0.135069
                                                         0.108835       0.180243

                          3       4    2px               6.979742      -0.327261
                                                         2.588982       4.614810
                                                         0.960895       0.076300
                                                         0.337374      -0.012178
                                                         0.108835      -0.002937
                          3       4    2py               6.979742      -0.327261
                                                         2.588982       4.614810
                                                         0.960895       0.076300
                                                         0.337374      -0.012178
                                                         0.108835      -0.002937
                          3       4    2pz               6.979742      -0.327261
                                                         2.588982       4.614810
                                                         0.960895       0.076300
                                                         0.337374      -0.012178
                                                         0.108835      -0.002937

                          3       5    3px               6.979742       3.701676
                                                         2.588982      -0.221492
                                                         0.960895       1.273560
                                                         0.337374      -0.014106
                                                         0.108835       0.007683
                          3       5    3py               6.979742       3.701676
                                                         2.588982      -0.221492
                                                         0.960895       1.273560
                                                         0.337374      -0.014106
                                                         0.108835       0.007683
                          3       5    3pz               6.979742       3.701676
                                                         2.588982      -0.221492
                                                         0.960895       1.273560
                                                         0.337374      -0.014106
                                                         0.108835       0.007683

                          3       6    4px               6.979742      -1.513929
                                                         2.588982       0.123593
                                                         0.960895       0.087271
                                                         0.337374       0.351508
                                                         0.108835      -0.000876
                          3       6    4py               6.979742      -1.513929
                                                         2.588982       0.123593
                                                         0.960895       0.087271
                                                         0.337374       0.351508
                                                         0.108835      -0.000876
                          3       6    4pz               6.979742      -1.513929
                                                         2.588982       0.123593
                                                         0.960895       0.087271
                                                         0.337374       0.351508
                                                         0.108835      -0.000876

                          3       7    5px               6.979742      -0.048847
                                                         2.588982       0.184056
                                                         0.960895      -0.121225
                                                         0.337374       0.005487
                                                         0.108835       0.089997
                          3       7    5py               6.979742      -0.048847
                                                         2.588982       0.184056
                                                         0.960895      -0.121225
                                                         0.337374       0.005487
                                                         0.108835       0.089997
                          3       7    5pz               6.979742      -0.048847
                                                         2.588982       0.184056
                                                         0.960895      -0.121225
                                                         0.337374       0.005487
                                                         0.108835       0.089997

                          3       8    3dx2              6.979742       4.377448
                                                         2.588982       7.758864
                                                         0.960895       0.110041
                                                         0.337374       0.000155
                                                         0.108835      -0.002664
                          3       8    3dxy              6.979742       7.581963
                                                         2.588982      13.438746
                                                         0.960895       0.190596
                                                         0.337374       0.000269
                                                         0.108835      -0.004614
                          3       8    3dxz              6.979742       7.581963
                                                         2.588982      13.438746
                                                         0.960895       0.190596
                                                         0.337374       0.000269
                                                         0.108835      -0.004614
                          3       8    3dy2              6.979742       4.377448
                                                         2.588982       7.758864
                                                         0.960895       0.110041
                                                         0.337374       0.000155
                                                         0.108835      -0.002664
                          3       8    3dyz              6.979742       7.581963
                                                         2.588982      13.438746
                                                         0.960895       0.190596
                                                         0.337374       0.000269
                                                         0.108835      -0.004614
                          3       8    3dz2              6.979742       4.377448
                                                         2.588982       7.758864
                                                         0.960895       0.110041
                                                         0.337374       0.000155
                                                         0.108835      -0.002664

                          3       9    4dx2              6.979742      -2.400041
                                                         2.588982      -0.539760
                                                         0.960895       1.596811
                                                         0.337374      -0.014764
                                                         0.108835       0.006428
                          3       9    4dxy              6.979742      -4.156993
                                                         2.588982      -0.934892
                                                         0.960895       2.765758
                                                         0.337374      -0.025572
                                                         0.108835       0.011134
                          3       9    4dxz              6.979742      -4.156993
                                                         2.588982      -0.934892
                                                         0.960895       2.765758
                                                         0.337374      -0.025572
                                                         0.108835       0.011134
                          3       9    4dy2              6.979742      -2.400041
                                                         2.588982      -0.539760
                                                         0.960895       1.596811
                                                         0.337374      -0.014764
                                                         0.108835       0.006428
                          3       9    4dyz              6.979742      -4.156993
                                                         2.588982      -0.934892
                                                         0.960895       2.765758
                                                         0.337374      -0.025572
                                                         0.108835       0.011134
                          3       9    4dz2              6.979742      -2.400041
                                                         2.588982      -0.539760
                                                         0.960895       1.596811
                                                         0.337374      -0.014764
                                                         0.108835       0.006428

                          3      10    5dx2              6.979742       3.807379
                                                         2.588982       0.032490
                                                         0.960895       0.038730
                                                         0.337374       0.214995
                                                         0.108835       0.005425
                          3      10    5dxy              6.979742       6.594574
                                                         2.588982       0.056275
                                                         0.960895       0.067083
                                                         0.337374       0.372382
                                                         0.108835       0.009397
                          3      10    5dxz              6.979742       6.594574
                                                         2.588982       0.056275
                                                         0.960895       0.067083
                                                         0.337374       0.372382
                                                         0.108835       0.009397
                          3      10    5dy2              6.979742       3.807379
                                                         2.588982       0.032490
                                                         0.960895       0.038730
                                                         0.337374       0.214995
                                                         0.108835       0.005425
                          3      10    5dyz              6.979742       6.594574
                                                         2.588982       0.056275
                                                         0.960895       0.067083
                                                         0.337374       0.372382
                                                         0.108835       0.009397
                          3      10    5dz2              6.979742       3.807379
                                                         2.588982       0.032490
                                                         0.960895       0.038730
                                                         0.337374       0.214995
                                                         0.108835       0.005425

                          3      11    4fx3              6.979742      -3.204551
                                                         2.588982       0.330480
                                                         0.960895       0.455377
                                                         0.337374       0.095218
                                                         0.108835       0.000429
                          3      11    4fx2y             6.979742      -7.165595
                                                         2.588982       0.738976
                                                         0.960895       1.018255
                                                         0.337374       0.212915
                                                         0.108835       0.000958
                          3      11    4fx2z             6.979742      -7.165595
                                                         2.588982       0.738976
                                                         0.960895       1.018255
                                                         0.337374       0.212915
                                                         0.108835       0.000958
                          3      11    4fxy2             6.979742      -7.165595
                                                         2.588982       0.738976
                                                         0.960895       1.018255
                                                         0.337374       0.212915
                                                         0.108835       0.000958
                          3      11    4fxyz             6.979742     -12.411174
                                                         2.588982       1.279944
                                                         0.960895       1.763669
                                                         0.337374       0.368779
                                                         0.108835       0.001660
                          3      11    4fxz2             6.979742      -7.165595
                                                         2.588982       0.738976
                                                         0.960895       1.018255
                                                         0.337374       0.212915
                                                         0.108835       0.000958
                          3      11    4fy3              6.979742      -3.204551
                                                         2.588982       0.330480
                                                         0.960895       0.455377
                                                         0.337374       0.095218
                                                         0.108835       0.000429
                          3      11    4fy2z             6.979742      -7.165595
                                                         2.588982       0.738976
                                                         0.960895       1.018255
                                                         0.337374       0.212915
                                                         0.108835       0.000958
                          3      11    4fyz2             6.979742      -7.165595
                                                         2.588982       0.738976
                                                         0.960895       1.018255
                                                         0.337374       0.212915
                                                         0.108835       0.000958
                          3      11    4fz3              6.979742      -3.204551
                                                         2.588982       0.330480
                                                         0.960895       0.455377
                                                         0.337374       0.095218
                                                         0.108835       0.000429

       Atomic covalent radius [Angstrom]:                                  1.020

       Atomic van der Waals radius [Angstrom]:                             1.800

     The atoms of this atomic kind are PAW atoms (GAPW):
       Hard Gaussian function radius:                                      1.800
       Rho0 radius:                                                        1.800
       Maximum GTO radius used for PAW projector construction:            24.566

     GAPW Soft Basis Set                                TZVPP-MOLOPT-PBE-ae_soft

       Number of orbital shell sets:                                           3
       Number of orbital shells:                                              14
       Number of primitive Cartesian functions:                                4
       Number of Cartesian basis functions:                                   48
       Number of spherical basis functions:                                   42
       Norm type:                                                              2

       Normalised Cartesian orbitals:

                        Set   Shell   Orbital            Exponent    Coefficient

                          1       1    1s         

                          2       1    1s         

                          2       2    2px        
                          2       2    2py        
                          2       2    2pz        

                          3       1    1s                2.588982       1.264457
                                                         0.960895       0.130293
                                                         0.337374       0.012100
                                                         0.108835       0.013266

                          3       2    2s                2.588982      -0.118998
                                                         0.960895       0.048241
                                                         0.337374       0.245140
                                                         0.108835       0.034021

                          3       3    3s                2.588982      -0.138109
                                                         0.960895      -0.101980
                                                         0.337374      -0.135069
                                                         0.108835       0.180243

                          3       4    2px               2.588982       4.614810
                                                         0.960895       0.076300
                                                         0.337374      -0.012178
                                                         0.108835      -0.002937
                          3       4    2py               2.588982       4.614810
                                                         0.960895       0.076300
                                                         0.337374      -0.012178
                                                         0.108835      -0.002937
                          3       4    2pz               2.588982       4.614810
                                                         0.960895       0.076300
                                                         0.337374      -0.012178
                                                         0.108835      -0.002937

                          3       5    3px               2.588982      -0.221492
                                                         0.960895       1.273560
                                                         0.337374      -0.014106
                                                         0.108835       0.007683
                          3       5    3py               2.588982      -0.221492
                                                         0.960895       1.273560
                                                         0.337374      -0.014106
                                                         0.108835       0.007683
                          3       5    3pz               2.588982      -0.221492
                                                         0.960895       1.273560
                                                         0.337374      -0.014106
                                                         0.108835       0.007683

                          3       6    4px               2.588982       0.123593
                                                         0.960895       0.087271
                                                         0.337374       0.351508
                                                         0.108835      -0.000876
                          3       6    4py               2.588982       0.123593
                                                         0.960895       0.087271
                                                         0.337374       0.351508
                                                         0.108835      -0.000876
                          3       6    4pz               2.588982       0.123593
                                                         0.960895       0.087271
                                                         0.337374       0.351508
                                                         0.108835      -0.000876

                          3       7    5px               2.588982       0.184056
                                                         0.960895      -0.121225
                                                         0.337374       0.005487
                                                         0.108835       0.089997
                          3       7    5py               2.588982       0.184056
                                                         0.960895      -0.121225
                                                         0.337374       0.005487
                                                         0.108835       0.089997
                          3       7    5pz               2.588982       0.184056
                                                         0.960895      -0.121225
                                                         0.337374       0.005487
                                                         0.108835       0.089997

                          3       8    3dx2              2.588982       7.758864
                                                         0.960895       0.110041
                                                         0.337374       0.000155
                                                         0.108835      -0.002664
                          3       8    3dxy              2.588982      13.438746
                                                         0.960895       0.190596
                                                         0.337374       0.000269
                                                         0.108835      -0.004614
                          3       8    3dxz              2.588982      13.438746
                                                         0.960895       0.190596
                                                         0.337374       0.000269
                                                         0.108835      -0.004614
                          3       8    3dy2              2.588982       7.758864
                                                         0.960895       0.110041
                                                         0.337374       0.000155
                                                         0.108835      -0.002664
                          3       8    3dyz              2.588982      13.438746
                                                         0.960895       0.190596
                                                         0.337374       0.000269
                                                         0.108835      -0.004614
                          3       8    3dz2              2.588982       7.758864
                                                         0.960895       0.110041
                                                         0.337374       0.000155
                                                         0.108835      -0.002664

                          3       9    4dx2              2.588982      -0.539760
                                                         0.960895       1.596811
                                                         0.337374      -0.014764
                                                         0.108835       0.006428
                          3       9    4dxy              2.588982      -0.934892
                                                         0.960895       2.765758
                                                         0.337374      -0.025572
                                                         0.108835       0.011134
                          3       9    4dxz              2.588982      -0.934892
                                                         0.960895       2.765758
                                                         0.337374      -0.025572
                                                         0.108835       0.011134
                          3       9    4dy2              2.588982      -0.539760
                                                         0.960895       1.596811
                                                         0.337374      -0.014764
                                                         0.108835       0.006428
                          3       9    4dyz              2.588982      -0.934892
                                                         0.960895       2.765758
                                                         0.337374      -0.025572
                                                         0.108835       0.011134
                          3       9    4dz2              2.588982      -0.539760
                                                         0.960895       1.596811
                                                         0.337374      -0.014764
                                                         0.108835       0.006428

                          3      10    5dx2              2.588982       0.032490
                                                         0.960895       0.038730
                                                         0.337374       0.214995
                                                         0.108835       0.005425
                          3      10    5dxy              2.588982       0.056275
                                                         0.960895       0.067083
                                                         0.337374       0.372382
                                                         0.108835       0.009397
                          3      10    5dxz              2.588982       0.056275
                                                         0.960895       0.067083
                                                         0.337374       0.372382
                                                         0.108835       0.009397
                          3      10    5dy2              2.588982       0.032490
                                                         0.960895       0.038730
                                                         0.337374       0.214995
                                                         0.108835       0.005425
                          3      10    5dyz              2.588982       0.056275
                                                         0.960895       0.067083
                                                         0.337374       0.372382
                                                         0.108835       0.009397
                          3      10    5dz2              2.588982       0.032490
                                                         0.960895       0.038730
                                                         0.337374       0.214995
                                                         0.108835       0.005425

                          3      11    4fx3              2.588982       0.330480
                                                         0.960895       0.455377
                                                         0.337374       0.095218
                                                         0.108835       0.000429
                          3      11    4fx2y             2.588982       0.738976
                                                         0.960895       1.018255
                                                         0.337374       0.212915
                                                         0.108835       0.000958
                          3      11    4fx2z             2.588982       0.738976
                                                         0.960895       1.018255
                                                         0.337374       0.212915
                                                         0.108835       0.000958
                          3      11    4fxy2             2.588982       0.738976
                                                         0.960895       1.018255
                                                         0.337374       0.212915
                                                         0.108835       0.000958
                          3      11    4fxyz             2.588982       1.279944
                                                         0.960895       1.763669
                                                         0.337374       0.368779
                                                         0.108835       0.001660
                          3      11    4fxz2             2.588982       0.738976
                                                         0.960895       1.018255
                                                         0.337374       0.212915
                                                         0.108835       0.000958
                          3      11    4fy3              2.588982       0.330480
                                                         0.960895       0.455377
                                                         0.337374       0.095218
                                                         0.108835       0.000429
                          3      11    4fy2z             2.588982       0.738976
                                                         0.960895       1.018255
                                                         0.337374       0.212915
                                                         0.108835       0.000958
                          3      11    4fyz2             2.588982       0.738976
                                                         0.960895       1.018255
                                                         0.337374       0.212915
                                                         0.108835       0.000958
                          3      11    4fz3              2.588982       0.330480
                                                         0.960895       0.455377
                                                         0.337374       0.095218
                                                         0.108835       0.000429

     AE Potential information for                                            ALL

       Description:                                       All-electron potential
                                          Krack, Parrinello, PCCP 2, 2105 (2000)

       Gaussian exponent of the core charge distribution:               2.834467
       Electronic configuration (s p d ...):                           6  10   0


 MOLECULE KIND INFORMATION


 All atoms are their own molecule, skipping detailed information


 TOTAL NUMBERS AND MAXIMUM NUMBERS

  Total number of            - Atomic kinds:                                   2
                             - Atoms:                                          8
                             - Shell sets:                                    24
                             - Shells:                                       104
                             - Primitive Cartesian functions:                136
                             - Cartesian basis functions:                    332
                             - Spherical basis functions:                    296

  Maximum angular momentum of the orbital basis functions:                     3


 MODULE QUICKSTEP: ATOMIC COORDINATES IN ANGSTROM

   Atom Kind Element         X             Y             Z       Z(eff)     Mass
      1    1 Mg   12      0.000000      0.000000      0.000000  12.0000  24.3050
      2    1 Mg   12      0.000000      2.677735      2.677735  12.0000  24.3050
      3    1 Mg   12      2.677735      0.000000      2.677735  12.0000  24.3050
      4    1 Mg   12      2.677735      2.677735      0.000000  12.0000  24.3050
      5    2 S    16      2.677735      0.000000      0.000000  16.0000  32.0650
      6    2 S    16      0.000000      2.677735      0.000000  16.0000  32.0650
      7    2 S    16      0.000000      0.000000      2.677735  16.0000  32.0650
      8    2 S    16      2.677735      2.677735      2.677735  16.0000  32.0650



 SCF PARAMETERS         Density guess:                                    ATOMIC
                        --------------------------------------------------------
                        max_scf:                                             200
                        max_scf_history:                                       0
                        max_diis:                                              4
                        --------------------------------------------------------
                        eps_scf:                                        5.00E-06
                        eps_scf_history:                                0.00E+00
                        eps_diis:                                       1.00E-01
                        eps_eigval:                                     1.00E-05
                        --------------------------------------------------------
                        level_shift [a.u.]:                             0.000000
                        --------------------------------------------------------
                        Mixing method:                           DIRECT_P_MIXING
                        --------------------------------------------------------
                        Outer loop SCF in use 
                        No variables optimised in outer loop
                        eps_scf                                         5.00E-06
                        max_scf                                                5
                        No outer loop optimization
                        step_size                                       5.00E-01

 PW_GRID| Information for grid number                                          1
 PW_GRID| Cutoff [a.u.]                                                    400.0
 PW_GRID| spherical cutoff:                                                   NO
 PW_GRID|   Bounds   1            -48      47                Points:          96
 PW_GRID|   Bounds   2            -48      47                Points:          96
 PW_GRID|   Bounds   3            -48      47                Points:          96
 PW_GRID| Volume element (a.u.^3)  0.1172E-02     Volume (a.u.^3)      1036.5475
 PW_GRID| Grid span                                                    FULLSPACE

 PW_GRID| Information for grid number                                          2
 PW_GRID| Number of the reference grid                                         1
 PW_GRID| Cutoff [a.u.]                                                    133.3
 PW_GRID| spherical cutoff:                                                   NO
 PW_GRID|   Bounds   1            -27      26                Points:          54
 PW_GRID|   Bounds   2            -27      26                Points:          54
 PW_GRID|   Bounds   3            -27      26                Points:          54
 PW_GRID| Volume element (a.u.^3)  0.6583E-02     Volume (a.u.^3)      1036.5475
 PW_GRID| Grid span                                                    FULLSPACE

 PW_GRID| Information for grid number                                          3
 PW_GRID| Number of the reference grid                                         1
 PW_GRID| Cutoff [a.u.]                                                     44.4
 PW_GRID| spherical cutoff:                                                   NO
 PW_GRID|   Bounds   1            -16      15                Points:          32
 PW_GRID|   Bounds   2            -16      15                Points:          32
 PW_GRID|   Bounds   3            -16      15                Points:          32
 PW_GRID| Volume element (a.u.^3)  0.3163E-01     Volume (a.u.^3)      1036.5475
 PW_GRID| Grid span                                                    FULLSPACE

 PW_GRID| Information for grid number                                          4
 PW_GRID| Number of the reference grid                                         1
 PW_GRID| Cutoff [a.u.]                                                     14.8
 PW_GRID| spherical cutoff:                                                   NO
 PW_GRID|   Bounds   1             -9       8                Points:          18
 PW_GRID|   Bounds   2             -9       8                Points:          18
 PW_GRID|   Bounds   3             -9       8                Points:          18
 PW_GRID| Volume element (a.u.^3)  0.1777         Volume (a.u.^3)      1036.5475
 PW_GRID| Grid span                                                    FULLSPACE

 PW_GRID| Information for grid number                                          5
 PW_GRID| Number of the reference grid                                         1
 PW_GRID| Cutoff [a.u.]                                                      4.9
 PW_GRID| spherical cutoff:                                                   NO
 PW_GRID|   Bounds   1             -6       5                Points:          12
 PW_GRID|   Bounds   2             -6       5                Points:          12
 PW_GRID|   Bounds   3             -6       5                Points:          12
 PW_GRID| Volume element (a.u.^3)  0.5999         Volume (a.u.^3)      1036.5475
 PW_GRID| Grid span                                                    FULLSPACE

 POISSON| Solver                                                        PERIODIC
 POISSON| Periodicity                                                        XYZ

 RS_GRID| Information for grid number                                          1
 RS_GRID|   Bounds   1            -48      47                Points:          96
 RS_GRID|   Bounds   2            -48      47                Points:          96
 RS_GRID|   Bounds   3            -48      47                Points:          96

 RS_GRID| Information for grid number                                          2
 RS_GRID|   Bounds   1            -27      26                Points:          54
 RS_GRID|   Bounds   2            -27      26                Points:          54
 RS_GRID|   Bounds   3            -27      26                Points:          54

 RS_GRID| Information for grid number                                          3
 RS_GRID|   Bounds   1            -16      15                Points:          32
 RS_GRID|   Bounds   2            -16      15                Points:          32
 RS_GRID|   Bounds   3            -16      15                Points:          32

 RS_GRID| Information for grid number                                          4
 RS_GRID|   Bounds   1             -9       8                Points:          18
 RS_GRID|   Bounds   2             -9       8                Points:          18
 RS_GRID|   Bounds   3             -9       8                Points:          18

 RS_GRID| Information for grid number                                          5
 RS_GRID|   Bounds   1             -6       5                Points:          12
 RS_GRID|   Bounds   2             -6       5                Points:          12
 RS_GRID|   Bounds   3             -6       5                Points:          12

 *******************************************************************************
                                    Kpoints
 *******************************************************************************
 BRILLOUIN| K-point scheme                                        Monkhorst-Pack
 BRILLOUIN| K-Point grid                                             4    4    4
 BRILLOUIN| Gamma-centered k-point mesh                                     ON
 BRILLOUIN| K-point symmetry accuracy                               0.100000E-07
 BRILLOUIN| K-Point point group symmetrization                                ON
 BRILLOUIN| Symmetry backend                                               K290
 BRILLOUIN| Symmetry reduction method                                      K290
 BRILLOUIN| Wavefunction type                                            COMPLEX
 BRILLOUIN| List of Kpoints [2 Pi/Bohr]                                       10
 BRILLOUIN| Number           Weight            X              Y              Z
 BRILLOUIN|     1           0.12500       -0.25000       -0.25000       -0.25000
 BRILLOUIN|     2           0.18750       -0.25000       -0.25000        0.00000
 BRILLOUIN|     3           0.18750       -0.25000       -0.25000        0.50000
 BRILLOUIN|     4           0.09375       -0.25000        0.00000        0.00000
 BRILLOUIN|     5           0.18750       -0.25000        0.00000        0.50000
 BRILLOUIN|     6           0.09375       -0.25000        0.50000        0.50000
 BRILLOUIN|     7           0.01562        0.00000        0.00000        0.00000
 BRILLOUIN|     8           0.04688        0.00000        0.00000        0.50000
 BRILLOUIN|     9           0.04688        0.00000        0.50000        0.50000
 BRILLOUIN|    10           0.01562        0.50000        0.50000        0.50000
 *******************************************************************************

 Extrapolation method: initial_guess

 Atomic guess: The first density matrix is obtained in terms of atomic orbitals
               and electronic configurations assigned to each atomic kind

 Guess for atomic kind: Mg

 Electronic structure
    Total number of core electrons                                          0.00
    Total number of valence electrons                                      12.00
    Total number of electrons                                              12.00
    Multiplicity                                                   not specified
    S      2.00  2.00  2.00
    P      6.00


 *******************************************************************************
                  Iteration          Convergence                     Energy [au]
 *******************************************************************************
                          1         1.20078                    -199.053471379998
                          2        0.896467                    -199.090737315962
                          3        0.117481E-01                -199.122175524771
                          4        0.701160E-03                -199.122182839473
                          5        0.291944E-04                -199.122183068033
                          6        0.531059E-07                -199.122183068157

 Energy components [Hartree]           Total Energy ::         -199.122183068157
                                        Band Energy ::         -108.283031669361
                                     Kinetic Energy ::          199.486523068770
                                   Potential Energy ::         -398.608706136927
                                      Virial (-V/T) ::            1.998173610954
                                        Core Energy ::         -279.439902898053
                                          XC Energy ::          -15.484602027301
                                     Coulomb Energy ::           95.802321857197

 Orbital energies  State     L     Occupation   Energy[a.u.]          Energy[eV]

                       1     0          2.000     -45.942823        -1250.167787
                       2     0          2.000      -2.894499          -78.763336
                       3     0          2.000      -0.175044           -4.763189

                       1     1          6.000      -1.709717          -46.523753


 Total Electron Density at R=0:                                      1057.660776

 Guess for atomic kind: S

 Electronic structure
    Total number of core electrons                                          0.00
    Total number of valence electrons                                      16.00
    Total number of electrons                                              16.00
    Multiplicity                                                   not specified
    S      2.00  2.00  2.00
    P      6.00  4.00


 *******************************************************************************
                  Iteration          Convergence                     Energy [au]
 *******************************************************************************
                          1        0.893376                    -396.661575871333
                          2        0.393437                    -396.681009180827
                          3        0.561766E-01                -396.693268440370
                          4        0.660851E-02                -396.693847351608
                          5        0.202969E-04                -396.693855307018
                          6        0.982086E-06                -396.693855307079

 Energy components [Hartree]           Total Energy ::         -396.693855307079
                                        Band Energy ::         -227.713251149160
                                     Kinetic Energy ::          396.898972439580
                                   Potential Energy ::         -793.592827746659
                                      Virial (-V/T) ::            1.999483200646
                                        Core Energy ::         -549.287322039891
                                          XC Energy ::          -24.159644485331
                                     Coulomb Energy ::          176.753111218142

 Orbital energies  State     L     Occupation   Energy[a.u.]          Energy[eV]

                       1     0          2.000     -87.767902        -2388.286061
                       2     0          2.000      -7.696055         -209.420316
                       3     0          2.000      -0.627901          -17.086057

                       1     1          6.000      -5.749005         -156.438375
                       2     1          4.000      -0.258877           -7.044392


 Total Electron Density at R=0:                                      2579.251533
 Re-scaling the density matrix to get the right number of electrons
                  # Electrons              Trace(P)               Scaling factor
                          112               112.000                        1.000

 Number of electrons:                                                        112
 Number of occupied orbitals:                                                 56
 Number of molecular orbitals:                                                56

 Number of orbital functions:                                                296
 Number of independent orbital functions:                                    296


 SCF WAVEFUNCTION OPTIMIZATION

  Step     Update method      Time    Convergence         Total energy    Change
  ------------------------------------------------------------------------------

 *** WARNING in qs_ks_methods.F:773 :: Native SKALA grid evaluation with   ***
 *** k-points is using the CPU TorchScript path. Use a mutually compatible ***
 *** BLAS, ScaLAPACK, OpenMP, and LibTorch runtime stack, or select        ***
 *** NATIVE_GRID_USE_CUDA T.                                               ***

 SKALA_GPW| Atom-composite cross support/maxima   2.797827671472E+00   6.762320771497E+02   2.141145196487E+04   8.977689691712E+04
 SKALA_GPW| Active atom-composite XC energy  -1.6864439455374003E+02
 SKALA_GPW| Active atom-composite electrons   1.1204739427087236E+02
 SKALA_GPW| Active atom-composite density range   3.5510849335731016E-03   1.2896272783638765E+03
 SKALA_GPW| Active atom-composite tau range   9.9582699169850001E-04   1.7671233011963515E+05
 SKALA_GPW| Active atom-composite tau integral   2.3855617341459060E+03
 SKALA_GPW| Active atom-composite max gradient   4.0493308536972683E+04
     1 P_Mix/Diag. 0.10E+00  795.4     1.91148946     -2394.7904448886 -2.39E+03
 SKALA_GPW| Atom-composite cross support/maxima   2.797827671472E+00   6.762967352775E+02   2.141270107104E+04   8.978920206709E+04
 SKALA_GPW| Active atom-composite XC energy  -1.6875727192594374E+02
 SKALA_GPW| Active atom-composite electrons   1.1204669624891390E+02
 SKALA_GPW| Active atom-composite density range   3.3997780819532753E-03   1.2897235983817168E+03
 SKALA_GPW| Active atom-composite tau range   1.0022342655091508E-03   1.7672862234688381E+05
 SKALA_GPW| Active atom-composite tau integral   2.3865693660284423E+03
 SKALA_GPW| Active atom-composite max gradient   4.0495550906234108E+04
     2 P_Mix/Diag. 0.10E+00  730.2     1.72052462     -2394.6986906878  9.18E-02
 SKALA_GPW| Atom-composite cross support/maxima   2.797827671472E+00   6.763477258612E+02   2.141361188528E+04   8.979832675803E+04
 SKALA_GPW| Active atom-composite XC energy  -1.6884977641711981E+02
 SKALA_GPW| Active atom-composite electrons   1.1204613965229656E+02
 SKALA_GPW| Active atom-composite density range   3.2709884022947147E-03   1.2897966205869411E+03
 SKALA_GPW| Active atom-composite tau range   1.0119635471960925E-03   1.7674019140671473E+05
 SKALA_GPW| Active atom-composite tau integral   2.3873648844044478E+03
 SKALA_GPW| Active atom-composite max gradient   4.0497129056566126E+04
     3 P_Mix/Diag. 0.10E+00  730.0     1.54678840     -2394.6135275456  8.52E-02
 SKALA_GPW| Atom-composite cross support/maxima   2.797827671472E+00   6.763879097823E+02   2.141426167533E+04   8.980500389308E+04
 SKALA_GPW| Active atom-composite XC energy  -1.6892560737349967E+02
 SKALA_GPW| Active atom-composite electrons   1.1204569326511873E+02
 SKALA_GPW| Active atom-composite density range   3.1602673176688409E-03   1.2898514872742189E+03
 SKALA_GPW| Active atom-composite tau range   1.0238218386308148E-03   1.7674816117934152E+05
 SKALA_GPW| Active atom-composite tau integral   2.3879934367797910E+03
 SKALA_GPW| Active atom-composite max gradient   4.0498199514437460E+04
     4 P_Mix/Diag. 0.10E+00  735.6     1.38937778     -2394.5352011075  7.83E-02
 SKALA_GPW| Atom-composite cross support/maxima   2.797827671472E+00   6.764195572966E+02   2.141471125985E+04   8.980980789542E+04
 SKALA_GPW| Active atom-composite XC energy  -1.6898790219536784E+02
 SKALA_GPW| Active atom-composite electrons   1.1204533324071670E+02
 SKALA_GPW| Active atom-composite density range   3.0642628195642666E-03   1.2898922576721945E+03
 SKALA_GPW| Active atom-composite tau range   1.0369345418200907E-03   1.7675341033726363E+05
 SKALA_GPW| Active atom-composite tau integral   2.3884905440088796E+03
 SKALA_GPW| Active atom-composite max gradient   4.0498885032095743E+04
     5 P_Mix/Diag. 0.10E+00  743.1     1.24728982     -2394.4636569633  7.15E-02
 SKALA_GPW| Atom-composite cross support/maxima   2.797827671472E+00   6.764444605535E+02   2.141500806483E+04   8.981318671690E+04
 SKALA_GPW| Active atom-composite XC energy  -1.6903928266919533E+02
 SKALA_GPW| Active atom-composite electrons   1.1204504145461306E+02
 SKALA_GPW| Active atom-composite density range   2.9804600172373516E-03   1.2899221126220536E+03
 SKALA_GPW| Active atom-composite tau range   1.0506779573149232E-03   1.7675662112545792E+05
 SKALA_GPW| Active atom-composite tau integral   2.3888841171014701E+03
 SKALA_GPW| Active atom-composite max gradient   4.0499280958332965E+04
     6 P_Mix/Diag. 0.10E+00  760.2     1.11949742     -2394.3986620959  6.50E-02
 SKALA_GPW| Atom-composite cross support/maxima   2.797827671472E+00   6.764640324722E+02   2.141518892050E+04   8.981548880807E+04
 SKALA_GPW| Active atom-composite XC energy  -1.6908190231272522E+02
 SKALA_GPW| Active atom-composite electrons   1.1204480392159215E+02
 SKALA_GPW| Active atom-composite density range   2.9069215639375211E-03   1.2899435376613517E+03
 SKALA_GPW| Active atom-composite tau range   1.0646068212475579E-03   1.7675832129609241E+05
 SKALA_GPW| Active atom-composite tau integral   2.3891961568818642E+03
 SKALA_GPW| Active atom-composite max gradient   4.0499461009340856E+04
     7 P_Mix/Diag. 0.10E+00  763.5     1.00492191     -2394.3398609324  5.88E-02
 SKALA_GPW| Atom-composite cross support/maxima   2.797827671472E+00   6.764793871219E+02   2.141528238720E+04   8.981698421851E+04
 SKALA_GPW| Active atom-composite XC energy  -1.6911750578972615E+02
 SKALA_GPW| Active atom-composite electrons   1.1204460965455880E+02
 SKALA_GPW| Active atom-composite density range   2.8421025086219870E-03   1.2899584731451057E+03
 SKALA_GPW| Active atom-composite tau range   1.0784002876601958E-03   1.7675891733621046E+05
 SKALA_GPW| Active atom-composite tau integral   2.3894440224261484E+03
 SKALA_GPW| Active atom-composite max gradient   4.0499482025638579E+04
     8 P_Mix/Diag. 0.10E+00  741.8     0.90239928     -2394.2868259386  5.30E-02
 SKALA_GPW| Atom-composite cross support/maxima   2.797827671472E+00   6.764914026330E+02   2.141531057708E+04   8.981788089068E+04
 SKALA_GPW| Active atom-composite XC energy  -1.6914747994746904E+02
 SKALA_GPW| Active atom-composite electrons   1.1204444994359763E+02
 SKALA_GPW| Active atom-composite density range   2.7847402742236247E-03   1.2899684316060018E+03
 SKALA_GPW| Active atom-composite tau range   1.0918281352271821E-03   1.7675872017688822E+05
 SKALA_GPW| Active atom-composite tau integral   2.3896413832531416E+03
 SKALA_GPW| Active atom-composite max gradient   4.0499387684294321E+04
     9 P_Mix/Diag. 0.10E+00  744.6     0.81071952     -2394.2390897067  4.77E-02
 SKALA_GPW| Atom-composite cross support/maxima   2.797827671472E+00   6.765007708294E+02   2.141529057168E+04   8.981833767672E+04
 SKALA_GPW| Active atom-composite XC energy  -1.6917291865309159E+02
 SKALA_GPW| Active atom-composite electrons   1.1204431788201825E+02
 SKALA_GPW| Active atom-composite density range   2.7337908241653231E-03   1.2899745897839932E+03
 SKALA_GPW| Active atom-composite tau range   1.1047295234321449E-03   1.7675796559129597E+05
 SKALA_GPW| Active atom-composite tau integral   2.3897989697002718E+03
 SKALA_GPW| Active atom-composite max gradient   4.0499211395391183E+04
    10 P_Mix/Diag. 0.10E+00  768.1     0.72870556     -2394.1961804143  4.29E-02
 SKALA_GPW| Atom-composite cross support/maxima   2.797827671472E+00   6.765080370537E+02   2.141523553857E+04   8.981847508084E+04
 SKALA_GPW| Active atom-composite XC energy  -1.6919467943841624E+02
 SKALA_GPW| Active atom-composite electrons   1.1204420800974893E+02
 SKALA_GPW| Active atom-composite density range   2.6883865606976069E-03   1.2899778619529586E+03
 SKALA_GPW| Active atom-composite tau range   1.1169977406992986E-03   1.7675683086873480E+05
 SKALA_GPW| Active atom-composite tau integral   2.3899251830504127E+03
 SKALA_GPW| Active atom-composite max gradient   4.0498978598659094E+04
    11 P_Mix/Diag. 0.10E+00  752.3     0.65527403     -2394.1576420465  3.85E-02
 SKALA_GPW| Atom-composite cross support/maxima   2.797827671472E+00   6.765136320295E+02   2.141515561184E+04   8.981838404035E+04
 SKALA_GPW| Active atom-composite XC energy  -1.6921343312605620E+02
 SKALA_GPW| Active atom-composite electrons   1.1204411602061450E+02
 SKALA_GPW| Active atom-composite density range   2.6478040530552361E-03   1.2899789582782239E+03
 SKALA_GPW| Active atom-composite tau range   1.1285680211730964E-03   1.7675544835015971E+05
 SKALA_GPW| Active atom-composite tau integral   2.3900265917714873E+03
 SKALA_GPW| Active atom-composite max gradient   4.0498708583541913E+04
    12 P_Mix/Diag. 0.10E+00  733.3     0.58945999     -2394.1230457459  3.46E-02
 SKALA_GPW| Atom-composite cross support/maxima   2.797827671472E+00   6.765178968975E+02   2.141505857611E+04   8.981813291793E+04
 SKALA_GPW| Active atom-composite XC energy  -1.6922970283930974E+02
 SKALA_GPW| Active atom-composite electrons   1.1204403851977720E+02
 SKALA_GPW| Active atom-composite density range   2.6114375529771171E-03   1.2899784304748732E+03
 SKALA_GPW| Active atom-composite tau range   1.1394075538548201E-03   1.7675391612419393E+05
 SKALA_GPW| Active atom-composite tau integral   2.3901083317788894E+03
 SKALA_GPW| Active atom-composite max gradient   4.0498415908094285E+04
    13 P_Mix/Diag. 0.10E+00  725.6     0.53041659     -2394.0919926813  3.11E-02
 SKALA_GPW| Atom-composite cross support/maxima   2.797827671472E+00   6.765211027447E+02   2.141495039647E+04   8.981777293439E+04
 SKALA_GPW| Active atom-composite XC energy  -1.6924390284839134E+02
 SKALA_GPW| Active atom-composite electrons   1.1204397282612406E+02
 SKALA_GPW| Active atom-composite density range   2.5787769366858006E-03   1.2899767072943976E+03
 SKALA_GPW| Active atom-composite tau range   1.1495073657166882E-03   1.7675230634216411E+05
 SKALA_GPW| Active atom-composite tau integral   2.3901744234168082E+03
 SKALA_GPW| Active atom-composite max gradient   4.0498111497184087E+04
    14 P_Mix/Diag. 0.10E+00  725.3     0.47740328     -2394.0641211953  2.79E-02
 SKALA_GPW| Atom-composite cross support/maxima   2.797827671472E+00   6.765234656271E+02   2.141483562384E+04   8.981734232890E+04
 SKALA_GPW| Active atom-composite XC energy  -1.6925636104162766E+02
 SKALA_GPW| Active atom-composite electrons   1.1204391681497947E+02
 SKALA_GPW| Active atom-composite density range   2.5493896510233164E-03   1.2899741217305184E+03
 SKALA_GPW| Active atom-composite tau range   1.1588758563452087E-03   1.7675067157580861E+05
 SKALA_GPW| Active atom-composite tau integral   2.3902280217454263E+03
 SKALA_GPW| Active atom-composite max gradient   4.0497803480941511E+04
    15 P_Mix/Diag. 0.10E+00  731.2     0.42977132     -2394.0391025910  2.50E-02
 SKALA_GPW| Atom-composite cross support/maxima   2.797827671472E+00   6.765251582531E+02   2.141471771000E+04   8.981686950278E+04
 SKALA_GPW| Active atom-composite XC energy  -1.6926734365233739E+02
 SKALA_GPW| Active atom-composite electrons   1.1204386879492566E+02
 SKALA_GPW| Active atom-composite density range   2.5229061559796143E-03   1.2899709321156799E+03
 SKALA_GPW| Active atom-composite tau range   1.1675337308612601E-03   1.7674904961562224E+05
 SKALA_GPW| Active atom-composite tau integral   2.3902716103406501E+03
 SKALA_GPW| Active atom-composite max gradient   4.0497497841375727E+04
    16 P_Mix/Diag. 0.10E+00  740.0     0.38695043     -2394.0166441359  2.25E-02
 SKALA_GPW| Atom-composite cross support/maxima   2.797827671472E+00   6.765263190403E+02   2.141459925103E+04   8.981637541187E+04
 SKALA_GPW| Active atom-composite XC energy  -1.6927706251217236E+02
 SKALA_GPW| Active atom-composite electrons   1.1204382741202866E+02
 SKALA_GPW| Active atom-composite density range   2.4990083034348684E-03   1.2899673384142973E+03
 SKALA_GPW| Active atom-composite tau range   1.1755100691107200E-03   1.7674746712587733E+05
 SKALA_GPW| Active atom-composite tau integral   2.3903071514817307E+03
 SKALA_GPW| Active atom-composite max gradient   4.0497198909362145E+04
    17 P_Mix/Diag. 0.10E+00  760.2     0.34843731     -2393.9964788438  2.02E-02
 SKALA_GPW| Atom-composite cross support/maxima   2.797827671472E+00   6.765270591073E+02   2.141448217512E+04   8.981587535791E+04
 SKALA_GPW| Active atom-composite XC energy  -1.6928569272220844E+02
 SKALA_GPW| Active atom-composite electrons   1.1204379157620312E+02
 SKALA_GPW| Active atom-composite density range   2.4774202044878565E-03   1.2899634947683917E+03
 SKALA_GPW| Active atom-composite tau range   1.1828393425621197E-03   1.7674594238521007E+05
 SKALA_GPW| Active atom-composite tau integral   2.3903362011137947E+03
 SKALA_GPW| Active atom-composite max gradient   4.0496909745121571E+04
    18 P_Mix/Diag. 0.10E+00  731.3     0.31378633     -2393.9783692523  1.81E-02
 SKALA_GPW| Atom-composite cross support/maxima   2.797827671472E+00   6.765274678154E+02   2.141436789072E+04   8.981538036074E+04
 SKALA_GPW| Active atom-composite XC energy  -1.6929338169406714E+02
 SKALA_GPW| Active atom-composite electrons   1.1204376040416236E+02
 SKALA_GPW| Active atom-composite density range   2.4579009618197717E-03   1.2899595193799780E+03
 SKALA_GPW| Active atom-composite tau range   1.1895591516252254E-03   1.7674448739152681E+05
 SKALA_GPW| Active atom-composite tau integral   2.3903599978067841E+03
 SKALA_GPW| Active atom-composite max gradient   4.0496632435420266E+04
    19 P_Mix/Diag. 0.10E+00  734.1     0.28260150     -2393.9621053436  1.63E-02
 SKALA_GPW| Atom-composite cross support/maxima   2.797827671472E+00   6.765276171388E+02   2.141425740255E+04   8.981489820331E+04
 SKALA_GPW| Active atom-composite XC energy  -1.6930024722697988E+02
 SKALA_GPW| Active atom-composite electrons   1.1204373317578107E+02
 SKALA_GPW| Active atom-composite density range   2.4402389973239001E-03   1.2899555022563645E+03
 SKALA_GPW| Active atom-composite tau range   1.1957085667161193E-03   1.7674310945546979E+05
 SKALA_GPW| Active atom-composite tau integral   2.3903795314792605E+03
 SKALA_GPW| Active atom-composite max gradient   4.0496368324299918E+04
    20 P_Mix/Diag. 0.10E+00  746.6     0.25453007     -2393.9474937193  1.46E-02
 SKALA_GPW| Atom-composite cross support/maxima   2.797827671472E+00   6.765275650311E+02   2.141415140095E+04   8.981443421378E+04
 SKALA_GPW| Active atom-composite XC energy  -1.6930639385542258E+02
 SKALA_GPW| Active atom-composite electrons   1.1204370930032738E+02
 SKALA_GPW| Active atom-composite density range   2.4242475059067766E-03   1.2899515111472595E+03
 SKALA_GPW| Active atom-composite tau range   1.2013269130972367E-03   1.7674181239819253E+05
 SKALA_GPW| Active atom-composite tau integral   2.3903955954489447E+03
 SKALA_GPW| Active atom-composite max gradient   4.0496118188768800E+04
    21 P_Mix/Diag. 0.10E+00  755.5     0.22925705     -2393.9343668293  1.31E-02
 SKALA_GPW| Atom-composite cross support/maxima   2.797827671472E+00   6.765273581898E+02   2.141405033342E+04   8.981399187555E+04
 SKALA_GPW| Active atom-composite XC energy  -1.6931190640410867E+02
 SKALA_GPW| Active atom-composite electrons   1.1204368829020851E+02
 SKALA_GPW| Active atom-composite density range   2.4097608211707923E-03   1.2899475963644456E+03
 SKALA_GPW| Active atom-composite tau range   1.2064529040133210E-03   1.7674059748042602E+05
 SKALA_GPW| Active atom-composite tau integral   2.3904088280515916E+03
 SKALA_GPW| Active atom-composite max gradient   4.0495882378948758E+04
    22 P_Mix/Diag. 0.10E+00  762.6     0.20650068     -2393.9225706656  1.18E-02
 SKALA_GPW| Atom-composite cross support/maxima   2.797827671472E+00   6.765270342313E+02   2.141395446093E+04   8.981357328950E+04
 SKALA_GPW| Active atom-composite XC energy  -1.6931685937885442E+02
 SKALA_GPW| Active atom-composite electrons   1.1204366974061686E+02
 SKALA_GPW| Active atom-composite density range   2.3966314637120711E-03   1.2899437945369646E+03
 SKALA_GPW| Active atom-composite tau range   1.2111240390890589E-03   1.7673946410622491E+05
 SKALA_GPW| Active atom-composite tau integral   2.3904197442866839E+03
 SKALA_GPW| Active atom-composite max gradient   4.0495660926146054E+04
    23 P_Mix/Diag. 0.10E+00  749.8     0.18600834     -2393.9119694010  1.06E-02
 SKALA_GPW| Atom-composite cross support/maxima   2.797827671472E+00   6.765266234033E+02   2.141386390153E+04   8.981317952496E+04
 SKALA_GPW| Active atom-composite XC energy  -1.6932131524112620E+02
 SKALA_GPW| Active atom-composite electrons   1.1204365331368970E+02
 SKALA_GPW| Active atom-composite density range   2.3847277483529982E-03   1.2899401315382854E+03
 SKALA_GPW| Active atom-composite tau range   1.2153762057032309E-03   1.7673841035136915E+05
 SKALA_GPW| Active atom-composite tau integral   2.3904287608245550E+03
 SKALA_GPW| Active atom-composite max gradient   4.0495453625517970E+04
    24 P_Mix/Diag. 0.10E+00  733.0     0.16755350     -2393.9024397275  9.53E-03
 SKALA_GPW| Atom-composite cross support/maxima   2.797827671472E+00   6.765261499855E+02   2.141377866489E+04   8.981281089554E+04
 SKALA_GPW| Active atom-composite XC energy  -1.6932533149331761E+02
 SKALA_GPW| Active atom-composite electrons   1.1204363872580120E+02
 SKALA_GPW| Active atom-composite density range   2.3739317678905776E-03   1.2899366248439142E+03
 SKALA_GPW| Active atom-composite tau range   1.2192434220739551E-03   1.7673743337592078E+05
 SKALA_GPW| Active atom-composite tau integral   2.3904362160151022E+03
 SKALA_GPW| Active atom-composite max gradient   4.0495260101458742E+04
    25 P_Mix/Diag. 0.10E+00  738.9     0.15093268     -2393.8938746268  8.57E-03
 SKALA_GPW| Atom-composite cross support/maxima   2.797827671472E+00   6.765256334422E+02   2.141369868054E+04   8.981246716530E+04
 SKALA_GPW| Active atom-composite XC energy  -1.6932895367005960E+02
 SKALA_GPW| Active atom-composite electrons   1.1204362573764891E+02
 SKALA_GPW| Active atom-composite density range   2.3641377207761546E-03   1.2899332854405882E+03
 SKALA_GPW| Active atom-composite tau range   1.2227576966417747E-03   1.7673652973154420E+05
 SKALA_GPW| Active atom-composite tau integral   2.3904423853137100E+03
 SKALA_GPW| Active atom-composite max gradient   4.0495079859277081E+04
    26 P_Mix/Diag. 0.10E+00  736.9     0.13596295     -2393.8861736112  7.70E-03
 SKALA_GPW| Atom-composite cross support/maxima   2.797827671472E+00   6.765250892867E+02   2.141362381810E+04   8.981214770358E+04
 SKALA_GPW| Active atom-composite XC energy  -1.6933222411133201E+02
 SKALA_GPW| Active atom-composite electrons   1.1204361414646544E+02
 SKALA_GPW| Active atom-composite density range   2.3552505060189591E-03   1.2899301192349524E+03
 SKALA_GPW| Active atom-composite tau range   1.2259489688545104E-03   1.7673569558718143E+05
 SKALA_GPW| Active atom-composite tau integral   2.3904474930597539E+03
 SKALA_GPW| Active atom-composite max gradient   4.0494912322406490E+04
    27 P_Mix/Diag. 0.10E+00  729.9     0.12247986     -2393.8792491971  6.92E-03
 SKALA_GPW| Atom-composite cross support/maxima   2.797827671472E+00   6.765245298364E+02   2.141355390479E+04   8.981185160894E+04
 SKALA_GPW| Active atom-composite XC energy  -1.6933518057792759E+02
 SKALA_GPW| Active atom-composite electrons   1.1204360377950471E+02
 SKALA_GPW| Active atom-composite density range   2.3471844954173712E-03   1.2899271282615498E+03
 SKALA_GPW| Active atom-composite tau range   1.2288451018430346E-03   1.7673492690820567E+05
 SKALA_GPW| Active atom-composite tau integral   2.3904517228359300E+03
 SKALA_GPW| Active atom-composite max gradient   4.0494756863399729E+04
    28 P_Mix/Diag. 0.10E+00  735.9     0.11033548     -2393.8730234897  6.23E-03
 SKALA_GPW| Atom-composite cross support/maxima   2.797827671472E+00   6.765239648227E+02   2.141348873874E+04   8.981157780404E+04
 SKALA_GPW| Active atom-composite XC energy  -1.6933785458320301E+02
 SKALA_GPW| Active atom-composite electrons   1.1204359448893497E+02
 SKALA_GPW| Active atom-composite density range   2.3398624902757651E-03   1.2899243116341233E+03
 SKALA_GPW| Active atom-composite tau range   1.2314719223269774E-03   1.7673421958840307E+05
 SKALA_GPW| Active atom-composite tau integral   2.3904552253002516E+03
 SKALA_GPW| Active atom-composite max gradient   4.0494612827309837E+04
    29 P_Mix/Diag. 0.10E+00  729.2     0.09939662     -2393.8674248124  5.60E-03
 SKALA_GPW| Atom-composite cross support/maxima   2.797827671472E+00   6.765234018683E+02   2.141342809918E+04   8.981132510157E+04
 SKALA_GPW| Active atom-composite XC energy  -1.6934027493823831E+02
 SKALA_GPW| Active atom-composite electrons   1.1204358614783031E+02
 SKALA_GPW| Active atom-composite density range   2.3332148253989902E-03   1.2899216662717574E+03
 SKALA_GPW| Active atom-composite tau range   1.2338532916570416E-03   1.7673356954095376E+05
 SKALA_GPW| Active atom-composite tau integral   2.3904581240232174E+03
 SKALA_GPW| Active atom-composite max gradient   4.0494479548828371E+04
    30 DIIS/Diag.  0.10E-04  743.7     0.09021627     -2393.8623898128  5.03E-03
 SKALA_GPW| Atom-composite cross support/maxima   2.797827671472E+00   6.765138612297E+02   2.141271887058E+04   8.980853377677E+04
 SKALA_GPW| Active atom-composite XC energy  -1.6936290996272669E+02
 SKALA_GPW| Active atom-composite electrons   1.1204351288297987E+02
 SKALA_GPW| Active atom-composite density range   2.2686514225831373E-03   1.2898887860115003E+03
 SKALA_GPW| Active atom-composite tau range   1.2567085713370916E-03   1.7672661165891241E+05
 SKALA_GPW| Active atom-composite tau integral   2.3904632022809092E+03
 SKALA_GPW| Active atom-composite max gradient   4.0492980508862929E+04
    31 DIIS/Diag.  0.49E-04  706.4     0.00069188     -2393.8172463412  4.51E-02
 SKALA_GPW| Atom-composite cross support/maxima   2.797827671472E+00   6.765144765502E+02   2.141274123424E+04   8.980861208623E+04
 SKALA_GPW| Active atom-composite XC energy  -1.6936292853281103E+02
 SKALA_GPW| Active atom-composite electrons   1.1204351208544547E+02
 SKALA_GPW| Active atom-composite density range   2.2692154679699477E-03   1.2898900362592440E+03
 SKALA_GPW| Active atom-composite tau range   1.2564830177782024E-03   1.7672677386998452E+05
 SKALA_GPW| Active atom-composite tau integral   2.3904667059835911E+03
 SKALA_GPW| Active atom-composite max gradient   4.0493021860346671E+04
    32 DIIS/Diag.  0.81E-04  767.1     0.00215902     -2393.8172452013  1.14E-06
 SKALA_GPW| Atom-composite cross support/maxima   2.797827671472E+00   6.765162392874E+02   2.141280570771E+04   8.980880864731E+04
 SKALA_GPW| Active atom-composite XC energy  -1.6936262410255318E+02
 SKALA_GPW| Active atom-composite electrons   1.1204351194866017E+02
 SKALA_GPW| Active atom-composite density range   2.2711685970488943E-03   1.2898936066735944E+03
 SKALA_GPW| Active atom-composite tau range   1.2559539049899835E-03   1.7672720013458663E+05
 SKALA_GPW| Active atom-composite tau integral   2.3904743864533357E+03
 SKALA_GPW| Active atom-composite max gradient   4.0493139602213894E+04
    33 DIIS/Diag.  0.41E-03  722.0     0.00209089     -2393.8172403924  4.81E-06
 SKALA_GPW| Atom-composite cross support/maxima   2.797827671472E+00   6.765180163587E+02   2.141287048298E+04   8.980902342156E+04
 SKALA_GPW| Active atom-composite XC energy  -1.6936253523490865E+02
 SKALA_GPW| Active atom-composite electrons   1.1204351042816825E+02
 SKALA_GPW| Active atom-composite density range   2.2729047143893268E-03   1.2898972111461887E+03
 SKALA_GPW| Active atom-composite tau range   1.2553581931057213E-03   1.7672765259443689E+05
 SKALA_GPW| Active atom-composite tau integral   2.3904834701509221E+03
 SKALA_GPW| Active atom-composite max gradient   4.0493258783557889E+04
    34 DIIS/Diag.  0.10E-02  728.7     0.00561808     -2393.8172311719  9.22E-06
 SKALA_GPW| Atom-composite cross support/maxima   2.797827671472E+00   6.765140428569E+02   2.141272263502E+04   8.980872127775E+04
 SKALA_GPW| Active atom-composite XC energy  -1.6936503905273611E+02
 SKALA_GPW| Active atom-composite electrons   1.1204349957370330E+02
 SKALA_GPW| Active atom-composite density range   2.2665856122876487E-03   1.2898891846504541E+03
 SKALA_GPW| Active atom-composite tau range   1.2560453436758759E-03   1.7672688052114530E+05
 SKALA_GPW| Active atom-composite tau integral   2.3904775418393160E+03
 SKALA_GPW| Active atom-composite max gradient   4.0492996105449252E+04
    35 DIIS/Diag.  0.22E-04  730.8     0.00033537     -2393.8172463332 -1.52E-05
 SKALA_GPW| Atom-composite cross support/maxima   2.797827671472E+00   6.765132903839E+02   2.141270009825E+04   8.980852274679E+04
 SKALA_GPW| Active atom-composite XC energy  -1.6936393593801671E+02
 SKALA_GPW| Active atom-composite electrons   1.1204350636372516E+02
 SKALA_GPW| Active atom-composite density range   2.2672874224723824E-03   1.2898877521476286E+03
 SKALA_GPW| Active atom-composite tau range   1.2564423548264640E-03   1.7672656321956383E+05
 SKALA_GPW| Active atom-composite tau integral   2.3904664951600698E+03
 SKALA_GPW| Active atom-composite max gradient   4.0492949920205130E+04
    36 DIIS/Diag.  0.65E-06  719.3     0.00002706     -2393.8172463333 -6.32E-11
 SKALA_GPW| Atom-composite cross support/maxima   2.797827671472E+00   6.765134201536E+02   2.141270346103E+04   8.980855970797E+04
 SKALA_GPW| Active atom-composite XC energy  -1.6936408128538255E+02
 SKALA_GPW| Active atom-composite electrons   1.1204350553145942E+02
 SKALA_GPW| Active atom-composite density range   2.2671936442765477E-03   1.2898879823170803E+03
 SKALA_GPW| Active atom-composite tau range   1.2563954722434284E-03   1.7672661866283944E+05
 SKALA_GPW| Active atom-composite tau integral   2.3904681841789538E+03
 SKALA_GPW| Active atom-composite max gradient   4.0492956920142722E+04
    37 DIIS/Diag.  0.56E-08  733.2     0.00000634     -2393.8172463358 -2.46E-09
 SKALA_GPW| Atom-composite cross support/maxima   2.797827671472E+00   6.765134114855E+02   2.141270332879E+04   8.980855725562E+04
 SKALA_GPW| Active atom-composite XC energy  -1.6936409169393559E+02
 SKALA_GPW| Active atom-composite electrons   1.1204350548053986E+02
 SKALA_GPW| Active atom-composite density range   2.2671878130731782E-03   1.2898879703048265E+03
 SKALA_GPW| Active atom-composite tau range   1.2563921012466251E-03   1.7672661555433806E+05
 SKALA_GPW| Active atom-composite tau integral   2.3904682307837120E+03
 SKALA_GPW| Active atom-composite max gradient   4.0492956651528366E+04
    38 DIIS/Diag.  0.33E-09  760.4     0.00000185     -2393.8172462685  6.72E-08

  *** SCF run converged in    38 steps ***


  Electronic density on regular grids:        -55.4732753412       56.5267246588
  Core density on regular grids:              112.0000000000        0.0000000000
  Hard and soft densities (Lebedev):         -147.2065650059      -90.6798404409
  Total Rho_soft + Rho1_hard - Rho1_soft     -111.9999999063
  Total charge density (r-space):               0.0000000937
  Total Rho_soft + Rho0_soft (g-space):         0.0000000125

  Overlap energy of the core charge distribution:               0.00000000000000
  Self energy of the core charge distribution:              -1458.03684778854472
  Core Hamiltonian energy:                                   -997.32520615598617
  Hartree energy:                                             115.57831824916305
  Exchange-correlation energy:                                  0.00000000000000
  Dispersion energy:                                           -0.17887349576148

  GAPW| Exc from hard and soft atomic rho1:                  -169.36409169393559
  GAPW| local Eh = 1 center integrals:                        115.50945461651830

  Total energy:                                             -2393.81724626854657

  outer SCF iter =    1 RMS gradient =   0.00E+00 energy =      -2393.8172462685
  outer SCF loop converged in   1 iterations or   38 steps


 !-----------------------------------------------------------------------------!
                     Mulliken Population Analysis

 #  Atom  Element  Kind  Atomic population                           Net charge
       1     Mg       1         10.691205                              1.308795
       2     Mg       1         10.691214                              1.308786
       3     Mg       1         10.691214                              1.308786
       4     Mg       1         10.691214                              1.308786
       5     S        2         17.308789                             -1.308789
       6     S        2         17.308789                             -1.308789
       7     S        2         17.308789                             -1.308789
       8     S        2         17.308786                             -1.308786
 # Total charge                            112.000000                 -0.000000

 !-----------------------------------------------------------------------------!

 !-----------------------------------------------------------------------------!
                           Hirshfeld Charges

  #Atom  Element  Kind  Ref Charge     Population                    Net charge
      1       Mg     1      12.000         12.123                        -0.123
      2       Mg     1      12.000         12.123                        -0.123
      3       Mg     1      12.000         12.123                        -0.123
      4       Mg     1      12.000         12.123                        -0.123
      5       S      2      16.000         15.877                         0.123
      6       S      2      16.000         15.877                         0.123
      7       S      2      16.000         15.877                         0.123
      8       S      2      16.000         15.877                         0.123

  Total Charge                                                           -0.000
 !-----------------------------------------------------------------------------!

 ENERGY| Total FORCE_EVAL ( QS ) energy [hartree]          -2393.817246268546569

 -------------------------------------------------------------------------------
 -                                                                             -
 -                                DBCSR STATISTICS                             -
 -                                                                             -
 -------------------------------------------------------------------------------
 COUNTER                                    TOTAL       BLAS       SMM       ACC
 flops inhomo. stacks                           0       0.0%      0.0%      0.0%
 flops total                         0.000000E+00       0.0%      0.0%      0.0%
 flops max/rank                      0.000000E+00       0.0%      0.0%      0.0%
 matmuls inhomo. stacks                         0       0.0%      0.0%      0.0%
 matmuls total                                  0       0.0%      0.0%      0.0%
 number of processed stacks                     0       0.0%      0.0%      0.0%
 average stack size                                     0.0       0.0       0.0
 marketing flops                     0.000000E+00
 -------------------------------------------------------------------------------

 -------------------------------------------------------------------------------
 -                                                                             -
 -                                GRID STATISTICS                              -
 -                                                                             -
 -------------------------------------------------------------------------------
 LP    KERNEL             BACKEND                              COUNT     PERCENT
 6     collocate ortho    CPU                                 512772      14.37%
 6     integrate ortho    CPU                                 499624      14.00%
 4     collocate ortho    CPU                                 413088      11.58%
 4     integrate ortho    CPU                                 402496      11.28%
 5     collocate ortho    CPU                                 389688      10.92%
 5     integrate ortho    CPU                                 379696      10.64%
 7     collocate ortho    CPU                                 333216       9.34%
 7     integrate ortho    CPU                                 324672       9.10%
 8     collocate ortho    CPU                                 100776       2.82%
 8     integrate ortho    CPU                                  98192       2.75%
 3     collocate ortho    CPU                                  56472       1.58%
 3     integrate ortho    CPU                                  55024       1.54%
 2     collocate ortho    CPU                                   1092       0.03%
 2     integrate ortho    CPU                                   1064       0.03%
 4     collocate general  CPU                                    304       0.01%
 4     integrate general  CPU                                    304       0.01%
 0     collocate general  CPU                                     16       0.00%
 0     integrate general  CPU                                      8       0.00%
 -------------------------------------------------------------------------------

 -------------------------------------------------------------------------------
 -                                                                             -
 -                          OFFLOAD MEMPOOL STATISTICS                         -
 -                                                                             -
 -------------------------------------------------------------------------------
 Memory consumption                Number of allocations  Used [MiB]  Size [MiB]
 Host                                                  8         111          58
 -------------------------------------------------------------------------------

 MEMORY| Estimated peak process memory [MiB]                                6670

 -------------------------------------------------------------------------------
 ----                             MULTIGRID INFO                            ----
 -------------------------------------------------------------------------------
 count for grid        1:          50035          cutoff [a.u.]          400.00
 count for grid        2:          23186          cutoff [a.u.]          133.33
 count for grid        3:          21292          cutoff [a.u.]           44.44
 count for grid        4:          13188          cutoff [a.u.]           14.81
 count for grid        5:           5920          cutoff [a.u.]            4.94
 total gridlevel count  :         113621

 -------------------------------------------------------------------------------
 -                                                                             -
 -                           R E F E R E N C E S                               -
 -                                                                             -
 -------------------------------------------------------------------------------
 
 CP2K version 2026.2 (Development Version), the CP2K developers group (2026).
 CP2K is freely available from https://www.cp2k.org/ .
 
 M. Iannuzzi, J. Wilhelm, F. Stein, A. Bussy, H. Elgabarty, D. Golze, A. Hehn, 
 M. Graml, S. Marek, B. Sertcan Gökmen, C. Schran, H. Forbert, R. Z. 
 Khaliullin, A. Kozhevnikov, M. Taillefumier, R. Meli, V. V. Rybkin, M. Brehm, 
 R. Schade, O. Schütt, J. V. Pototschnig, H. Mirhosseini, A. Knüpfer, D. Marx, 
 M. Krack, J. Hutter, T. D. Kühne.
 J. Phys. Chem. B 130, 1237-1310 (2026).
 The CP2K Program Package Made Simple.
 https://doi.org/10.1021/acs.jpcb.5c05851

 L. Wittmann, I. Gordiy, M. Friede, B. Helmich-Paris, S. Grimme, A. Hansen, M. 
 Bursch.
 Phys. Chem. Chem. Phys. 26, 21379-21394 (2024).
 Extension of the D3 and D4 London dispersion corrections to the full actinides 
 series.
 https://doi.org/10.1039/d4cp01514b

 T. D. Kühne, M. Iannuzzi, M. Del Ben, V. V. Rybkin, P. Seewald, F. Stein, T. 
 Laino, R. Z. Khaliullin, O. Schütt, F. Schiffmann, D. Golze, J. Wilhelm, S. 
 Chulkov, M. H. Bani-Hashemian, V. Weber, U. Borstnik, M. Taillefumier, A. S. 
 Jakobovits, A. Lazzaro, H. Pabst, T. Müller, R. Schade, M. Guidon, S. 
 Andermatt, N. Holmberg, G. K. Schenter, A. Hehn, A. Bussy, F. Belleflamme, G. 
 Tabacchi, A. Glöß, M. Lass, I. Bethune, C. J. Mundy, C. Plessl, M. Watkins, 
 J. VandeVondele, M. Krack, J. Hutter.
 J. Chem. Phys. 152, 194103 (2020).
 CP2K: An electronic structure and molecular dynamics software package - 
 Quickstep: Efficient and accurate electronic structure calculations.
 https://doi.org/10.1063/5.0007045

 A. Togo, I. Tanaka.
 arXiv, 1808.01590 (2018).
 Spglib : a software library for crystal symmetry search.

 L. Goerigk, A. Hansen, C. Bauer, S. Ehrlich, A. Najibi, S. Grimme.
 Phys. Chem. Chem. Phys. 19, 32184-32215 (2017).
 A look at the density functional theory zoo with the advanced GMTKN55 database 
 for general main group thermochemistry, kinetics and noncovalent interactions.
 https://doi.org/10.1039/C7CP04913G

 O. Schuett, P. Messmer, J. Hutter, J. VandeVondele.
 Electronic Structure Calculations on Graphics Processing Units, 173-190 (2016).
 GPU-Accelerated Sparse Matrix-Matrix Multiplication for Linear Scaling Density 
 Functional Theory.
 https://doi.org/10.1002/9781118670712.ch8

 U. Borstnik, J. VandeVondele, V. Weber, J. Hutter.
 Parallel Comput. 40, 47-58 (2014).
 Sparse matrix multiplication: The distributed block-compressed sparse row 
 library.
 https://doi.org/10.1016/j.parco.2014.03.012

 S. Grimme, S. Ehrlich, L. Goerigk.
 J. Comput. Chem. 32, 1456 (2011).
 Effect of the damping function in dispersion corrected density functional 
 theory.
 https://doi.org/10.1002/jcc.21759

 S. Grimme, J. Antony, S. Ehrlich, H. Krieg.
 J. Chem. Phys. 132, 154104 (2010).
 A consistent and accurate ab initio parametrization of density functional 
 dispersion correction (DFT-D) for the 94 elements H-Pu.
 https://doi.org/10.1063/1.3382344

 J. VandeVondele, J. Hutter.
 J. Chem. Phys. 127, 114105 (2007).
 Gaussian basis sets for accurate calculations on molecular systems in gas and 
 condensed phases.
 https://doi.org/10.1063/1.2770708

 M. Frigo, S. G. Johnson.
 Proc. IEEE 93, 216-231 (2005).
 The design and implementation of FFTW3.
 https://doi.org/10.1109/JPROC.2004.840301

 M. Krack, M. Parrinello.
 Phys. Chem. Chem. Phys. 2, 2105-2112 (2000).
 All-electron ab-initio molecular dynamics.
 https://doi.org/10.1039/b001167n

 G. Lippert, J. Hutter, M. Parrinello.
 Theor. Chem. Acc. 103, 124-140 (1999).
 The Gaussian and augmented-plane-wave density functional method for ab initio 
 molecular dynamics simulations.
 https://doi.org/10.1007/s002140050523

 C.-L. Fu, K.-M. Ho.
 Phys. Rev. B 28, 5480-5486 (1983).
 First-principles calculation of the equilibrium ground-state properties of 
 transition metals: Applications to Nb and Mo.
 https://doi.org/10.1103/PhysRevB.28.5480

 T. G. Worlton, J. L. Warren.
 Comput. Phys. Commun. 3, 88-117 (1972).
 Group-theoretical analysis of lattice vibrations.
 https://doi.org/10.1016/0010-4655(72)90058-6


 -------------------------------------------------------------------------------
 -                                                                             -
 -                                T I M I N G                                  -
 -                                                                             -
 -------------------------------------------------------------------------------
 SUBROUTINE                       CALLS  ASD         SELF TIME        TOTAL TIME
                                MAXIMUM       AVERAGE  MAXIMUM  AVERAGE  MAXIMUM
 CP2K                                 1  1.0     0.06     0.06 28185.22 28185.22
 qs_energies                          1  2.0     0.00     0.00 28184.62 28184.62
 scf_env_do_scf                       1  3.0     0.00     0.00 28182.40 28182.40
 scf_env_do_scf_inner_loop           38  4.0     0.39     0.39 28182.40 28182.40
 qs_ks_update_qs_env                 38  5.0     0.00     0.00 27929.27 27929.27
 rebuild_ks_matrix                   38  6.0     0.00     0.00 27924.44 27924.44
 qs_ks_build_kohn_sham_matrix        38  7.0     0.05     0.05 27924.44 27924.44
 calculate_vxc_atom                  38  8.0 23828.31 23828.31 27767.36 27767.36
 skala_atom_torch_backward          114  9.0  1162.24  1162.24  1162.24  1162.24
 calc_tau_atom                      912  9.0   839.51   839.51   839.51   839.51
 gaVxcgb_GC                         608  9.0   714.92   714.92   714.92   714.92
 skala_atom_torch_forward           114  9.0     0.29     0.29   671.03   671.03
 torch_model_forward_mol_tensor     114 10.0   670.74   670.74   670.74   670.74
 -------------------------------------------------------------------------------

 The number of warnings for this run is : 1
 
 -------------------------------------------------------------------------------
  **** **** ******  **  PROGRAM ENDED AT                 2026-09-01 12:04:37.616
 ***** ** ***  *** **   PROGRAM RAN ON                                    cge008
 **    ****   ******    PROGRAM RAN BY                                  kuehne88
 ***** **    ** ** **   PROGRAM PROCESS ID                               1835011
  **** **  *******  **  PROGRAM STOPPED IN /data/home2/kuehne88/cp2k-native-skal
                                           a/goldzak12/runs/production/gapw-ae/M
                                           gS/v10
