 DBCSR| CPU Multiplication driver                                           BLAS (U)
 DBCSR| Multrec recursion limit                                              512 (U)
 DBCSR| Multiplication stack size                                          30000 (D)
 DBCSR| Maximum elements for images                                    UNLIMITED (U)
 DBCSR| Multiplicative factor virtual images                                   1 (U)
 DBCSR| Use multiplication densification                                       F (D)
 DBCSR| Multiplication size stacks                                             3 (U)
 DBCSR| Use memory pool for CPU allocation                                     F (U)
 DBCSR| Number of 3D layers                                               SINGLE (U)
 DBCSR| Use MPI memory allocation                                              F (U)
 DBCSR| Use RMA algorithm                                                      F (U)
 DBCSR| Use Communication thread                                               T (U)
 DBCSR| Communication thread load                                              0 (D)
 DBCSR| MPI: My process id                                                     0
 DBCSR| MPI: Number of processes                                               1
 DBCSR| OMP: Current number of threads                                        32
 DBCSR| OMP: Max number of threads                                            32
 DBCSR| ACC: Number of devices/node                                            1
 DBCSR| ACC: Number of stack-buffers per thread                                8 (U)
 DBCSR| ACC: Avoid driver after busy                                           F (U)
 DBCSR| ACC: Process inhomogeneous stacks                                      T (U)
 DBCSR| ACC: Min. flop for processing                                          0 (U)
 DBCSR| ACC: Use G2G algorithm                                                 F (D)
 DBCSR| ACC: Min. flop for sorting                                          4000 (U)
 DBCSR| ACC: Number of binning bins                                         4096 (U)
 DBCSR| ACC: Size of binning bins                                             16 (U)
 DBCSR| ACC: GPU backend is enabled                                            T (D)
 DBCSR| Split modifier for TAS multiplication algorithm                  1.0E+00 (U)


  **** **** ******  **  PROGRAM STARTED AT               2026-08-25 13:57:33.046
 ***** ** ***  *** **   PROGRAM STARTED ON                                 gh003
 **    ****   ******    PROGRAM STARTED BY                              kuehne88
 ***** **    ** ** **   PROGRAM PROCESS ID                               2290414
  **** **  *******  **  PROGRAM STARTED IN /data/home2/kuehne88/cp2k-native-skal
                                           a/validation-uzh/diet-production-p25/
                                           gapwxc-gth-one-center/08fab3d02b918e6
                                           d2460f05d048b7dc5babf1f73

 CP2K| version string:                 CP2K version 2026.2 (Development Version)
 CP2K| source code revision number:                                   c1bff3eeb8
 CP2K| cp2kflags: omp fftw3 parallel scalapack mpi_f08 dbcsr_acc spglib openblas
 CP2K|             libtorch libtorch_cuda offload_cuda
 CP2K| is freely available from                            https://www.cp2k.org/
 CP2K| Program compiled at                                   2026-08-22 00:15:05
 CP2K| Program compiled on                                                ctu011
 CP2K| Program compiled for                                               x86_64
 CP2K| Data directory path    /home/kuehne88/cp2k-native-skala/install/cp2k-h100
 CP2K| Input file name                                                 input.inp

 GLOBAL| Force Environment number                                              1
 GLOBAL| Basis set file name                             BASIS_MOLOPT_UZH_2026.2
 GLOBAL| Potential file name                                POTENTIAL_UZH_2026.2
 GLOBAL| MM Potential file name                                     MM_POTENTIAL
 GLOBAL| Coordinate file name                                      __STD_INPUT__
 GLOBAL| Method name                                                        CP2K
 GLOBAL| Project name                                08fab3d02b91_gapwxc_gth_paw
 GLOBAL| Run type                                                         ENERGY
 GLOBAL| FFT library                                                       FFTW3
 GLOBAL| Diagonalization library                                       ScaLAPACK
 GLOBAL| Cholesky decomposition library                                ScaLAPACK
 GLOBAL| DGEMM library                                                      BLAS
 GLOBAL| Direct generalized diagonalization requested                          F
 GLOBAL| Orthonormality check for eigenvectors                          DISABLED
 GLOBAL| Matrix multiplication library                                 ScaLAPACK
 GLOBAL| All-to-all communication in single precision                          F
 GLOBAL| FFTs using library dependent lengths                                  F
 GLOBAL| Grid backend                                                       AUTO
 GLOBAL| Global print level                                               MEDIUM
 GLOBAL| MPI I/O enabled                                                       T
 GLOBAL| Total number of message passing processes                             1
 GLOBAL| Number of distributed systems (nodes)                                 1
 GLOBAL| Number of threads for this process                                   32
 GLOBAL| This output is from process                                           0
 GLOBAL| OpenMP stack size per thread (OMP_STACKSIZE)                       512M
 GLOBAL| CPU model name                          AMD EPYC 9654 96-Core Processor

 MEMORY| system memory details [Kb]
 MEMORY|                        rank 0           min           max       average
 MEMORY| MemTotal           2377692460    2377692460    2377692460    2377692460
 MEMORY| MemFree            2076493520    2076493520    2076493520    2076493520
 MEMORY| Buffers                     0             0             0             0
 MEMORY| Cached              192607656     192607656     192607656     192607656
 MEMORY| Slab                  3380416       3380416       3380416       3380416
 MEMORY| SReclaimable          1210332       1210332       1210332       1210332
 MEMORY| MemLikelyFree      2270311508    2270311508    2270311508    2270311508


 *** Fundamental physical constants (SI units) ***

 *** Literature: B. J. Mohr and B. N. Taylor,
 ***             CODATA recommended values of the fundamental physical
 ***             constants: 2006, Web Version 5.1
 ***             http://physics.nist.gov/constants

 Speed of light in vacuum [m/s]                             2.99792458000000E+08
 Magnetic constant or permeability of vacuum [N/A**2]       1.25663706143592E-06
 Electric constant or permittivity of vacuum [F/m]          8.85418781762039E-12
 Planck constant (h) [J*s]                                  6.62606896000000E-34
 Planck constant (h-bar) [J*s]                              1.05457162825177E-34
 Elementary charge [C]                                      1.60217648700000E-19
 Electron mass [kg]                                         9.10938215000000E-31
 Electron g factor [ ]                                     -2.00231930436220E+00
 Proton mass [kg]                                           1.67262163700000E-27
 Fine-structure constant                                    7.29735253760000E-03
 Rydberg constant [1/m]                                     1.09737315685270E+07
 Avogadro constant [1/mol]                                  6.02214179000000E+23
 Boltzmann constant [J/K]                                   1.38065040000000E-23
 Atomic mass unit [kg]                                      1.66053878200000E-27
 Bohr radius [m]                                            5.29177208590000E-11

 *** Conversion factors ***

 [u] -> [a.u.]                                              1.82288848426455E+03
 [Angstrom] -> [Bohr] = [a.u.]                              1.88972613288564E+00
 [a.u.] = [Bohr] -> [Angstrom]                              5.29177208590000E-01
 [a.u.] -> [s]                                              2.41888432650478E-17
 [a.u.] -> [fs]                                             2.41888432650478E-02
 [a.u.] -> [J]                                              4.35974393937059E-18
 [a.u.] -> [N]                                              8.23872205491840E-08
 [a.u.] -> [K]                                              3.15774647902944E+05
 [a.u.] -> [kJ/mol]                                         2.62549961709828E+03
 [a.u.] -> [kcal/mol]                                       6.27509468713739E+02
 [a.u.] -> [Pa]                                             2.94210107994716E+13
 [a.u.] -> [bar]                                            2.94210107994716E+08
 [a.u.] -> [atm]                                            2.90362800883016E+08
 [a.u.] -> [eV]                                             2.72113838565563E+01
 [a.u.] -> [Hz]                                             6.57968392072181E+15
 [a.u.] -> [1/cm] (wave numbers)                            2.19474631370540E+05
 [a.u./Bohr**2] -> [1/cm]                                   5.14048714338585E+03
 

 CELL| Volume [angstrom^3]:                                         29160.000000
 CELL| Vector a [angstrom]:      36.000     0.000     0.000   |a| =    36.000000
 CELL| Vector b [angstrom]:       0.000    30.000     0.000   |b| =    30.000000
 CELL| Vector c [angstrom]:       0.000     0.000    27.000   |c| =    27.000000
 CELL| Angle (b,c), alpha [degree]:                                    90.000000
 CELL| Angle (a,c), beta  [degree]:                                    90.000000
 CELL| Angle (a,b), gamma [degree]:                                    90.000000
 CELL| Numerically orthorhombic:                                             YES
 CELL| Periodicity                                                          NONE

 CELL_REF| Volume [angstrom^3]:                                     29160.000000
 CELL_REF| Vector a [angstrom    36.000     0.000     0.000   |a| =    36.000000
 CELL_REF| Vector b [angstrom     0.000    30.000     0.000   |b| =    30.000000
 CELL_REF| Vector c [angstrom     0.000     0.000    27.000   |c| =    27.000000
 CELL_REF| Angle (b,c), alpha [degree]:                                90.000000
 CELL_REF| Angle (a,c), beta  [degree]:                                90.000000
 CELL_REF| Angle (a,b), gamma [degree]:                                90.000000
 CELL_REF| Numerically orthorhombic:                                         YES
 CELL_REF| Periodicity                                                      NONE

 GENERATE|  Preliminary Number of Bonds generated:                             0
 GENERATE|  Achieved consistency in connectivity generation.

 *******************************************************************************
 *******************************************************************************
 **                                                                           **
 **     #####                         ##              ##                      **
 **    ##   ##            ##          ##              ##                      **
 **   ##     ##                       ##            ######                    **
 **   ##     ##  ##   ##  ##   #####  ##  ##   ####   ##    #####    #####    **
 **   ##     ##  ##   ##  ##  ##      ## ##   ##      ##   ##   ##  ##   ##   **
 **   ##  ## ##  ##   ##  ##  ##      ####     ###    ##   ######   ######    **
 **    ##  ###   ##   ##  ##  ##      ## ##      ##   ##   ##       ##        **
 **     #######   #####   ##   #####  ##  ##  ####    ##    #####   ##        **
 **           ##                                                    ##        **
 **                                                                           **
 **                                                ... make the atoms dance   **
 **                                                                           **
 **            Copyright (C) by CP2K developers group (2000-2026)             **
 **                      J. Chem. Phys. 152, 194103 (2020)                    **
 **                                                                           **
 *******************************************************************************

 DFT| Spin restricted Kohn-Sham (RKS) calculation                            RKS
 DFT| Multiplicity                                                             1
 DFT| Number of spin states                                                    1
 DFT| Charge                                                                   0
 DFT| Self-interaction correction (SIC)                                       NO
 DFT| Cutoffs: density                                              1.000000E-10
 DFT|          gradient                                             1.000000E-10
 DFT|          tau                                                  1.000000E-10
 DFT|          cutoff_smoothing_range                               0.000000E+00
 DFT| XC density smoothing                                                  NONE
 DFT| XC derivatives                                                          PW

 FUNCTIONAL| GAUXC:
 FUNCTIONAL| Functional computed by GauXC Skala model SKALA                     

 vdW POTENTIAL|                                                   Pair Potential
 vdW POTENTIAL|          DFT-D3 (Version 3.1)
 vdW POTENTIAL|          Potential Form: S. Grimme et al, JCP 132: 154104 (2010)
 vdW POTENTIAL|          BJ Damping: S. Grimme et al, JCC 32: 1456 (2011)
 vdW POTENTIAL|          Cutoff Radius [Bohr]:                             37.79
 vdW POTENTIAL|          s6 Scaling Factor:                               1.0000
 vdW POTENTIAL|          a1 Damping Factor:                               0.3981
 vdW POTENTIAL|          s8 Scaling Factor:                               1.9889
 vdW POTENTIAL|          a2 Damping Factor:                               4.4211
 vdW POTENTIAL|          Cutoff for CN calculation:                   0.1000E-05

 QS| Method:                                                             GAPW_XC
 QS| Density plane wave grid type                        NON-SPHERICAL FULLSPACE
 QS| Number of grid levels:                                                    5
 QS| Density cutoff [a.u.]:                                                200.0
 QS| Multi grid cutoff [a.u.]: 1) grid level                               200.0
 QS|                           2) grid level                                66.7
 QS|                           3) grid level                                22.2
 QS|                           4) grid level                                 7.4
 QS|                           5) grid level                                 2.5
 QS| Grid level progression factor:                                          3.0
 QS| Relative density cutoff [a.u.]:                                        30.0
 QS| Interaction thresholds: eps_pgf_orb:                                1.0E-06
 QS|                         eps_filter_matrix:                          0.0E+00
 QS|                         eps_core_charge:                            1.0E-14
 QS|                         eps_rho_gspace:                             1.0E-12
 QS|                         eps_rho_rspace:                             1.0E-12
 QS|                         eps_gvg_rspace:                             1.0E-06
 QS|                         eps_ppl:                                    1.0E-02
 QS|                         eps_ppnl:                                   1.0E-08
 QS| GAPW_XC|      One center basis extended with primitives (small:s)
 QS| GAPW_XC|                eps_fit:                                    1.0E-04
 QS| GAPW_XC|                eps_iso:                                    1.0E-12
 QS| GAPW_XC|                eps_svd:                                    1.0E-08
 QS| GAPW_XC|atom-r-grid: quadrature:                 GC_LOG                        
 QS| GAPW_XC|   atom-s-grid:  max l :                                          6


 ATOMIC KIND INFORMATION

  1. Atomic kind: C                                     Number of atoms:      12

     Orbital Basis Set                                   TZV2P-MOLOPT-PBE-GTH-q4

       Number of orbital shell sets:                                           1
       Number of orbital shells:                                               9
       Number of primitive Cartesian functions:                                5
       Number of Cartesian basis functions:                                   34
       Number of spherical basis functions:                                   29
       Norm type:                                                              2

       Normalised Cartesian orbitals:

                        Set   Shell   Orbital            Exponent    Coefficient

                          1       1    2s                5.599010      -0.388516
                                                         2.008517      -0.222960
                                                         0.755557       0.256069
                                                         0.292158       0.177682
                                                         0.105328       0.019401

                          1       2    3s                5.599010       0.700337
                                                         2.008517       0.202467
                                                         0.755557      -0.073086
                                                         0.292158      -0.004274
                                                         0.105328       0.122810

                          1       3    4s                5.599010      -2.176345
                                                         2.008517      -0.220775
                                                         0.755557       0.109238
                                                         0.292158      -0.129517
                                                         0.105328       0.038801

                          1       4    3px               5.599010      -0.769001
                                                         2.008517      -0.634471
                                                         0.755557      -0.400220
                                                         0.292158      -0.124705
                                                         0.105328      -0.014325
                          1       4    3py               5.599010      -0.769001
                                                         2.008517      -0.634471
                                                         0.755557      -0.400220
                                                         0.292158      -0.124705
                                                         0.105328      -0.014325
                          1       4    3pz               5.599010      -0.769001
                                                         2.008517      -0.634471
                                                         0.755557      -0.400220
                                                         0.292158      -0.124705
                                                         0.105328      -0.014325

                          1       5    4px               5.599010       0.895802
                                                         2.008517       0.817480
                                                         0.755557       0.269326
                                                         0.292158       0.009009
                                                         0.105328      -0.085852
                          1       5    4py               5.599010       0.895802
                                                         2.008517       0.817480
                                                         0.755557       0.269326
                                                         0.292158       0.009009
                                                         0.105328      -0.085852
                          1       5    4pz               5.599010       0.895802
                                                         2.008517       0.817480
                                                         0.755557       0.269326
                                                         0.292158       0.009009
                                                         0.105328      -0.085852

                          1       6    5px               5.599010       1.029767
                                                         2.008517       2.903527
                                                         0.755557       0.336187
                                                         0.292158      -0.258025
                                                         0.105328       0.023472
                          1       6    5py               5.599010       1.029767
                                                         2.008517       2.903527
                                                         0.755557       0.336187
                                                         0.292158      -0.258025
                                                         0.105328       0.023472
                          1       6    5pz               5.599010       1.029767
                                                         2.008517       2.903527
                                                         0.755557       0.336187
                                                         0.292158      -0.258025
                                                         0.105328       0.023472

                          1       7    4dx2              5.599010      -4.629244
                                                         2.008517       1.670071
                                                         0.755557       0.309368
                                                         0.292158       0.124707
                                                         0.105328      -0.001260
                          1       7    4dxy              5.599010      -8.018085
                                                         2.008517       2.892648
                                                         0.755557       0.535841
                                                         0.292158       0.215998
                                                         0.105328      -0.002182
                          1       7    4dxz              5.599010      -8.018085
                                                         2.008517       2.892648
                                                         0.755557       0.535841
                                                         0.292158       0.215998
                                                         0.105328      -0.002182
                          1       7    4dy2              5.599010      -4.629244
                                                         2.008517       1.670071
                                                         0.755557       0.309368
                                                         0.292158       0.124707
                                                         0.105328      -0.001260
                          1       7    4dyz              5.599010      -8.018085
                                                         2.008517       2.892648
                                                         0.755557       0.535841
                                                         0.292158       0.215998
                                                         0.105328      -0.002182
                          1       7    4dz2              5.599010      -4.629244
                                                         2.008517       1.670071
                                                         0.755557       0.309368
                                                         0.292158       0.124707
                                                         0.105328      -0.001260

                          1       8    5dx2              5.599010      -0.765539
                                                         2.008517       0.044731
                                                         0.755557       0.033894
                                                         0.292158       0.006499
                                                         0.105328       0.031042
                          1       8    5dxy              5.599010      -1.325952
                                                         2.008517       0.077477
                                                         0.755557       0.058707
                                                         0.292158       0.011257
                                                         0.105328       0.053766
                          1       8    5dxz              5.599010      -1.325952
                                                         2.008517       0.077477
                                                         0.755557       0.058707
                                                         0.292158       0.011257
                                                         0.105328       0.053766
                          1       8    5dy2              5.599010      -0.765539
                                                         2.008517       0.044731
                                                         0.755557       0.033894
                                                         0.292158       0.006499
                                                         0.105328       0.031042
                          1       8    5dyz              5.599010      -1.325952
                                                         2.008517       0.077477
                                                         0.755557       0.058707
                                                         0.292158       0.011257
                                                         0.105328       0.053766
                          1       8    5dz2              5.599010      -0.765539
                                                         2.008517       0.044731
                                                         0.755557       0.033894
                                                         0.292158       0.006499
                                                         0.105328       0.031042

                          1       9    5fx3              5.599010      -0.150044
                                                         2.008517      -0.042629
                                                         0.755557       0.009866
                                                         0.292158       0.091648
                                                         0.105328       0.000020
                          1       9    5fx2y             5.599010      -0.335509
                                                         2.008517      -0.095321
                                                         0.755557       0.022061
                                                         0.292158       0.204931
                                                         0.105328       0.000045
                          1       9    5fx2z             5.599010      -0.335509
                                                         2.008517      -0.095321
                                                         0.755557       0.022061
                                                         0.292158       0.204931
                                                         0.105328       0.000045
                          1       9    5fxy2             5.599010      -0.335509
                                                         2.008517      -0.095321
                                                         0.755557       0.022061
                                                         0.292158       0.204931
                                                         0.105328       0.000045
                          1       9    5fxyz             5.599010      -0.581119
                                                         2.008517      -0.165100
                                                         0.755557       0.038210
                                                         0.292158       0.354951
                                                         0.105328       0.000078
                          1       9    5fxz2             5.599010      -0.335509
                                                         2.008517      -0.095321
                                                         0.755557       0.022061
                                                         0.292158       0.204931
                                                         0.105328       0.000045
                          1       9    5fy3              5.599010      -0.150044
                                                         2.008517      -0.042629
                                                         0.755557       0.009866
                                                         0.292158       0.091648
                                                         0.105328       0.000020
                          1       9    5fy2z             5.599010      -0.335509
                                                         2.008517      -0.095321
                                                         0.755557       0.022061
                                                         0.292158       0.204931
                                                         0.105328       0.000045
                          1       9    5fyz2             5.599010      -0.335509
                                                         2.008517      -0.095321
                                                         0.755557       0.022061
                                                         0.292158       0.204931
                                                         0.105328       0.000045
                          1       9    5fz3              5.599010      -0.150044
                                                         2.008517      -0.042629
                                                         0.755557       0.009866
                                                         0.292158       0.091648
                                                         0.105328       0.000020

       Atomic covalent radius [Angstrom]:                                  0.770

       Atomic van der Waals radius [Angstrom]:                             1.700

     The atoms of this atomic kind are PAW atoms (GAPW):
       Hard Gaussian function radius:                                      1.520
       Rho0 radius:                                                        1.520
       Maximum GTO radius used for PAW projector construction:            24.566

     GAPW Soft Basis Set                            TZV2P-MOLOPT-PBE-GTH-q4_soft

       Number of orbital shell sets:                                           1
       Number of orbital shells:                                               9
       Number of primitive Cartesian functions:                                4
       Number of Cartesian basis functions:                                   34
       Number of spherical basis functions:                                   29
       Norm type:                                                              2

       Normalised Cartesian orbitals:

                        Set   Shell   Orbital            Exponent    Coefficient

                          1       1    2s                2.008517      -0.222960
                                                         0.755557       0.256069
                                                         0.292158       0.177682
                                                         0.105328       0.019401

                          1       2    3s                2.008517       0.202467
                                                         0.755557      -0.073086
                                                         0.292158      -0.004274
                                                         0.105328       0.122810

                          1       3    4s                2.008517      -0.220775
                                                         0.755557       0.109238
                                                         0.292158      -0.129517
                                                         0.105328       0.038801

                          1       4    3px               2.008517      -0.634471
                                                         0.755557      -0.400220
                                                         0.292158      -0.124705
                                                         0.105328      -0.014325
                          1       4    3py               2.008517      -0.634471
                                                         0.755557      -0.400220
                                                         0.292158      -0.124705
                                                         0.105328      -0.014325
                          1       4    3pz               2.008517      -0.634471
                                                         0.755557      -0.400220
                                                         0.292158      -0.124705
                                                         0.105328      -0.014325

                          1       5    4px               2.008517       0.817480
                                                         0.755557       0.269326
                                                         0.292158       0.009009
                                                         0.105328      -0.085852
                          1       5    4py               2.008517       0.817480
                                                         0.755557       0.269326
                                                         0.292158       0.009009
                                                         0.105328      -0.085852
                          1       5    4pz               2.008517       0.817480
                                                         0.755557       0.269326
                                                         0.292158       0.009009
                                                         0.105328      -0.085852

                          1       6    5px               2.008517       2.903527
                                                         0.755557       0.336187
                                                         0.292158      -0.258025
                                                         0.105328       0.023472
                          1       6    5py               2.008517       2.903527
                                                         0.755557       0.336187
                                                         0.292158      -0.258025
                                                         0.105328       0.023472
                          1       6    5pz               2.008517       2.903527
                                                         0.755557       0.336187
                                                         0.292158      -0.258025
                                                         0.105328       0.023472

                          1       7    4dx2              2.008517       1.670071
                                                         0.755557       0.309368
                                                         0.292158       0.124707
                                                         0.105328      -0.001260
                          1       7    4dxy              2.008517       2.892648
                                                         0.755557       0.535841
                                                         0.292158       0.215998
                                                         0.105328      -0.002182
                          1       7    4dxz              2.008517       2.892648
                                                         0.755557       0.535841
                                                         0.292158       0.215998
                                                         0.105328      -0.002182
                          1       7    4dy2              2.008517       1.670071
                                                         0.755557       0.309368
                                                         0.292158       0.124707
                                                         0.105328      -0.001260
                          1       7    4dyz              2.008517       2.892648
                                                         0.755557       0.535841
                                                         0.292158       0.215998
                                                         0.105328      -0.002182
                          1       7    4dz2              2.008517       1.670071
                                                         0.755557       0.309368
                                                         0.292158       0.124707
                                                         0.105328      -0.001260

                          1       8    5dx2              2.008517       0.044731
                                                         0.755557       0.033894
                                                         0.292158       0.006499
                                                         0.105328       0.031042
                          1       8    5dxy              2.008517       0.077477
                                                         0.755557       0.058707
                                                         0.292158       0.011257
                                                         0.105328       0.053766
                          1       8    5dxz              2.008517       0.077477
                                                         0.755557       0.058707
                                                         0.292158       0.011257
                                                         0.105328       0.053766
                          1       8    5dy2              2.008517       0.044731
                                                         0.755557       0.033894
                                                         0.292158       0.006499
                                                         0.105328       0.031042
                          1       8    5dyz              2.008517       0.077477
                                                         0.755557       0.058707
                                                         0.292158       0.011257
                                                         0.105328       0.053766
                          1       8    5dz2              2.008517       0.044731
                                                         0.755557       0.033894
                                                         0.292158       0.006499
                                                         0.105328       0.031042

                          1       9    5fx3              2.008517      -0.042629
                                                         0.755557       0.009866
                                                         0.292158       0.091648
                                                         0.105328       0.000020
                          1       9    5fx2y             2.008517      -0.095321
                                                         0.755557       0.022061
                                                         0.292158       0.204931
                                                         0.105328       0.000045
                          1       9    5fx2z             2.008517      -0.095321
                                                         0.755557       0.022061
                                                         0.292158       0.204931
                                                         0.105328       0.000045
                          1       9    5fxy2             2.008517      -0.095321
                                                         0.755557       0.022061
                                                         0.292158       0.204931
                                                         0.105328       0.000045
                          1       9    5fxyz             2.008517      -0.165100
                                                         0.755557       0.038210
                                                         0.292158       0.354951
                                                         0.105328       0.000078
                          1       9    5fxz2             2.008517      -0.095321
                                                         0.755557       0.022061
                                                         0.292158       0.204931
                                                         0.105328       0.000045
                          1       9    5fy3              2.008517      -0.042629
                                                         0.755557       0.009866
                                                         0.292158       0.091648
                                                         0.105328       0.000020
                          1       9    5fy2z             2.008517      -0.095321
                                                         0.755557       0.022061
                                                         0.292158       0.204931
                                                         0.105328       0.000045
                          1       9    5fyz2             2.008517      -0.095321
                                                         0.755557       0.022061
                                                         0.292158       0.204931
                                                         0.105328       0.000045
                          1       9    5fz3              2.008517      -0.042629
                                                         0.755557       0.009866
                                                         0.292158       0.091648
                                                         0.105328       0.000020

     GTH Potential information for                                    GTH-PBE-q4

       Description:                       Goedecker-Teter-Hutter pseudopotential
                                           Goedecker et al., PRB 54, 1703 (1996)
                                          Hartwigsen et al., PRB 58, 3641 (1998)
                                                      Krack, TCA 114, 145 (2005)

       Gaussian exponent of the core charge distribution:               4.362265
       Electronic configuration (s p d ...):                       2   2   0   0

       Parameters of the local part of the GTH pseudopotential:

                          rloc        C1          C2          C3          C4
                        0.338555   -8.804552    1.338377

       Parameters of the non-local part of the GTH pseudopotential:

                   l      r(l)      h(i,j,l)

                   0    0.302610    9.622862

  2. Atomic kind: N                                     Number of atoms:       2

     Orbital Basis Set                                   TZV2P-MOLOPT-PBE-GTH-q5

       Number of orbital shell sets:                                           1
       Number of orbital shells:                                               9
       Number of primitive Cartesian functions:                                5
       Number of Cartesian basis functions:                                   34
       Number of spherical basis functions:                                   29
       Norm type:                                                              2

       Normalised Cartesian orbitals:

                        Set   Shell   Orbital            Exponent    Coefficient

                          1       1    2s                7.677291      -0.433945
                                                         2.819662      -0.225884
                                                         1.091144       0.281004
                                                         0.431009       0.272485
                                                         0.138938       0.015194

                          1       2    3s                7.677291       0.166796
                                                         2.819662       0.071789
                                                         1.091144      -0.075890
                                                         0.431009      -0.026983
                                                         0.138938       0.175604

                          1       3    4s                7.677291      -2.778831
                                                         2.819662      -0.627092
                                                         1.091144       0.528782
                                                         0.431009      -0.229325
                                                         0.138938       0.013164

                          1       4    3px               7.677291      -1.160805
                                                         2.819662      -0.968875
                                                         1.091144      -0.555552
                                                         0.431009      -0.214049
                                                         0.138938      -0.025189
                          1       4    3py               7.677291      -1.160805
                                                         2.819662      -0.968875
                                                         1.091144      -0.555552
                                                         0.431009      -0.214049
                                                         0.138938      -0.025189
                          1       4    3pz               7.677291      -1.160805
                                                         2.819662      -0.968875
                                                         1.091144      -0.555552
                                                         0.431009      -0.214049
                                                         0.138938      -0.025189

                          1       5    4px               7.677291       1.006840
                                                         2.819662       0.803085
                                                         1.091144       0.516640
                                                         0.431009       0.089613
                                                         0.138938      -0.129545
                          1       5    4py               7.677291       1.006840
                                                         2.819662       0.803085
                                                         1.091144       0.516640
                                                         0.431009       0.089613
                                                         0.138938      -0.129545
                          1       5    4pz               7.677291       1.006840
                                                         2.819662       0.803085
                                                         1.091144       0.516640
                                                         0.431009       0.089613
                                                         0.138938      -0.129545

                          1       6    5px               7.677291       2.926325
                                                         2.819662       2.482327
                                                         1.091144       1.352293
                                                         0.431009      -0.498852
                                                         0.138938       0.020139
                          1       6    5py               7.677291       2.926325
                                                         2.819662       2.482327
                                                         1.091144       1.352293
                                                         0.431009      -0.498852
                                                         0.138938       0.020139
                          1       6    5pz               7.677291       2.926325
                                                         2.819662       2.482327
                                                         1.091144       1.352293
                                                         0.431009      -0.498852
                                                         0.138938       0.020139

                          1       7    4dx2              7.677291       2.735993
                                                         2.819662       0.863524
                                                         1.091144       0.633376
                                                         0.431009       0.247924
                                                         0.138938       0.003429
                          1       7    4dxy              7.677291       4.738879
                                                         2.819662       1.495667
                                                         1.091144       1.097040
                                                         0.431009       0.429417
                                                         0.138938       0.005939
                          1       7    4dxz              7.677291       4.738879
                                                         2.819662       1.495667
                                                         1.091144       1.097040
                                                         0.431009       0.429417
                                                         0.138938       0.005939
                          1       7    4dy2              7.677291       2.735993
                                                         2.819662       0.863524
                                                         1.091144       0.633376
                                                         0.431009       0.247924
                                                         0.138938       0.003429
                          1       7    4dyz              7.677291       4.738879
                                                         2.819662       1.495667
                                                         1.091144       1.097040
                                                         0.431009       0.429417
                                                         0.138938       0.005939
                          1       7    4dz2              7.677291       2.735993
                                                         2.819662       0.863524
                                                         1.091144       0.633376
                                                         0.431009       0.247924
                                                         0.138938       0.003429

                          1       8    5dx2              7.677291       0.711513
                                                         2.819662      -0.221827
                                                         1.091144      -0.090019
                                                         0.431009      -0.030116
                                                         0.138938       0.054690
                          1       8    5dxy              7.677291       1.232378
                                                         2.819662      -0.384215
                                                         1.091144      -0.155918
                                                         0.431009      -0.052163
                                                         0.138938       0.094727
                          1       8    5dxz              7.677291       1.232378
                                                         2.819662      -0.384215
                                                         1.091144      -0.155918
                                                         0.431009      -0.052163
                                                         0.138938       0.094727
                          1       8    5dy2              7.677291       0.711513
                                                         2.819662      -0.221827
                                                         1.091144      -0.090019
                                                         0.431009      -0.030116
                                                         0.138938       0.054690
                          1       8    5dyz              7.677291       1.232378
                                                         2.819662      -0.384215
                                                         1.091144      -0.155918
                                                         0.431009      -0.052163
                                                         0.138938       0.094727
                          1       8    5dz2              7.677291       0.711513
                                                         2.819662      -0.221827
                                                         1.091144      -0.090019
                                                         0.431009      -0.030116
                                                         0.138938       0.054690

                          1       9    5fx3              7.677291      -1.237806
                                                         2.819662      -0.068561
                                                         1.091144       0.003479
                                                         0.431009       0.222292
                                                         0.138938      -0.000119
                          1       9    5fx2y             7.677291      -2.767819
                                                         2.819662      -0.153307
                                                         1.091144       0.007780
                                                         0.431009       0.497060
                                                         0.138938      -0.000265
                          1       9    5fx2z             7.677291      -2.767819
                                                         2.819662      -0.153307
                                                         1.091144       0.007780
                                                         0.431009       0.497060
                                                         0.138938      -0.000265
                          1       9    5fxy2             7.677291      -2.767819
                                                         2.819662      -0.153307
                                                         1.091144       0.007780
                                                         0.431009       0.497060
                                                         0.138938      -0.000265
                          1       9    5fxyz             7.677291      -4.794003
                                                         2.819662      -0.265535
                                                         1.091144       0.013476
                                                         0.431009       0.860933
                                                         0.138938      -0.000460
                          1       9    5fxz2             7.677291      -2.767819
                                                         2.819662      -0.153307
                                                         1.091144       0.007780
                                                         0.431009       0.497060
                                                         0.138938      -0.000265
                          1       9    5fy3              7.677291      -1.237806
                                                         2.819662      -0.068561
                                                         1.091144       0.003479
                                                         0.431009       0.222292
                                                         0.138938      -0.000119
                          1       9    5fy2z             7.677291      -2.767819
                                                         2.819662      -0.153307
                                                         1.091144       0.007780
                                                         0.431009       0.497060
                                                         0.138938      -0.000265
                          1       9    5fyz2             7.677291      -2.767819
                                                         2.819662      -0.153307
                                                         1.091144       0.007780
                                                         0.431009       0.497060
                                                         0.138938      -0.000265
                          1       9    5fz3              7.677291      -1.237806
                                                         2.819662      -0.068561
                                                         1.091144       0.003479
                                                         0.431009       0.222292
                                                         0.138938      -0.000119

       Atomic covalent radius [Angstrom]:                                  0.750

       Atomic van der Waals radius [Angstrom]:                             1.550

     The atoms of this atomic kind are PAW atoms (GAPW):
       Hard Gaussian function radius:                                      1.400
       Rho0 radius:                                                        1.400
       Maximum GTO radius used for PAW projector construction:            24.566

     GAPW Soft Basis Set                            TZV2P-MOLOPT-PBE-GTH-q5_soft

       Number of orbital shell sets:                                           1
       Number of orbital shells:                                               9
       Number of primitive Cartesian functions:                                4
       Number of Cartesian basis functions:                                   34
       Number of spherical basis functions:                                   29
       Norm type:                                                              2

       Normalised Cartesian orbitals:

                        Set   Shell   Orbital            Exponent    Coefficient

                          1       1    2s                2.819662      -0.225884
                                                         1.091144       0.281004
                                                         0.431009       0.272485
                                                         0.138938       0.015194

                          1       2    3s                2.819662       0.071789
                                                         1.091144      -0.075890
                                                         0.431009      -0.026983
                                                         0.138938       0.175604

                          1       3    4s                2.819662      -0.627092
                                                         1.091144       0.528782
                                                         0.431009      -0.229325
                                                         0.138938       0.013164

                          1       4    3px               2.819662      -0.968875
                                                         1.091144      -0.555552
                                                         0.431009      -0.214049
                                                         0.138938      -0.025189
                          1       4    3py               2.819662      -0.968875
                                                         1.091144      -0.555552
                                                         0.431009      -0.214049
                                                         0.138938      -0.025189
                          1       4    3pz               2.819662      -0.968875
                                                         1.091144      -0.555552
                                                         0.431009      -0.214049
                                                         0.138938      -0.025189

                          1       5    4px               2.819662       0.803085
                                                         1.091144       0.516640
                                                         0.431009       0.089613
                                                         0.138938      -0.129545
                          1       5    4py               2.819662       0.803085
                                                         1.091144       0.516640
                                                         0.431009       0.089613
                                                         0.138938      -0.129545
                          1       5    4pz               2.819662       0.803085
                                                         1.091144       0.516640
                                                         0.431009       0.089613
                                                         0.138938      -0.129545

                          1       6    5px               2.819662       2.482327
                                                         1.091144       1.352293
                                                         0.431009      -0.498852
                                                         0.138938       0.020139
                          1       6    5py               2.819662       2.482327
                                                         1.091144       1.352293
                                                         0.431009      -0.498852
                                                         0.138938       0.020139
                          1       6    5pz               2.819662       2.482327
                                                         1.091144       1.352293
                                                         0.431009      -0.498852
                                                         0.138938       0.020139

                          1       7    4dx2              2.819662       0.863524
                                                         1.091144       0.633376
                                                         0.431009       0.247924
                                                         0.138938       0.003429
                          1       7    4dxy              2.819662       1.495667
                                                         1.091144       1.097040
                                                         0.431009       0.429417
                                                         0.138938       0.005939
                          1       7    4dxz              2.819662       1.495667
                                                         1.091144       1.097040
                                                         0.431009       0.429417
                                                         0.138938       0.005939
                          1       7    4dy2              2.819662       0.863524
                                                         1.091144       0.633376
                                                         0.431009       0.247924
                                                         0.138938       0.003429
                          1       7    4dyz              2.819662       1.495667
                                                         1.091144       1.097040
                                                         0.431009       0.429417
                                                         0.138938       0.005939
                          1       7    4dz2              2.819662       0.863524
                                                         1.091144       0.633376
                                                         0.431009       0.247924
                                                         0.138938       0.003429

                          1       8    5dx2              2.819662      -0.221827
                                                         1.091144      -0.090019
                                                         0.431009      -0.030116
                                                         0.138938       0.054690
                          1       8    5dxy              2.819662      -0.384215
                                                         1.091144      -0.155918
                                                         0.431009      -0.052163
                                                         0.138938       0.094727
                          1       8    5dxz              2.819662      -0.384215
                                                         1.091144      -0.155918
                                                         0.431009      -0.052163
                                                         0.138938       0.094727
                          1       8    5dy2              2.819662      -0.221827
                                                         1.091144      -0.090019
                                                         0.431009      -0.030116
                                                         0.138938       0.054690
                          1       8    5dyz              2.819662      -0.384215
                                                         1.091144      -0.155918
                                                         0.431009      -0.052163
                                                         0.138938       0.094727
                          1       8    5dz2              2.819662      -0.221827
                                                         1.091144      -0.090019
                                                         0.431009      -0.030116
                                                         0.138938       0.054690

                          1       9    5fx3              2.819662      -0.068561
                                                         1.091144       0.003479
                                                         0.431009       0.222292
                                                         0.138938      -0.000119
                          1       9    5fx2y             2.819662      -0.153307
                                                         1.091144       0.007780
                                                         0.431009       0.497060
                                                         0.138938      -0.000265
                          1       9    5fx2z             2.819662      -0.153307
                                                         1.091144       0.007780
                                                         0.431009       0.497060
                                                         0.138938      -0.000265
                          1       9    5fxy2             2.819662      -0.153307
                                                         1.091144       0.007780
                                                         0.431009       0.497060
                                                         0.138938      -0.000265
                          1       9    5fxyz             2.819662      -0.265535
                                                         1.091144       0.013476
                                                         0.431009       0.860933
                                                         0.138938      -0.000460
                          1       9    5fxz2             2.819662      -0.153307
                                                         1.091144       0.007780
                                                         0.431009       0.497060
                                                         0.138938      -0.000265
                          1       9    5fy3              2.819662      -0.068561
                                                         1.091144       0.003479
                                                         0.431009       0.222292
                                                         0.138938      -0.000119
                          1       9    5fy2z             2.819662      -0.153307
                                                         1.091144       0.007780
                                                         0.431009       0.497060
                                                         0.138938      -0.000265
                          1       9    5fyz2             2.819662      -0.153307
                                                         1.091144       0.007780
                                                         0.431009       0.497060
                                                         0.138938      -0.000265
                          1       9    5fz3              2.819662      -0.068561
                                                         1.091144       0.003479
                                                         0.431009       0.222292
                                                         0.138938      -0.000119

     GTH Potential information for                                    GTH-PBE-q5

       Description:                       Goedecker-Teter-Hutter pseudopotential
                                           Goedecker et al., PRB 54, 1703 (1996)
                                          Hartwigsen et al., PRB 58, 3641 (1998)
                                                      Krack, TCA 114, 145 (2005)

       Gaussian exponent of the core charge distribution:               6.206770
       Electronic configuration (s p d ...):                       2   3   0   0

       Parameters of the local part of the GTH pseudopotential:

                          rloc        C1          C2          C3          C4
                        0.283826  -12.415174    1.868136

       Parameters of the non-local part of the GTH pseudopotential:

                   l      r(l)      h(i,j,l)

                   0    0.255418   13.631249

  3. Atomic kind: H                                     Number of atoms:      12

     Orbital Basis Set                                   TZV2P-MOLOPT-PBE-GTH-q1

       Number of orbital shell sets:                                           1
       Number of orbital shells:                                               6
       Number of primitive Cartesian functions:                                5
       Number of Cartesian basis functions:                                   15
       Number of spherical basis functions:                                   14
       Norm type:                                                              2

       Normalised Cartesian orbitals:

                        Set   Shell   Orbital            Exponent    Coefficient

                          1       1    2s                9.586642       0.069481
                                                         2.202360       0.112147
                                                         0.604094       0.130550
                                                         0.146498       0.088477
                                                         0.139526       0.035929

                          1       2    3s                9.586642      -0.087313
                                                         2.202360      -0.117928
                                                         0.604094      -0.099372
                                                         0.146498      -0.105375
                                                         0.139526       0.287433

                          1       3    4s                9.586642       0.882480
                                                         2.202360       0.096105
                                                         0.604094      -0.739894
                                                         0.146498       0.120904
                                                         0.139526       0.013904

                          1       4    3px               9.586642      -2.186125
                                                         2.202360       1.112625
                                                         0.604094       0.330981
                                                         0.146498       0.087385
                                                         0.139526      -0.016905
                          1       4    3py               9.586642      -2.186125
                                                         2.202360       1.112625
                                                         0.604094       0.330981
                                                         0.146498       0.087385
                                                         0.139526      -0.016905
                          1       4    3pz               9.586642      -2.186125
                                                         2.202360       1.112625
                                                         0.604094       0.330981
                                                         0.146498       0.087385
                                                         0.139526      -0.016905

                          1       5    4px               9.586642       1.866908
                                                         2.202360       0.174551
                                                         0.604094       0.060190
                                                         0.146498       0.014182
                                                         0.139526       0.100545
                          1       5    4py               9.586642       1.866908
                                                         2.202360       0.174551
                                                         0.604094       0.060190
                                                         0.146498       0.014182
                                                         0.139526       0.100545
                          1       5    4pz               9.586642       1.866908
                                                         2.202360       0.174551
                                                         0.604094       0.060190
                                                         0.146498       0.014182
                                                         0.139526       0.100545

                          1       6    4dx2              9.586642       0.111501
                                                         2.202360      -0.020603
                                                         0.604094      -0.012612
                                                         0.146498      -0.000171
                                                         0.139526       0.052995
                          1       6    4dxy              9.586642       0.193125
                                                         2.202360      -0.035686
                                                         0.604094      -0.021844
                                                         0.146498      -0.000296
                                                         0.139526       0.091790
                          1       6    4dxz              9.586642       0.193125
                                                         2.202360      -0.035686
                                                         0.604094      -0.021844
                                                         0.146498      -0.000296
                                                         0.139526       0.091790
                          1       6    4dy2              9.586642       0.111501
                                                         2.202360      -0.020603
                                                         0.604094      -0.012612
                                                         0.146498      -0.000171
                                                         0.139526       0.052995
                          1       6    4dyz              9.586642       0.193125
                                                         2.202360      -0.035686
                                                         0.604094      -0.021844
                                                         0.146498      -0.000296
                                                         0.139526       0.091790
                          1       6    4dz2              9.586642       0.111501
                                                         2.202360      -0.020603
                                                         0.604094      -0.012612
                                                         0.146498      -0.000171
                                                         0.139526       0.052995

       Atomic covalent radius [Angstrom]:                                  0.320

       Atomic van der Waals radius [Angstrom]:                             1.090

     The atoms of this atomic kind are PAW atoms (GAPW):
       Hard Gaussian function radius:                                      1.000
       Rho0 radius:                                                        1.000
       Maximum GTO radius used for PAW projector construction:            24.566

     GAPW Soft Basis Set                            TZV2P-MOLOPT-PBE-GTH-q1_soft

       Number of orbital shell sets:                                           1
       Number of orbital shells:                                               6
       Number of primitive Cartesian functions:                                4
       Number of Cartesian basis functions:                                   15
       Number of spherical basis functions:                                   14
       Norm type:                                                              2

       Normalised Cartesian orbitals:

                        Set   Shell   Orbital            Exponent    Coefficient

                          1       1    2s                2.202360       0.112147
                                                         0.604094       0.130550
                                                         0.146498       0.088477
                                                         0.139526       0.035929

                          1       2    3s                2.202360      -0.117928
                                                         0.604094      -0.099372
                                                         0.146498      -0.105375
                                                         0.139526       0.287433

                          1       3    4s                2.202360       0.096105
                                                         0.604094      -0.739894
                                                         0.146498       0.120904
                                                         0.139526       0.013904

                          1       4    3px               2.202360       1.112625
                                                         0.604094       0.330981
                                                         0.146498       0.087385
                                                         0.139526      -0.016905
                          1       4    3py               2.202360       1.112625
                                                         0.604094       0.330981
                                                         0.146498       0.087385
                                                         0.139526      -0.016905
                          1       4    3pz               2.202360       1.112625
                                                         0.604094       0.330981
                                                         0.146498       0.087385
                                                         0.139526      -0.016905

                          1       5    4px               2.202360       0.174551
                                                         0.604094       0.060190
                                                         0.146498       0.014182
                                                         0.139526       0.100545
                          1       5    4py               2.202360       0.174551
                                                         0.604094       0.060190
                                                         0.146498       0.014182
                                                         0.139526       0.100545
                          1       5    4pz               2.202360       0.174551
                                                         0.604094       0.060190
                                                         0.146498       0.014182
                                                         0.139526       0.100545

                          1       6    4dx2              2.202360      -0.020603
                                                         0.604094      -0.012612
                                                         0.146498      -0.000171
                                                         0.139526       0.052995
                          1       6    4dxy              2.202360      -0.035686
                                                         0.604094      -0.021844
                                                         0.146498      -0.000296
                                                         0.139526       0.091790
                          1       6    4dxz              2.202360      -0.035686
                                                         0.604094      -0.021844
                                                         0.146498      -0.000296
                                                         0.139526       0.091790
                          1       6    4dy2              2.202360      -0.020603
                                                         0.604094      -0.012612
                                                         0.146498      -0.000171
                                                         0.139526       0.052995
                          1       6    4dyz              2.202360      -0.035686
                                                         0.604094      -0.021844
                                                         0.146498      -0.000296
                                                         0.139526       0.091790
                          1       6    4dz2              2.202360      -0.020603
                                                         0.604094      -0.012612
                                                         0.146498      -0.000171
                                                         0.139526       0.052995

     GTH Potential information for                                    GTH-PBE-q1

       Description:                       Goedecker-Teter-Hutter pseudopotential
                                           Goedecker et al., PRB 54, 1703 (1996)
                                          Hartwigsen et al., PRB 58, 3641 (1998)
                                                      Krack, TCA 114, 145 (2005)

       Gaussian exponent of the core charge distribution:              12.426182
       Electronic configuration (s p d ...):                       1   0   0   0

       Parameters of the local part of the GTH pseudopotential:

                          rloc        C1          C2          C3          C4
                        0.200593   -4.178068    0.724409


 MOLECULE KIND INFORMATION


 All atoms are their own molecule, skipping detailed information


 TOTAL NUMBERS AND MAXIMUM NUMBERS

  Total number of            - Atomic kinds:                                   3
                             - Atoms:                                         26
                             - Shell sets:                                    26
                             - Shells:                                       198
                             - Primitive Cartesian functions:                130
                             - Cartesian basis functions:                    656
                             - Spherical basis functions:                    574

  Maximum angular momentum of- Orbital basis functions:                        3
                             - Local part of the GTH pseudopotential:          2
                             - Non-local part of the GTH pseudopotential:      0


 MODULE QUICKSTEP: ATOMIC COORDINATES IN ANGSTROM

   Atom Kind Element         X             Y             Z       Z(eff)     Mass
      1    1 C     6     16.523730     13.846840     13.168625   4.0000  12.0107
      2    1 C     6     15.131080     13.841190     13.166735   4.0000  12.0107
      3    1 C     6     14.407740     15.001850     13.499665   4.0000  12.0107
      4    1 C     6     15.131760     16.161590     13.834705   4.0000  12.0107
      5    1 C     6     16.524310     16.154500     13.834825   4.0000  12.0107
      6    1 C     6     17.260690     15.000230     13.502485   4.0000  12.0107
      7    1 C     6     19.476270     16.153160     13.168625   4.0000  12.0107
      8    1 C     6     18.739310     14.999770     13.502485   4.0000  12.0107
      9    1 C     6     19.475690     13.845500     13.834825   4.0000  12.0107
     10    1 C     6     20.868240     13.838410     13.834705   4.0000  12.0107
     11    1 C     6     21.592260     14.998150     13.499665   4.0000  12.0107
     12    1 C     6     20.868920     16.158810     13.166735   4.0000  12.0107
     13    2 N     7     22.990960     15.013850     13.553795   5.0000  14.0067
     14    2 N     7     13.009040     14.986150     13.553795   5.0000  14.0067
     15    3 H     1     17.054420     12.942150     12.878835   1.0000   1.0079
     16    3 H     1     14.592240     12.933400     12.895885   1.0000   1.0079
     17    3 H     1     14.593330     17.068050     14.110465   1.0000   1.0079
     18    3 H     1     17.055570     17.059920     14.121165   1.0000   1.0079
     19    3 H     1     18.945580     17.057850     12.878835   1.0000   1.0079
     20    3 H     1     18.944430     12.940080     14.121165   1.0000   1.0079
     21    3 H     1     21.406670     12.931950     14.110465   1.0000   1.0079
     22    3 H     1     21.407760     17.066600     12.895885   1.0000   1.0079
     23    3 H     1     23.435340     14.112160     13.436785   1.0000   1.0079
     24    3 H     1     23.434540     15.731270     12.994545   1.0000   1.0079
     25    3 H     1     12.565460     14.268730     12.994545   1.0000   1.0079
     26    3 H     1     12.564660     15.887840     13.436785   1.0000   1.0079



 SCF PARAMETERS         Density guess:                                    ATOMIC
                        --------------------------------------------------------
                        max_scf:                                             200
                        max_scf_history:                                       0
                        max_diis:                                              4
                        --------------------------------------------------------
                        eps_scf:                                        1.00E-07
                        eps_scf_history:                                0.00E+00
                        eps_diis:                                       0.00E+00
                        eps_eigval:                                     1.00E-05
                        --------------------------------------------------------
                        level_shift [a.u.]:                             0.000000
                        --------------------------------------------------------
                        Outer loop SCF in use 
                        No variables optimised in outer loop
                        eps_scf                                         1.00E-07
                        max_scf                                               20
                        No outer loop optimization
                        step_size                                       5.00E-01

 PW_GRID| Information for grid number                                          1
 PW_GRID| Cutoff [a.u.]                                                    200.0
 PW_GRID| spherical cutoff:                                                   NO
 PW_GRID|   Bounds   1           -225     224                Points:         450
 PW_GRID|   Bounds   2           -187     187                Points:         375
 PW_GRID|   Bounds   3           -180     179                Points:         360
 PW_GRID| Volume element (a.u.^3)  0.3239E-02     Volume (a.u.^3)    196781.4364
 PW_GRID| Grid span                                                    FULLSPACE

 PW_GRID| Information for grid number                                          2
 PW_GRID| Number of the reference grid                                         1
 PW_GRID| Cutoff [a.u.]                                                     66.7
 PW_GRID| spherical cutoff:                                                   NO
 PW_GRID|   Bounds   1           -128     127                Points:         256
 PW_GRID|   Bounds   2           -108     107                Points:         216
 PW_GRID|   Bounds   3            -96      95                Points:         192
 PW_GRID| Volume element (a.u.^3)  0.1853E-01     Volume (a.u.^3)    196781.4364
 PW_GRID| Grid span                                                    FULLSPACE

 PW_GRID| Information for grid number                                          3
 PW_GRID| Number of the reference grid                                         1
 PW_GRID| Cutoff [a.u.]                                                     22.2
 PW_GRID| spherical cutoff:                                                   NO
 PW_GRID|   Bounds   1            -75      74                Points:         150
 PW_GRID|   Bounds   2            -62      62                Points:         125
 PW_GRID|   Bounds   3            -60      59                Points:         120
 PW_GRID| Volume element (a.u.^3)  0.8746E-01     Volume (a.u.^3)    196781.4364
 PW_GRID| Grid span                                                    FULLSPACE

 PW_GRID| Information for grid number                                          4
 PW_GRID| Number of the reference grid                                         1
 PW_GRID| Cutoff [a.u.]                                                      7.4
 PW_GRID| spherical cutoff:                                                   NO
 PW_GRID|   Bounds   1            -45      44                Points:          90
 PW_GRID|   Bounds   2            -36      35                Points:          72
 PW_GRID|   Bounds   3            -32      31                Points:          64
 PW_GRID| Volume element (a.u.^3)  0.4745         Volume (a.u.^3)    196781.4364
 PW_GRID| Grid span                                                    FULLSPACE

 PW_GRID| Information for grid number                                          5
 PW_GRID| Number of the reference grid                                         1
 PW_GRID| Cutoff [a.u.]                                                      2.5
 PW_GRID| spherical cutoff:                                                   NO
 PW_GRID|   Bounds   1            -27      26                Points:          54
 PW_GRID|   Bounds   2            -22      22                Points:          45
 PW_GRID|   Bounds   3            -20      19                Points:          40
 PW_GRID| Volume element (a.u.^3)   2.025         Volume (a.u.^3)    196781.4364
 PW_GRID| Grid span                                                    FULLSPACE

 POISSON| Solver                                                        ANALYTIC
 POISSON| Periodicity                                                       NONE

 RS_GRID| Information for grid number                                          1
 RS_GRID|   Bounds   1           -225     224                Points:         450
 RS_GRID|   Bounds   2           -187     187                Points:         375
 RS_GRID|   Bounds   3           -180     179                Points:         360

 RS_GRID| Information for grid number                                          2
 RS_GRID|   Bounds   1           -128     127                Points:         256
 RS_GRID|   Bounds   2           -108     107                Points:         216
 RS_GRID|   Bounds   3            -96      95                Points:         192

 RS_GRID| Information for grid number                                          3
 RS_GRID|   Bounds   1            -75      74                Points:         150
 RS_GRID|   Bounds   2            -62      62                Points:         125
 RS_GRID|   Bounds   3            -60      59                Points:         120

 RS_GRID| Information for grid number                                          4
 RS_GRID|   Bounds   1            -45      44                Points:          90
 RS_GRID|   Bounds   2            -36      35                Points:          72
 RS_GRID|   Bounds   3            -32      31                Points:          64

 RS_GRID| Information for grid number                                          5
 RS_GRID|   Bounds   1            -27      26                Points:          54
 RS_GRID|   Bounds   2            -22      22                Points:          45
 RS_GRID|   Bounds   3            -20      19                Points:          40

 Extrapolation method: initial_guess

 Atomic guess: The first density matrix is obtained in terms of atomic orbitals
               and electronic configurations assigned to each atomic kind

 Guess for atomic kind: C

 Electronic structure
    Total number of core electrons                                          2.00
    Total number of valence electrons                                       4.00
    Total number of electrons                                               6.00
    Multiplicity                                                   not specified
    S   [  2.00] 2.00
    P      2.00


 *******************************************************************************
                  Iteration          Convergence                     Energy [au]
 *******************************************************************************
                          1        0.117779                      -5.273315477849
                          2        0.811746E-01                  -5.277882950325
                          3        0.375808E-03                  -5.282044538817
                          4        0.116303E-03                  -5.282044581600
                          5        0.136159E-06                  -5.282044589276

 Energy components [Hartree]           Total Energy ::           -5.282044589276
                                        Band Energy ::           -1.313808155897
                                     Kinetic Energy ::            3.394620915655
                                   Potential Energy ::           -8.676665504931
                                      Virial (-V/T) ::            2.556004255119
                                        Core Energy ::           -8.294411848339
                                          XC Energy ::           -1.378447971455
                                     Coulomb Energy ::            4.390815230518
                       Total Pseudopotential Energy ::          -11.723548360395
                       Local Pseudopotential Energy ::          -12.387857835263
                    Nonlocal Pseudopotential Energy ::            0.664309474867
                                        Confinement ::            0.345155964011

 Orbital energies  State     L     Occupation   Energy[a.u.]          Energy[eV]

                       1     0          2.000      -0.483294          -13.151096

                       1     1          2.000      -0.173610           -4.724173


 Total Electron Density at R=0:                                         0.000017

 Guess for atomic kind: N

 Electronic structure
    Total number of core electrons                                          2.00
    Total number of valence electrons                                       5.00
    Total number of electrons                                               7.00
    Multiplicity                                                   not specified
    S   [  2.00] 2.00
    P      3.00


 *******************************************************************************
                  Iteration          Convergence                     Energy [au]
 *******************************************************************************
                          1        0.356600                      -9.510600665386
                          2        0.308859                      -9.519080047284
                          3        0.631309E-02                  -9.545348162419
                          4        0.439764E-03                  -9.545362760673
                          5        0.218505E-05                  -9.545362808311
                          6        0.103156E-05                  -9.545362808313
                          7        0.932751E-09                  -9.545362808313

 Energy components [Hartree]           Total Energy ::           -9.545362808313
                                        Band Energy ::           -2.055889234955
                                     Kinetic Energy ::            6.745978583143
                                   Potential Energy ::          -16.291341391456
                                      Virial (-V/T) ::            2.414970814192
                                        Core Energy ::          -15.540228649107
                                          XC Energy ::           -2.163003654562
                                     Coulomb Energy ::            8.157869495356
                       Total Pseudopotential Energy ::          -22.323521655047
                       Local Pseudopotential Energy ::          -23.273152293080
                    Nonlocal Pseudopotential Energy ::            0.949630638033
                                        Confinement ::            0.373144227969

 Orbital energies  State     L     Occupation   Energy[a.u.]          Energy[eV]

                       1     0          2.000      -0.663602          -18.057540

                       1     1          3.000      -0.242895           -6.609504


 Total Electron Density at R=0:                                         0.000122

 Guess for atomic kind: H

 Electronic structure
    Total number of core electrons                                          0.00
    Total number of valence electrons                                       1.00
    Total number of electrons                                               1.00
    Multiplicity                                                   not specified
    S      1.00


 *******************************************************************************
                  Iteration          Convergence                     Energy [au]
 *******************************************************************************
                          1        0.471942E-02                  -0.424095106469
                          2        0.464819E-03                  -0.424113671871
                          3        0.190364E-04                  -0.424114007136
                          4        0.633677E-08                  -0.424114007691

 Energy components [Hartree]           Total Energy ::           -0.424114007691
                                        Band Energy ::           -0.198799540676
                                     Kinetic Energy ::            0.462903625467
                                   Potential Energy ::           -0.887017633158
                                      Virial (-V/T) ::            1.916203685515
                                        Core Energy ::           -0.479182004469
                                          XC Energy ::           -0.244447840446
                                     Coulomb Energy ::            0.299515837225
                       Total Pseudopotential Energy ::           -0.960851778720
                       Local Pseudopotential Energy ::           -0.960851778720
                    Nonlocal Pseudopotential Energy ::            0.000000000000
                                        Confinement ::            0.187661487833

 Orbital energies  State     L     Occupation   Energy[a.u.]          Energy[eV]

                       1     0          1.000      -0.198800           -5.409611


 Total Electron Density at R=0:                                         0.230125
 Re-scaling the density matrix to get the right number of electrons
                  # Electrons              Trace(P)               Scaling factor
                           70                70.000                        1.000

 Number of electrons:                                                         70
 Number of occupied orbitals:                                                 35
 Number of molecular orbitals:                                                35

 Number of orbital functions:                                                574
 Number of independent orbital functions:                                    574


 SCF WAVEFUNCTION OPTIMIZATION

  ----------------------------------- OT ---------------------------------------
  Minimizer      : DIIS                : direct inversion
                                         in the iterative subspace
                                         using   7 DIIS vectors
                                         safer DIIS on
  Preconditioner : FULL_ALL            : diagonalization, state selective
  Precond_solver : DEFAULT
  stepsize       :    0.10000000                  energy_gap     :    0.00100000
  eps_taylor     :   0.10000E-15                  max_taylor     :             4
  ----------------------------------- OT ---------------------------------------

  Step     Update method      Time    Convergence         Total energy    Change
  ------------------------------------------------------------------------------
 SKALA_GPW| Atom-composite cross support/maxima   2.607069088142E+00   9.376629834219E-02   5.945467781196E-01   3.549751392547E+00

 SKALA_GPW| Native grid Torch CUDA device 0 of 1 requested -1
 SKALA_GPW| Native grid Torch CUDA rank devices 0:0
 SKALA_GPW| Active atom-composite XC energy  -2.7889662256416926E+01
 SKALA_GPW| Active atom-composite electrons   7.0000111578371985E+01
 SKALA_GPW| Active atom-composite density range  -5.7259360393783571E-09   4.0115406645988311E-01
 SKALA_GPW| Active atom-composite tau range  -8.8802589108321679E-08   7.2010138656613671E+00
 SKALA_GPW| Active atom-composite tau integral   7.2955804848470834E+01
 SKALA_GPW| Active atom-composite max gradient   1.3988112881257551E+00
     1 OT DIIS     0.10E+00  125.7     0.06986873       -86.9094268039 -8.69E+01
 SKALA_GPW| Atom-composite cross support/maxima   2.607069088142E+00   7.057408156516E-02   6.118925417631E-01   3.648801739625E+00
 SKALA_GPW| Active atom-composite XC energy  -2.9675974783284879E+01
 SKALA_GPW| Active atom-composite electrons   7.0000082667145890E+01
 SKALA_GPW| Active atom-composite density range  -6.1976823266656394E-09   3.6822932556376065E-01
 SKALA_GPW| Active atom-composite tau range  -9.4660947319954013E-08   7.3033529227915697E+00
 SKALA_GPW| Active atom-composite tau integral   7.5642594343635977E+01
 SKALA_GPW| Active atom-composite max gradient   1.2425504150246991E+00
     2 OT DIIS     0.10E+00  126.6     0.10787567       -90.3887542076 -3.48E+00
 SKALA_GPW| Atom-composite cross support/maxima   2.607069088142E+00   6.687070932607E-02   6.190711007464E-01   3.389648327672E+00
 SKALA_GPW| Active atom-composite XC energy  -2.9660270235717604E+01
 SKALA_GPW| Active atom-composite electrons   7.0000074083276985E+01
 SKALA_GPW| Active atom-composite density range  -6.2532391316814186E-09   3.6662466831452267E-01
 SKALA_GPW| Active atom-composite tau range  -1.0369666465200434E-07   6.8480528912392087E+00
 SKALA_GPW| Active atom-composite tau integral   7.4121957745415600E+01
 SKALA_GPW| Active atom-composite max gradient   1.2306662718236143E+00
     3 OT DIIS     0.10E+00  127.0     0.02961601       -93.3143924589 -2.93E+00
 SKALA_GPW| Atom-composite cross support/maxima   2.607069088142E+00   7.030349530346E-02   6.210100953900E-01   3.304597328695E+00
 SKALA_GPW| Active atom-composite XC energy  -2.9685184348708145E+01
 SKALA_GPW| Active atom-composite electrons   7.0000063546688622E+01
 SKALA_GPW| Active atom-composite density range  -6.4337157306140143E-09   3.6504431451553110E-01
 SKALA_GPW| Active atom-composite tau range  -1.0483603018769953E-07   6.6958369164627483E+00
 SKALA_GPW| Active atom-composite tau integral   7.3157947111378760E+01
 SKALA_GPW| Active atom-composite max gradient   1.2628904992538281E+00
     4 OT DIIS     0.10E+00  125.3     0.01681974       -94.1786609842 -8.64E-01
 SKALA_GPW| Atom-composite cross support/maxima   2.607069088142E+00   6.187362499691E-02   5.805521633847E-01   3.242281586074E+00
 SKALA_GPW| Active atom-composite XC energy  -2.9862226203334117E+01
 SKALA_GPW| Active atom-composite electrons   7.0000056835092337E+01
 SKALA_GPW| Active atom-composite density range  -6.0616242911545558E-09   3.4835481465925183E-01
 SKALA_GPW| Active atom-composite tau range  -9.8660809727016036E-08   6.5063887362270272E+00
 SKALA_GPW| Active atom-composite tau integral   7.3680848999426559E+01
 SKALA_GPW| Active atom-composite max gradient   1.1959977378952020E+00
     5 OT DIIS     0.10E+00  126.1     0.01039104       -94.4475205857 -2.69E-01
 SKALA_GPW| Atom-composite cross support/maxima   2.607069088142E+00   5.887943266336E-02   5.652015172297E-01   3.118207383523E+00
 SKALA_GPW| Active atom-composite XC energy  -2.9903171535338167E+01
 SKALA_GPW| Active atom-composite electrons   7.0000053231860193E+01
 SKALA_GPW| Active atom-composite density range  -5.9466061982677196E-09   3.4474051675856693E-01
 SKALA_GPW| Active atom-composite tau range  -9.7799295841795517E-08   6.2640195600538737E+00
 SKALA_GPW| Active atom-composite tau integral   7.3735611419257665E+01
 SKALA_GPW| Active atom-composite max gradient   1.1790486022146442E+00
     6 OT DIIS     0.10E+00  126.0     0.00766119       -94.5836785260 -1.36E-01
 SKALA_GPW| Atom-composite cross support/maxima   2.607069088142E+00   5.823377198821E-02   5.631588849076E-01   3.161984027418E+00
 SKALA_GPW| Active atom-composite XC energy  -2.9960077316843829E+01
 SKALA_GPW| Active atom-composite electrons   7.0000050498098190E+01
 SKALA_GPW| Active atom-composite density range  -5.9300259900882603E-09   3.4549406868871424E-01
 SKALA_GPW| Active atom-composite tau range  -9.7751083344352268E-08   6.3340062591817725E+00
 SKALA_GPW| Active atom-composite tau integral   7.3916917320113200E+01
 SKALA_GPW| Active atom-composite max gradient   1.1824226074213018E+00
     7 OT DIIS     0.10E+00  125.8     0.00674918       -94.6652552102 -8.16E-02
 SKALA_GPW| Atom-composite cross support/maxima   2.607069088142E+00   5.716971595871E-02   5.584449979134E-01   3.153387608975E+00
 SKALA_GPW| Active atom-composite XC energy  -2.9983931028002871E+01
 SKALA_GPW| Active atom-composite electrons   7.0000049383475996E+01
 SKALA_GPW| Active atom-composite density range  -5.8745999335501250E-09   3.4379340612557313E-01
 SKALA_GPW| Active atom-composite tau range  -9.6957121589009746E-08   6.3207264515583788E+00
 SKALA_GPW| Active atom-composite tau integral   7.3950686563095502E+01
 SKALA_GPW| Active atom-composite max gradient   1.1755663466082769E+00
     8 OT SD       0.10E+00  125.6     0.00684398       -94.7183025765 -5.30E-02
 SKALA_GPW| Atom-composite cross support/maxima   2.607069088142E+00   5.744704272390E-02   5.557448080294E-01   3.164857065875E+00
 SKALA_GPW| Active atom-composite XC energy  -3.0021641732631693E+01
 SKALA_GPW| Active atom-composite electrons   7.0000047636843306E+01
 SKALA_GPW| Active atom-composite density range  -5.8288308011643488E-09   3.4941424013364070E-01
 SKALA_GPW| Active atom-composite tau range  -9.6484887860245755E-08   6.3460563885695906E+00
 SKALA_GPW| Active atom-composite tau integral   7.3980996698283647E+01
 SKALA_GPW| Active atom-composite max gradient   1.1821641154714735E+00
     9 OT SD       0.10E+00  126.7     0.00702934       -94.8126365044 -9.43E-02
 SKALA_GPW| Atom-composite cross support/maxima   2.607069088142E+00   5.781716599314E-02   5.550592448624E-01   3.152308910135E+00
 SKALA_GPW| Active atom-composite XC energy  -3.0048505899138547E+01
 SKALA_GPW| Active atom-composite electrons   7.0000046436313667E+01
 SKALA_GPW| Active atom-composite density range  -5.8404342534117726E-09   3.5017637401348700E-01
 SKALA_GPW| Active atom-composite tau range  -9.6327689876354023E-08   6.3160519085550622E+00
 SKALA_GPW| Active atom-composite tau integral   7.3954259938789605E+01
 SKALA_GPW| Active atom-composite max gradient   1.1880955451613660E+00
    10 OT SD       0.10E+00  127.1     0.00662211       -94.9090000970 -9.64E-02
 SKALA_GPW| Atom-composite cross support/maxima   2.607069088142E+00   5.757085873230E-02   5.554045751898E-01   3.153832552516E+00
 SKALA_GPW| Active atom-composite XC energy  -3.0067477364887814E+01
 SKALA_GPW| Active atom-composite electrons   7.0000045651598512E+01
 SKALA_GPW| Active atom-composite density range  -5.8573550180132944E-09   3.4857869136389141E-01
 SKALA_GPW| Active atom-composite tau range  -9.6233144998889562E-08   6.3045567157043454E+00
 SKALA_GPW| Active atom-composite tau integral   7.3925718046473833E+01
 SKALA_GPW| Active atom-composite max gradient   1.1875664954139018E+00
    11 OT DIIS     0.10E+00  126.7     0.00552808       -94.9897845084 -8.08E-02
 SKALA_GPW| Atom-composite cross support/maxima   2.607069088142E+00   5.790223562810E-02   5.725104715909E-01   3.166076797843E+00
 SKALA_GPW| Active atom-composite XC energy  -3.0063233060115209E+01
 SKALA_GPW| Active atom-composite electrons   7.0000047038816817E+01
 SKALA_GPW| Active atom-composite density range  -5.9577107029439630E-09   3.5510875255085517E-01
 SKALA_GPW| Active atom-composite tau range  -9.8598712571661314E-08   6.3784629809338620E+00
 SKALA_GPW| Active atom-composite tau integral   7.3925709269901645E+01
 SKALA_GPW| Active atom-composite max gradient   1.2089843960274749E+00
    12 OT DIIS     0.10E+00  126.8     0.00848044       -94.9706537672  1.91E-02
 SKALA_GPW| Atom-composite cross support/maxima   2.607069088142E+00   5.783614897495E-02   5.714029454643E-01   3.161525359231E+00
 SKALA_GPW| Active atom-composite XC energy  -3.0064034767998557E+01
 SKALA_GPW| Active atom-composite electrons   7.0000047026802790E+01
 SKALA_GPW| Active atom-composite density range  -5.9570870182599132E-09   3.5434733123494050E-01
 SKALA_GPW| Active atom-composite tau range  -9.8614372665775809E-08   6.3668645526740981E+00
 SKALA_GPW| Active atom-composite tau integral   7.3892039116670475E+01
 SKALA_GPW| Active atom-composite max gradient   1.2074313925135849E+00
    13 OT SD       0.10E+00  127.1     0.00813678       -94.9949527172 -2.43E-02
 SKALA_GPW| Atom-composite cross support/maxima   2.607069088142E+00   5.632481720917E-02   5.523218407159E-01   3.121728829701E+00
 SKALA_GPW| Active atom-composite XC energy  -3.0064207284857428E+01
 SKALA_GPW| Active atom-composite electrons   7.0000045852248718E+01
 SKALA_GPW| Active atom-composite density range  -5.8123730673141492E-09   3.4283928396092461E-01
 SKALA_GPW| Active atom-composite tau range  -9.6044423139606563E-08   6.2475208162325018E+00
 SKALA_GPW| Active atom-composite tau integral   7.3780031431931334E+01
 SKALA_GPW| Active atom-composite max gradient   1.1724412500914003E+00
    14 OT DIIS     0.10E+00  126.6     0.00434066       -95.0745816705 -7.96E-02
 SKALA_GPW| Atom-composite cross support/maxima   2.607069088142E+00   5.630427731928E-02   5.557331415116E-01   3.144106995458E+00
 SKALA_GPW| Active atom-composite XC energy  -3.0070772408726768E+01
 SKALA_GPW| Active atom-composite electrons   7.0000046237232368E+01
 SKALA_GPW| Active atom-composite density range  -5.8484548120384449E-09   3.4735425857305197E-01
 SKALA_GPW| Active atom-composite tau range  -9.6448687164892495E-08   6.3023435060285937E+00
 SKALA_GPW| Active atom-composite tau integral   7.3810660192128779E+01
 SKALA_GPW| Active atom-composite max gradient   1.1862525882362025E+00
    15 OT DIIS     0.10E+00  127.1     0.00547887       -95.0794051535 -4.82E-03
 SKALA_GPW| Atom-composite cross support/maxima   2.607069088142E+00   5.456767323509E-02   5.468282391337E-01   3.121859283514E+00
 SKALA_GPW| Active atom-composite XC energy  -3.0071877267693200E+01
 SKALA_GPW| Active atom-composite electrons   7.0000045217092193E+01
 SKALA_GPW| Active atom-composite density range  -5.7353764288763034E-09   3.4052978233636000E-01
 SKALA_GPW| Active atom-composite tau range  -9.4964405821901707E-08   6.2449443225083083E+00
 SKALA_GPW| Active atom-composite tau integral   7.3761883482980934E+01
 SKALA_GPW| Active atom-composite max gradient   1.1629027753793895E+00
    16 OT DIIS     0.10E+00  126.4     0.00225653       -95.1266638911 -4.73E-02
 SKALA_GPW| Atom-composite cross support/maxima   2.607069088142E+00   5.495591043441E-02   5.478452637369E-01   3.140958277901E+00
 SKALA_GPW| Active atom-composite XC energy  -3.0078801647844799E+01
 SKALA_GPW| Active atom-composite electrons   7.0000045157666378E+01
 SKALA_GPW| Active atom-composite density range  -5.7268902073858621E-09   3.4096932575888467E-01
 SKALA_GPW| Active atom-composite tau range  -9.4898677911962405E-08   6.2656481624678495E+00
 SKALA_GPW| Active atom-composite tau integral   7.3797916274209911E+01
 SKALA_GPW| Active atom-composite max gradient   1.1661912033350654E+00
    17 OT DIIS     0.10E+00  125.8     0.00228759       -95.1257689667  8.95E-04
 SKALA_GPW| Atom-composite cross support/maxima   2.607069088142E+00   5.507967962045E-02   5.480473908858E-01   3.140561625873E+00
 SKALA_GPW| Active atom-composite XC energy  -3.0082179416984165E+01
 SKALA_GPW| Active atom-composite electrons   7.0000044970514097E+01
 SKALA_GPW| Active atom-composite density range  -5.7274811160804036E-09   3.4185050165517777E-01
 SKALA_GPW| Active atom-composite tau range  -9.4894487684186544E-08   6.2740977526889115E+00
 SKALA_GPW| Active atom-composite tau integral   7.3807356156912419E+01
 SKALA_GPW| Active atom-composite max gradient   1.1689530939112318E+00
    18 OT DIIS     0.10E+00  127.1     0.00220424       -95.1328045462 -7.04E-03
 SKALA_GPW| Atom-composite cross support/maxima   2.607069088142E+00   5.477183216986E-02   5.468647729635E-01   3.138745505048E+00
 SKALA_GPW| Active atom-composite XC energy  -3.0079744047922357E+01
 SKALA_GPW| Active atom-composite electrons   7.0000044801818504E+01
 SKALA_GPW| Active atom-composite density range  -5.7140580410646530E-09   3.4018978242644304E-01
 SKALA_GPW| Active atom-composite tau range  -9.4623525783674921E-08   6.2638442721654179E+00
 SKALA_GPW| Active atom-composite tau integral   7.3786955365793091E+01
 SKALA_GPW| Active atom-composite max gradient   1.1640210721717315E+00
    19 OT DIIS     0.10E+00  127.1     0.00119143       -95.1407169503 -7.91E-03
 SKALA_GPW| Atom-composite cross support/maxima   2.607069088142E+00   5.487358441186E-02   5.474525669174E-01   3.128460468175E+00
 SKALA_GPW| Active atom-composite XC energy  -3.0077200241210988E+01
 SKALA_GPW| Active atom-composite electrons   7.0000044858013382E+01
 SKALA_GPW| Active atom-composite density range  -5.7331868328752569E-09   3.4092345649752459E-01
 SKALA_GPW| Active atom-composite tau range  -9.4907786435910455E-08   6.2514481635777273E+00
 SKALA_GPW| Active atom-composite tau integral   7.3767511463611584E+01
 SKALA_GPW| Active atom-composite max gradient   1.1640325256469535E+00
    20 OT DIIS     0.10E+00  125.8     0.00102636       -95.1448710271 -4.15E-03
 SKALA_GPW| Atom-composite cross support/maxima   2.607069088142E+00   5.495547393257E-02   5.478117152545E-01   3.130532890005E+00
 SKALA_GPW| Active atom-composite XC energy  -3.0074416174680522E+01
 SKALA_GPW| Active atom-composite electrons   7.0000044857521701E+01
 SKALA_GPW| Active atom-composite density range  -5.7355898835182228E-09   3.4091447448312889E-01
 SKALA_GPW| Active atom-composite tau range  -9.4882568528962756E-08   6.2560881677271309E+00
 SKALA_GPW| Active atom-composite tau integral   7.3748737819124514E+01
 SKALA_GPW| Active atom-composite max gradient   1.1640763071040072E+00
    21 OT DIIS     0.10E+00  126.0     0.00053629       -95.1481981257 -3.33E-03
 SKALA_GPW| Atom-composite cross support/maxima   2.607069088142E+00   5.498679102252E-02   5.483429290194E-01   3.124250770744E+00
 SKALA_GPW| Active atom-composite XC energy  -3.0073351767863876E+01
 SKALA_GPW| Active atom-composite electrons   7.0000044929395628E+01
 SKALA_GPW| Active atom-composite density range  -5.7429041792574368E-09   3.4103287710724595E-01
 SKALA_GPW| Active atom-composite tau range  -9.4999842028226552E-08   6.2463988900845040E+00
 SKALA_GPW| Active atom-composite tau integral   7.3741330646896103E+01
 SKALA_GPW| Active atom-composite max gradient   1.1646504955596073E+00
    22 OT DIIS     0.10E+00  126.2     0.00044234       -95.1493966475 -1.20E-03
 SKALA_GPW| Atom-composite cross support/maxima   2.607069088142E+00   5.506840379477E-02   5.486945260290E-01   3.124211136610E+00
 SKALA_GPW| Active atom-composite XC energy  -3.0073814761355479E+01
 SKALA_GPW| Active atom-composite electrons   7.0000044932319554E+01
 SKALA_GPW| Active atom-composite density range  -5.7473553564024541E-09   3.4119502252129463E-01
 SKALA_GPW| Active atom-composite tau range  -9.5060794363741637E-08   6.2481359299527632E+00
 SKALA_GPW| Active atom-composite tau integral   7.3741922168871682E+01
 SKALA_GPW| Active atom-composite max gradient   1.1652695869625629E+00
    23 OT DIIS     0.10E+00  126.1     0.00036887       -95.1502497733 -8.53E-04
 SKALA_GPW| Atom-composite cross support/maxima   2.607069088142E+00   5.507696937393E-02   5.483571317456E-01   3.122682668978E+00
 SKALA_GPW| Active atom-composite XC energy  -3.0074423285451168E+01
 SKALA_GPW| Active atom-composite electrons   7.0000044928389343E+01
 SKALA_GPW| Active atom-composite density range  -5.7453507008664754E-09   3.4108550938806254E-01
 SKALA_GPW| Active atom-composite tau range  -9.5024823025007257E-08   6.2462120822709206E+00
 SKALA_GPW| Active atom-composite tau integral   7.3743791225634467E+01
 SKALA_GPW| Active atom-composite max gradient   1.1647807461615574E+00
    24 OT DIIS     0.10E+00  125.6     0.00029615       -95.1510174456 -7.68E-04
 SKALA_GPW| Atom-composite cross support/maxima   2.607069088142E+00   5.508123259343E-02   5.483241811480E-01   3.121246970844E+00
 SKALA_GPW| Active atom-composite XC energy  -3.0074709638076676E+01
 SKALA_GPW| Active atom-composite electrons   7.0000044904117033E+01
 SKALA_GPW| Active atom-composite density range  -5.7449649024445237E-09   3.4113377273158141E-01
 SKALA_GPW| Active atom-composite tau range  -9.5014776423230761E-08   6.2443937609219224E+00
 SKALA_GPW| Active atom-composite tau integral   7.3743649010663034E+01
 SKALA_GPW| Active atom-composite max gradient   1.1648774384991518E+00
    25 OT DIIS     0.10E+00  125.3     0.00026562       -95.1514817802 -4.64E-04
 SKALA_GPW| Atom-composite cross support/maxima   2.607069088142E+00   5.507501706394E-02   5.479467664301E-01   3.120824108192E+00
 SKALA_GPW| Active atom-composite XC energy  -3.0075094725855649E+01
 SKALA_GPW| Active atom-composite electrons   7.0000044868249134E+01
 SKALA_GPW| Active atom-composite density range  -5.7414442830541200E-09   3.4103905268178170E-01
 SKALA_GPW| Active atom-composite tau range  -9.4946328043162530E-08   6.2442290096079471E+00
 SKALA_GPW| Active atom-composite tau integral   7.3744827099584029E+01
 SKALA_GPW| Active atom-composite max gradient   1.1644512802885629E+00
    26 OT DIIS     0.10E+00  125.9     0.00023196       -95.1519038893 -4.22E-04
 SKALA_GPW| Atom-composite cross support/maxima   2.607069088142E+00   5.506469139598E-02   5.478242138454E-01   3.121066335355E+00
 SKALA_GPW| Active atom-composite XC energy  -3.0075026788965602E+01
 SKALA_GPW| Active atom-composite electrons   7.0000044847779890E+01
 SKALA_GPW| Active atom-composite density range  -5.7400932218818045E-09   3.4102873219024060E-01
 SKALA_GPW| Active atom-composite tau range  -9.4923545241959462E-08   6.2447030741901894E+00
 SKALA_GPW| Active atom-composite tau integral   7.3742897809375734E+01
 SKALA_GPW| Active atom-composite max gradient   1.1643362409331444E+00
    27 OT DIIS     0.10E+00  125.3     0.00020467       -95.1522447174 -3.41E-04
 SKALA_GPW| Atom-composite cross support/maxima   2.607069088142E+00   5.506657227752E-02   5.477540264570E-01   3.119898047253E+00
 SKALA_GPW| Active atom-composite XC energy  -3.0074837395700008E+01
 SKALA_GPW| Active atom-composite electrons   7.0000044833043120E+01
 SKALA_GPW| Active atom-composite density range  -5.7395438008785467E-09   3.4101981099026457E-01
 SKALA_GPW| Active atom-composite tau range  -9.4898712699882409E-08   6.2429215499960318E+00
 SKALA_GPW| Active atom-composite tau integral   7.3740743291438378E+01
 SKALA_GPW| Active atom-composite max gradient   1.1642652055860530E+00
    28 OT DIIS     0.10E+00  126.4     0.00018362       -95.1525674480 -3.23E-04
 SKALA_GPW| Atom-composite cross support/maxima   2.607069088142E+00   5.506514892122E-02   5.477244251255E-01   3.120122857237E+00
 SKALA_GPW| Active atom-composite XC energy  -3.0074686957571586E+01
 SKALA_GPW| Active atom-composite electrons   7.0000044838910767E+01
 SKALA_GPW| Active atom-composite density range  -5.7399381510965476E-09   3.4100012261960766E-01
 SKALA_GPW| Active atom-composite tau range  -9.4896998615028663E-08   6.2433805522345764E+00
 SKALA_GPW| Active atom-composite tau integral   7.3738901136413318E+01
 SKALA_GPW| Active atom-composite max gradient   1.1642162836709358E+00
    29 OT DIIS     0.10E+00  124.9     0.00015588       -95.1528315372 -2.64E-04
 SKALA_GPW| Atom-composite cross support/maxima   2.607069088142E+00   5.508441795757E-02   5.477992104452E-01   3.120463031908E+00
 SKALA_GPW| Active atom-composite XC energy  -3.0074562032763314E+01
 SKALA_GPW| Active atom-composite electrons   7.0000044841212897E+01
 SKALA_GPW| Active atom-composite density range  -5.7409570992244399E-09   3.4104277769308100E-01
 SKALA_GPW| Active atom-composite tau range  -9.4901903082595219E-08   6.2440519936795456E+00
 SKALA_GPW| Active atom-composite tau integral   7.3737149392444039E+01
 SKALA_GPW| Active atom-composite max gradient   1.1643266760972328E+00
    30 OT DIIS     0.10E+00  125.6     0.00013976       -95.1530618502 -2.30E-04
 SKALA_GPW| Atom-composite cross support/maxima   2.607069088142E+00   5.508045889598E-02   5.477702881525E-01   3.119543216168E+00
 SKALA_GPW| Active atom-composite XC energy  -3.0074322028772503E+01
 SKALA_GPW| Active atom-composite electrons   7.0000044858202330E+01
 SKALA_GPW| Active atom-composite density range  -5.7411246702352399E-09   3.4101237920822552E-01
 SKALA_GPW| Active atom-composite tau range  -9.4896971864598445E-08   6.2424430589098492E+00
 SKALA_GPW| Active atom-composite tau integral   7.3735269131841676E+01
 SKALA_GPW| Active atom-composite max gradient   1.1642377823418728E+00
    31 OT DIIS     0.10E+00  125.5     0.00011957       -95.1532095588 -1.48E-04
 SKALA_GPW| Atom-composite cross support/maxima   2.607069088142E+00   5.510214620186E-02   5.478407466780E-01   3.120118118681E+00
 SKALA_GPW| Active atom-composite XC energy  -3.0074468044888356E+01
 SKALA_GPW| Active atom-composite electrons   7.0000044868072379E+01
 SKALA_GPW| Active atom-composite density range  -5.7421878789615567E-09   3.4105029572357709E-01
 SKALA_GPW| Active atom-composite tau range  -9.4908870438275902E-08   6.2436390255582177E+00
 SKALA_GPW| Active atom-composite tau integral   7.3735621960296598E+01
 SKALA_GPW| Active atom-composite max gradient   1.1643741341669049E+00
    32 OT DIIS     0.10E+00  125.2     0.00010252       -95.1533317612 -1.22E-04
 SKALA_GPW| Atom-composite cross support/maxima   2.607069088142E+00   5.510851857378E-02   5.478023953361E-01   3.119831083617E+00
 SKALA_GPW| Active atom-composite XC energy  -3.0074484213283618E+01
 SKALA_GPW| Active atom-composite electrons   7.0000044877325763E+01
 SKALA_GPW| Active atom-composite density range  -5.7419955206323474E-09   3.4104503423856014E-01
 SKALA_GPW| Active atom-composite tau range  -9.4902760076582316E-08   6.2432569697332134E+00
 SKALA_GPW| Active atom-composite tau integral   7.3735631592466433E+01
 SKALA_GPW| Active atom-composite max gradient   1.1643320142539406E+00
    33 OT DIIS     0.10E+00  125.3     0.00008956       -95.1534286738 -9.69E-05
 SKALA_GPW| Atom-composite cross support/maxima   2.607069088142E+00   5.511854878739E-02   5.477860172274E-01   3.119673006094E+00
 SKALA_GPW| Active atom-composite XC energy  -3.0074469999913415E+01
 SKALA_GPW| Active atom-composite electrons   7.0000044881862920E+01
 SKALA_GPW| Active atom-composite density range  -5.7418251984066697E-09   3.4104341334741334E-01
 SKALA_GPW| Active atom-composite tau range  -9.4899265934008411E-08   6.2431250975359269E+00
 SKALA_GPW| Active atom-composite tau integral   7.3735298752605317E+01
 SKALA_GPW| Active atom-composite max gradient   1.1643203099820505E+00
    34 OT DIIS     0.10E+00  125.6     0.00007782       -95.1534853441 -5.67E-05
 SKALA_GPW| Atom-composite cross support/maxima   2.607069088142E+00   5.512628071351E-02   5.477269507727E-01   3.119541273111E+00
 SKALA_GPW| Active atom-composite XC energy  -3.0074609430758457E+01
 SKALA_GPW| Active atom-composite electrons   7.0000044878421974E+01
 SKALA_GPW| Active atom-composite density range  -5.7412707202822446E-09   3.4103338496488023E-01
 SKALA_GPW| Active atom-composite tau range  -9.4888972891415066E-08   6.2430643364100291E+00
 SKALA_GPW| Active atom-composite tau integral   7.3736251703676146E+01
 SKALA_GPW| Active atom-composite max gradient   1.1642711176411393E+00
    35 OT DIIS     0.10E+00  126.0     0.00006782       -95.1535279530 -4.26E-05
 SKALA_GPW| Atom-composite cross support/maxima   2.607069088142E+00   5.513020397159E-02   5.476766832221E-01   3.119563734651E+00
 SKALA_GPW| Active atom-composite XC energy  -3.0074572874998140E+01
 SKALA_GPW| Active atom-composite electrons   7.0000044878464308E+01
 SKALA_GPW| Active atom-composite density range  -5.7407181615651565E-09   3.4101823018169641E-01
 SKALA_GPW| Active atom-composite tau range  -9.4881763665140857E-08   6.2432729550760300E+00
 SKALA_GPW| Active atom-composite tau integral   7.3735947656881720E+01
 SKALA_GPW| Active atom-composite max gradient   1.1641980284628040E+00
    36 OT DIIS     0.10E+00  126.3     0.00005960       -95.1535582448 -3.03E-05
 SKALA_GPW| Atom-composite cross support/maxima   2.607069088142E+00   5.513490978683E-02   5.476052177153E-01   3.119238686852E+00
 SKALA_GPW| Active atom-composite XC energy  -3.0074546684769018E+01
 SKALA_GPW| Active atom-composite electrons   7.0000044872197194E+01
 SKALA_GPW| Active atom-composite density range  -5.7399424754917530E-09   3.4099167329837404E-01
 SKALA_GPW| Active atom-composite tau range  -9.4868060186571625E-08   6.2428989082274731E+00
 SKALA_GPW| Active atom-composite tau integral   7.3735740721601772E+01
 SKALA_GPW| Active atom-composite max gradient   1.1641021085183367E+00
    37 OT DIIS     0.10E+00  125.5     0.00005095       -95.1535873237 -2.91E-05
 SKALA_GPW| Atom-composite cross support/maxima   2.607069088142E+00   5.513771501493E-02   5.475562848826E-01   3.119165335746E+00
 SKALA_GPW| Active atom-composite XC energy  -3.0074565783498461E+01
 SKALA_GPW| Active atom-composite electrons   7.0000044873026383E+01
 SKALA_GPW| Active atom-composite density range  -5.7395159538260826E-09   3.4096790784890735E-01
 SKALA_GPW| Active atom-composite tau range  -9.4860539492703620E-08   6.2429207351595872E+00
 SKALA_GPW| Active atom-composite tau integral   7.3735793168197816E+01
 SKALA_GPW| Active atom-composite max gradient   1.1640124067199822E+00
    38 OT DIIS     0.10E+00  124.8     0.00004608       -95.1536050497 -1.77E-05
 SKALA_GPW| Atom-composite cross support/maxima   2.607069088142E+00   5.514270729947E-02   5.475462016654E-01   3.119154955117E+00
 SKALA_GPW| Active atom-composite XC energy  -3.0074560263400642E+01
 SKALA_GPW| Active atom-composite electrons   7.0000044870945615E+01
 SKALA_GPW| Active atom-composite density range  -5.7394272011292403E-09   3.4096418522693744E-01
 SKALA_GPW| Active atom-composite tau range  -9.4857997969135715E-08   6.2430809063294879E+00
 SKALA_GPW| Active atom-composite tau integral   7.3735595566771309E+01
 SKALA_GPW| Active atom-composite max gradient   1.1640040963772413E+00
    39 OT DIIS     0.10E+00  125.6     0.00004213       -95.1536197463 -1.47E-05
 SKALA_GPW| Atom-composite cross support/maxima   2.607069088142E+00   5.514080411597E-02   5.475094990817E-01   3.118820553106E+00
 SKALA_GPW| Active atom-composite XC energy  -3.0074504592085809E+01
 SKALA_GPW| Active atom-composite electrons   7.0000044872415856E+01
 SKALA_GPW| Active atom-composite density range  -5.7390910055668653E-09   3.4094258300989227E-01
 SKALA_GPW| Active atom-composite tau range  -9.4850895848003088E-08   6.2427420217168681E+00
 SKALA_GPW| Active atom-composite tau integral   7.3735168074113886E+01
 SKALA_GPW| Active atom-composite max gradient   1.1639274264036761E+00
    40 OT DIIS     0.10E+00  125.9     0.00003834       -95.1536315459 -1.18E-05
 SKALA_GPW| Atom-composite cross support/maxima   2.607069088142E+00   5.514392658453E-02   5.475030332172E-01   3.118856006336E+00
 SKALA_GPW| Active atom-composite XC energy  -3.0074528442937435E+01
 SKALA_GPW| Active atom-composite electrons   7.0000044873701867E+01
 SKALA_GPW| Active atom-composite density range  -5.7390832991075782E-09   3.4093776466448139E-01
 SKALA_GPW| Active atom-composite tau range  -9.4849134726348978E-08   6.2428057726922592E+00
 SKALA_GPW| Active atom-composite tau integral   7.3735162458280470E+01
 SKALA_GPW| Active atom-composite max gradient   1.1639121069467220E+00
    41 OT DIIS     0.10E+00  126.1     0.00003559       -95.1536413061 -9.76E-06
 SKALA_GPW| Atom-composite cross support/maxima   2.607069088142E+00   5.514203966695E-02   5.474999704773E-01   3.118827558917E+00
 SKALA_GPW| Active atom-composite XC energy  -3.0074530639033597E+01
 SKALA_GPW| Active atom-composite electrons   7.0000044875043017E+01
 SKALA_GPW| Active atom-composite density range  -5.7391045827395220E-09   3.4093675674516466E-01
 SKALA_GPW| Active atom-composite tau range  -9.4848494392111637E-08   6.2428108058075802E+00
 SKALA_GPW| Active atom-composite tau integral   7.3735160386485674E+01
 SKALA_GPW| Active atom-composite max gradient   1.1639083842276436E+00
    42 OT DIIS     0.10E+00  125.9     0.00003378       -95.1536479446 -6.64E-06
 SKALA_GPW| Atom-composite cross support/maxima   2.607069088142E+00   5.513927286399E-02   5.475000764989E-01   3.118815754580E+00
 SKALA_GPW| Active atom-composite XC energy  -3.0074514476201578E+01
 SKALA_GPW| Active atom-composite electrons   7.0000044876812623E+01
 SKALA_GPW| Active atom-composite density range  -5.7391233191510201E-09   3.4093745814232901E-01
 SKALA_GPW| Active atom-composite tau range  -9.4848027022608615E-08   6.2428022179813150E+00
 SKALA_GPW| Active atom-composite tau integral   7.3734995101436354E+01
 SKALA_GPW| Active atom-composite max gradient   1.1639048191136196E+00
    43 OT DIIS     0.10E+00  125.6     0.00003204       -95.1536548449 -6.90E-06
 SKALA_GPW| Atom-composite cross support/maxima   2.607069088142E+00   5.513803061098E-02   5.474965330082E-01   3.118780911074E+00
 SKALA_GPW| Active atom-composite XC energy  -3.0074535415022410E+01
 SKALA_GPW| Active atom-composite electrons   7.0000044877332400E+01
 SKALA_GPW| Active atom-composite density range  -5.7391314835884520E-09   3.4093883656438040E-01
 SKALA_GPW| Active atom-composite tau range  -9.4846990476889733E-08   6.2427288814625843E+00
 SKALA_GPW| Active atom-composite tau integral   7.3735114531694350E+01
 SKALA_GPW| Active atom-composite max gradient   1.1639053000104302E+00
    44 OT DIIS     0.10E+00  125.2     0.00003081       -95.1536604222 -5.58E-06
 SKALA_GPW| Atom-composite cross support/maxima   2.607069088142E+00   5.513377593428E-02   5.475007445800E-01   3.118770144413E+00
 SKALA_GPW| Active atom-composite XC energy  -3.0074544635336359E+01
 SKALA_GPW| Active atom-composite electrons   7.0000044878625545E+01
 SKALA_GPW| Active atom-composite density range  -5.7391847623169851E-09   3.4094764273252715E-01
 SKALA_GPW| Active atom-composite tau range  -9.4847736903911976E-08   6.2427165130275508E+00
 SKALA_GPW| Active atom-composite tau integral   7.3735163503795192E+01
 SKALA_GPW| Active atom-composite max gradient   1.1639150103457312E+00
    45 OT DIIS     0.10E+00  125.2     0.00002935       -95.1536676902 -7.27E-06
 SKALA_GPW| Atom-composite cross support/maxima   2.607069088142E+00   5.512990209737E-02   5.475084622794E-01   3.118791503133E+00
 SKALA_GPW| Active atom-composite XC energy  -3.0074532946931406E+01
 SKALA_GPW| Active atom-composite electrons   7.0000044878695377E+01
 SKALA_GPW| Active atom-composite density range  -5.7392643578559064E-09   3.4094914487097217E-01
 SKALA_GPW| Active atom-composite tau range  -9.4848887739561028E-08   6.2427620973761115E+00
 SKALA_GPW| Active atom-composite tau integral   7.3735060027153480E+01
 SKALA_GPW| Active atom-composite max gradient   1.1639361871839435E+00
    46 OT DIIS     0.10E+00  125.4     0.00002808       -95.1536742631 -6.57E-06
 SKALA_GPW| Atom-composite cross support/maxima   2.607069088142E+00   5.512650217591E-02   5.475003032866E-01   3.118752698388E+00
 SKALA_GPW| Active atom-composite XC energy  -3.0074541885983237E+01
 SKALA_GPW| Active atom-composite electrons   7.0000044880003713E+01
 SKALA_GPW| Active atom-composite density range  -5.7391826104565502E-09   3.4095138623434884E-01
 SKALA_GPW| Active atom-composite tau range  -9.4847183031212943E-08   6.2425766338956006E+00
 SKALA_GPW| Active atom-composite tau integral   7.3735084159584957E+01
 SKALA_GPW| Active atom-composite max gradient   1.1639228993566517E+00
    47 OT DIIS     0.10E+00  125.6     0.00002659       -95.1536825254 -8.26E-06
 SKALA_GPW| Atom-composite cross support/maxima   2.607069088142E+00   5.512376410745E-02   5.475150834544E-01   3.118846423617E+00
 SKALA_GPW| Active atom-composite XC energy  -3.0074559065298519E+01
 SKALA_GPW| Active atom-composite electrons   7.0000044880490876E+01
 SKALA_GPW| Active atom-composite density range  -5.7393354641890877E-09   3.4095820544549754E-01
 SKALA_GPW| Active atom-composite tau range  -9.4849953790452226E-08   6.2426729589054197E+00
 SKALA_GPW| Active atom-composite tau integral   7.3735103502591443E+01
 SKALA_GPW| Active atom-composite max gradient   1.1639584373009020E+00
    48 OT DIIS     0.10E+00  124.6     0.00002481       -95.1536914040 -8.88E-06
 SKALA_GPW| Atom-composite cross support/maxima   2.607069088142E+00   5.511953909134E-02   5.475187456431E-01   3.118764586599E+00
 SKALA_GPW| Active atom-composite XC energy  -3.0074543341152140E+01
 SKALA_GPW| Active atom-composite electrons   7.0000044882039703E+01
 SKALA_GPW| Active atom-composite density range  -5.7393824652150953E-09   3.4096257583171619E-01
 SKALA_GPW| Active atom-composite tau range  -9.4850757530828863E-08   6.2426262526242917E+00
 SKALA_GPW| Active atom-composite tau integral   7.3734934424674449E+01
 SKALA_GPW| Active atom-composite max gradient   1.1639703253727864E+00
    49 OT DIIS     0.10E+00  125.7     0.00002306       -95.1537008441 -9.44E-06
 SKALA_GPW| Atom-composite cross support/maxima   2.607069088142E+00   5.512084787746E-02   5.475180945282E-01   3.118836402219E+00
 SKALA_GPW| Active atom-composite XC energy  -3.0074546998285452E+01
 SKALA_GPW| Active atom-composite electrons   7.0000044882970585E+01
 SKALA_GPW| Active atom-composite density range  -5.7393803641211756E-09   3.4096303989141363E-01
 SKALA_GPW| Active atom-composite tau range  -9.4850417250364777E-08   6.2426001078999356E+00
 SKALA_GPW| Active atom-composite tau integral   7.3734851046740246E+01
 SKALA_GPW| Active atom-composite max gradient   1.1639703838904585E+00
    50 OT DIIS     0.10E+00  125.6     0.00002163       -95.1537060923 -5.25E-06
 SKALA_GPW| Atom-composite cross support/maxima   2.607069088142E+00   5.512120419490E-02   5.475195710244E-01   3.118798825097E+00
 SKALA_GPW| Active atom-composite XC energy  -3.0074558079283513E+01
 SKALA_GPW| Active atom-composite electrons   7.0000044884608442E+01
 SKALA_GPW| Active atom-composite density range  -5.7394571550512796E-09   3.4096609053239157E-01
 SKALA_GPW| Active atom-composite tau range  -9.4850977397916428E-08   6.2425787385698275E+00
 SKALA_GPW| Active atom-composite tau integral   7.3734837420003160E+01
 SKALA_GPW| Active atom-composite max gradient   1.1639820423233784E+00
    51 OT DIIS     0.10E+00  125.5     0.00001985       -95.1537134306 -7.34E-06
 SKALA_GPW| Atom-composite cross support/maxima   2.607069088142E+00   5.512170777471E-02   5.475220991415E-01   3.118761465357E+00
 SKALA_GPW| Active atom-composite XC energy  -3.0074544178948543E+01
 SKALA_GPW| Active atom-composite electrons   7.0000044885564549E+01
 SKALA_GPW| Active atom-composite density range  -5.7395085635389284E-09   3.4096843179532571E-01
 SKALA_GPW| Active atom-composite tau range  -9.4851724218064198E-08   6.2425939915704554E+00
 SKALA_GPW| Active atom-composite tau integral   7.3734709059241624E+01
 SKALA_GPW| Active atom-composite max gradient   1.1639874663371557E+00
    52 OT DIIS     0.10E+00  125.0     0.00001870       -95.1537171381 -3.71E-06
 SKALA_GPW| Atom-composite cross support/maxima   2.607069088142E+00   5.512364313270E-02   5.475179087165E-01   3.118694915498E+00
 SKALA_GPW| Active atom-composite XC energy  -3.0074548981225927E+01
 SKALA_GPW| Active atom-composite electrons   7.0000044886545197E+01
 SKALA_GPW| Active atom-composite density range  -5.7395420994097604E-09   3.4096793891413357E-01
 SKALA_GPW| Active atom-composite tau range  -9.4851043781028716E-08   6.2425474798156628E+00
 SKALA_GPW| Active atom-composite tau integral   7.3734698910332995E+01
 SKALA_GPW| Active atom-composite max gradient   1.1639883857204150E+00
    53 OT DIIS     0.10E+00  125.6     0.00001724       -95.1537218611 -4.72E-06
 SKALA_GPW| Atom-composite cross support/maxima   2.607069088142E+00   5.512564799604E-02   5.475065903716E-01   3.118704025908E+00
 SKALA_GPW| Active atom-composite XC energy  -3.0074556652216771E+01
 SKALA_GPW| Active atom-composite electrons   7.0000044887364680E+01
 SKALA_GPW| Active atom-composite density range  -5.7394800739251695E-09   3.4096334178585752E-01
 SKALA_GPW| Active atom-composite tau range  -9.4849075588792492E-08   6.2426014824139529E+00
 SKALA_GPW| Active atom-composite tau integral   7.3734750756255508E+01
 SKALA_GPW| Active atom-composite max gradient   1.1639701566061869E+00
    54 OT DIIS     0.10E+00  125.3     0.00001605       -95.1537250557 -3.19E-06
 SKALA_GPW| Atom-composite cross support/maxima   2.607069088142E+00   5.512516508066E-02   5.475098648780E-01   3.118682718366E+00
 SKALA_GPW| Active atom-composite XC energy  -3.0074552621595956E+01
 SKALA_GPW| Active atom-composite electrons   7.0000044887337438E+01
 SKALA_GPW| Active atom-composite density range  -5.7395604979011683E-09   3.4096652042955983E-01
 SKALA_GPW| Active atom-composite tau range  -9.4849897162392815E-08   6.2425966210720940E+00
 SKALA_GPW| Active atom-composite tau integral   7.3734729874436837E+01
 SKALA_GPW| Active atom-composite max gradient   1.1639827739548703E+00
    55 OT DIIS     0.10E+00  125.4     0.00001468       -95.1537280153 -2.96E-06
 SKALA_GPW| Atom-composite cross support/maxima   2.607069088142E+00   5.512495957833E-02   5.475111261838E-01   3.118646128365E+00
 SKALA_GPW| Active atom-composite XC energy  -3.0074551191409050E+01
 SKALA_GPW| Active atom-composite electrons   7.0000044887672914E+01
 SKALA_GPW| Active atom-composite density range  -5.7394684586945986E-09   3.4096367589010707E-01
 SKALA_GPW| Active atom-composite tau range  -9.4847607434258778E-08   6.2425152050176713E+00
 SKALA_GPW| Active atom-composite tau integral   7.3734743974214965E+01
 SKALA_GPW| Active atom-composite max gradient   1.1639626843353972E+00
    56 OT DIIS     0.10E+00  124.7     0.00001348       -95.1537302535 -2.24E-06
 SKALA_GPW| Atom-composite cross support/maxima   2.607069088142E+00   5.512420310319E-02   5.475230757572E-01   3.118656304136E+00
 SKALA_GPW| Active atom-composite XC energy  -3.0074558818447585E+01
 SKALA_GPW| Active atom-composite electrons   7.0000044887692965E+01
 SKALA_GPW| Active atom-composite density range  -5.7394120092228926E-09   3.4096926474761668E-01
 SKALA_GPW| Active atom-composite tau range  -9.4846263729986760E-08   6.2425189209680454E+00
 SKALA_GPW| Active atom-composite tau integral   7.3734772290080201E+01
 SKALA_GPW| Active atom-composite max gradient   1.1639528238383958E+00
    57 OT DIIS     0.10E+00  124.8     0.00001230       -95.1537325103 -2.26E-06
 SKALA_GPW| Atom-composite cross support/maxima   2.607069088142E+00   5.512093550019E-02   5.475110023112E-01   3.118675682516E+00
 SKALA_GPW| Active atom-composite XC energy  -3.0074557278133902E+01
 SKALA_GPW| Active atom-composite electrons   7.0000044887721856E+01
 SKALA_GPW| Active atom-composite density range  -5.7393870634588360E-09   3.4096558349163325E-01
 SKALA_GPW| Active atom-composite tau range  -9.4845943217846676E-08   6.2425462104853544E+00
 SKALA_GPW| Active atom-composite tau integral   7.3734783120390276E+01
 SKALA_GPW| Active atom-composite max gradient   1.1639502283316996E+00
    58 OT DIIS     0.10E+00  125.5     0.00001150       -95.1537336662 -1.16E-06
 SKALA_GPW| Atom-composite cross support/maxima   2.607069088142E+00   5.511836305066E-02   5.475060635256E-01   3.118679418235E+00
 SKALA_GPW| Active atom-composite XC energy  -3.0074557202006321E+01
 SKALA_GPW| Active atom-composite electrons   7.0000044887941939E+01
 SKALA_GPW| Active atom-composite density range  -5.7393448606680963E-09   3.4096805799900981E-01
 SKALA_GPW| Active atom-composite tau range  -9.4845270069131401E-08   6.2425470339893847E+00
 SKALA_GPW| Active atom-composite tau integral   7.3734746603975339E+01
 SKALA_GPW| Active atom-composite max gradient   1.1639439062304349E+00
    59 OT DIIS     0.10E+00  125.3     0.00001045       -95.1537351207 -1.45E-06
 SKALA_GPW| Atom-composite cross support/maxima   2.607069088142E+00   5.511656596003E-02   5.474988684699E-01   3.118661559703E+00
 SKALA_GPW| Active atom-composite XC energy  -3.0074564352916539E+01
 SKALA_GPW| Active atom-composite electrons   7.0000044888238662E+01
 SKALA_GPW| Active atom-composite density range  -5.7393477301964799E-09   3.4096922208679808E-01
 SKALA_GPW| Active atom-composite tau range  -9.4844579651198078E-08   6.2425067836465526E+00
 SKALA_GPW| Active atom-composite tau integral   7.3734769885496306E+01
 SKALA_GPW| Active atom-composite max gradient   1.1639390617567131E+00
    60 OT DIIS     0.10E+00  125.1     0.00000995       -95.1537356749 -5.54E-07
 SKALA_GPW| Atom-composite cross support/maxima   2.607069088142E+00   5.511428303925E-02   5.474897317551E-01   3.118663779493E+00
 SKALA_GPW| Active atom-composite XC energy  -3.0074562929555494E+01
 SKALA_GPW| Active atom-composite electrons   7.0000044888670473E+01
 SKALA_GPW| Active atom-composite density range  -5.7393228925864091E-09   3.4096885840179486E-01
 SKALA_GPW| Active atom-composite tau range  -9.4844782342932846E-08   6.2425134277062648E+00
 SKALA_GPW| Active atom-composite tau integral   7.3734738362194008E+01
 SKALA_GPW| Active atom-composite max gradient   1.1639396817773693E+00
    61 OT DIIS     0.10E+00  125.6     0.00000947       -95.1537362819 -6.07E-07
 SKALA_GPW| Atom-composite cross support/maxima   2.607069088142E+00   5.511248254621E-02   5.474902627994E-01   3.118671848522E+00
 SKALA_GPW| Active atom-composite XC energy  -3.0074563401009069E+01
 SKALA_GPW| Active atom-composite electrons   7.0000044889030178E+01
 SKALA_GPW| Active atom-composite density range  -5.7393273833754393E-09   3.4096790005290184E-01
 SKALA_GPW| Active atom-composite tau range  -9.4845546394129296E-08   6.2425335787903382E+00
 SKALA_GPW| Active atom-composite tau integral   7.3734721140484183E+01
 SKALA_GPW| Active atom-composite max gradient   1.1639483740547178E+00
    62 OT DIIS     0.10E+00  125.1     0.00000914       -95.1537367696 -4.88E-07
 SKALA_GPW| Atom-composite cross support/maxima   2.607069088142E+00   5.511176980010E-02   5.474885976668E-01   3.118640262187E+00
 SKALA_GPW| Active atom-composite XC energy  -3.0074566453723182E+01
 SKALA_GPW| Active atom-composite electrons   7.0000044889625784E+01
 SKALA_GPW| Active atom-composite density range  -5.7393121083517576E-09   3.4097033861263726E-01
 SKALA_GPW| Active atom-composite tau range  -9.4845229350353536E-08   6.2424779819223035E+00
 SKALA_GPW| Active atom-composite tau integral   7.3734724893333691E+01
 SKALA_GPW| Active atom-composite max gradient   1.1639455109145100E+00
    63 OT DIIS     0.10E+00  125.5     0.00000878       -95.1537372479 -4.78E-07
 SKALA_GPW| Atom-composite cross support/maxima   2.607069088142E+00   5.511069291294E-02   5.474926886163E-01   3.118649670042E+00
 SKALA_GPW| Active atom-composite XC energy  -3.0074565359651931E+01
 SKALA_GPW| Active atom-composite electrons   7.0000044890035539E+01
 SKALA_GPW| Active atom-composite density range  -5.7393606224593657E-09   3.4096971120332903E-01
 SKALA_GPW| Active atom-composite tau range  -9.4846095970751534E-08   6.2425023893075196E+00
 SKALA_GPW| Active atom-composite tau integral   7.3734704262329501E+01
 SKALA_GPW| Active atom-composite max gradient   1.1639547972629838E+00
    64 OT DIIS     0.10E+00  125.3     0.00000844       -95.1537376892 -4.41E-07
 SKALA_GPW| Atom-composite cross support/maxima   2.607069088142E+00   5.511004267338E-02   5.474953380930E-01   3.118639737067E+00
 SKALA_GPW| Active atom-composite XC energy  -3.0074565333772487E+01
 SKALA_GPW| Active atom-composite electrons   7.0000044890467962E+01
 SKALA_GPW| Active atom-composite density range  -5.7394031945374205E-09   3.4096898516742669E-01
 SKALA_GPW| Active atom-composite tau range  -9.4846672656778710E-08   6.2424911776457197E+00
 SKALA_GPW| Active atom-composite tau integral   7.3734709636508484E+01
 SKALA_GPW| Active atom-composite max gradient   1.1639617681155330E+00
    65 OT DIIS     0.10E+00  125.5     0.00000807       -95.1537382484 -5.59E-07
 SKALA_GPW| Atom-composite cross support/maxima   2.607069088142E+00   5.511085648777E-02   5.474967727995E-01   3.118639098853E+00
 SKALA_GPW| Active atom-composite XC energy  -3.0074566944363262E+01
 SKALA_GPW| Active atom-composite electrons   7.0000044890714250E+01
 SKALA_GPW| Active atom-composite density range  -5.7394271723449143E-09   3.4097166564345371E-01
 SKALA_GPW| Active atom-composite tau range  -9.4846874720903476E-08   6.2424761179931778E+00
 SKALA_GPW| Active atom-composite tau integral   7.3734708041098685E+01
 SKALA_GPW| Active atom-composite max gradient   1.1639652711201136E+00
    66 OT DIIS     0.10E+00  125.3     0.00000780       -95.1537386202 -3.72E-07
 SKALA_GPW| Atom-composite cross support/maxima   2.607069088142E+00   5.511093038083E-02   5.474979615332E-01   3.118624447906E+00
 SKALA_GPW| Active atom-composite XC energy  -3.0074566682352582E+01
 SKALA_GPW| Active atom-composite electrons   7.0000044890939790E+01
 SKALA_GPW| Active atom-composite density range  -5.7394541357958921E-09   3.4097057783622997E-01
 SKALA_GPW| Active atom-composite tau range  -9.4847122933000619E-08   6.2424641287108384E+00
 SKALA_GPW| Active atom-composite tau integral   7.3734713063458130E+01
 SKALA_GPW| Active atom-composite max gradient   1.1639692881960122E+00
    67 OT DIIS     0.10E+00  125.1     0.00000744       -95.1537391147 -4.95E-07
 SKALA_GPW| Atom-composite cross support/maxima   2.607069088142E+00   5.511133408490E-02   5.475003071662E-01   3.118626218604E+00
 SKALA_GPW| Active atom-composite XC energy  -3.0074564714131817E+01
 SKALA_GPW| Active atom-composite electrons   7.0000044890921515E+01
 SKALA_GPW| Active atom-composite density range  -5.7394831173221020E-09   3.4096963549003678E-01
 SKALA_GPW| Active atom-composite tau range  -9.4847552147286687E-08   6.2424774620655938E+00
 SKALA_GPW| Active atom-composite tau integral   7.3734702462608965E+01
 SKALA_GPW| Active atom-composite max gradient   1.1639736196497030E+00
    68 OT DIIS     0.10E+00  125.3     0.00000719       -95.1537395076 -3.93E-07
 SKALA_GPW| Atom-composite cross support/maxima   2.607069088142E+00   5.511216450721E-02   5.475006875671E-01   3.118620244194E+00
 SKALA_GPW| Active atom-composite XC energy  -3.0074567209822405E+01
 SKALA_GPW| Active atom-composite electrons   7.0000044890880972E+01
 SKALA_GPW| Active atom-composite density range  -5.7394950761034138E-09   3.4096961948034610E-01
 SKALA_GPW| Active atom-composite tau range  -9.4847545652636855E-08   6.2424648850675553E+00
 SKALA_GPW| Active atom-composite tau integral   7.3734713656247223E+01
 SKALA_GPW| Active atom-composite max gradient   1.1639752237111716E+00
    69 OT DIIS     0.10E+00  125.0     0.00000689       -95.1537399340 -4.26E-07
 SKALA_GPW| Atom-composite cross support/maxima   2.607069088142E+00   5.511260367561E-02   5.474989765053E-01   3.118617670335E+00
 SKALA_GPW| Active atom-composite XC energy  -3.0074566791888017E+01
 SKALA_GPW| Active atom-composite electrons   7.0000044890865539E+01
 SKALA_GPW| Active atom-composite density range  -5.7394772295760273E-09   3.4096935256458411E-01
 SKALA_GPW| Active atom-composite tau range  -9.4847190595336673E-08   6.2424586570388900E+00
 SKALA_GPW| Active atom-composite tau integral   7.3734703672439650E+01
 SKALA_GPW| Active atom-composite max gradient   1.1639713310229394E+00
    70 OT DIIS     0.10E+00  125.0     0.00000663       -95.1537403266 -3.93E-07
 SKALA_GPW| Atom-composite cross support/maxima   2.607069088142E+00   5.511229013527E-02   5.475006985016E-01   3.118624831202E+00
 SKALA_GPW| Active atom-composite XC energy  -3.0074565427460890E+01
 SKALA_GPW| Active atom-composite electrons   7.0000044890733065E+01
 SKALA_GPW| Active atom-composite density range  -5.7394965922887382E-09   3.4096683368622732E-01
 SKALA_GPW| Active atom-composite tau range  -9.4847542924512437E-08   6.2424700281077419E+00
 SKALA_GPW| Active atom-composite tau integral   7.3734686791994321E+01
 SKALA_GPW| Active atom-composite max gradient   1.1639750211372379E+00
    71 OT DIIS     0.10E+00  125.0     0.00000633       -95.1537407050 -3.78E-07
 SKALA_GPW| Atom-composite cross support/maxima   2.607069088142E+00   5.511238960194E-02   5.475019892255E-01   3.118613108213E+00
 SKALA_GPW| Active atom-composite XC energy  -3.0074569119770430E+01
 SKALA_GPW| Active atom-composite electrons   7.0000044890730507E+01
 SKALA_GPW| Active atom-composite density range  -5.7394812041749018E-09   3.4096740085277200E-01
 SKALA_GPW| Active atom-composite tau range  -9.4847205989516136E-08   6.2424454834193241E+00
 SKALA_GPW| Active atom-composite tau integral   7.3734699637343695E+01
 SKALA_GPW| Active atom-composite max gradient   1.1639719138145392E+00
    72 OT DIIS     0.10E+00  125.3     0.00000602       -95.1537411029 -3.98E-07
 SKALA_GPW| Atom-composite cross support/maxima   2.607069088142E+00   5.511163166149E-02   5.475040246063E-01   3.118613910472E+00
 SKALA_GPW| Active atom-composite XC energy  -3.0074568742364985E+01
 SKALA_GPW| Active atom-composite electrons   7.0000044890846951E+01
 SKALA_GPW| Active atom-composite density range  -5.7394695245464152E-09   3.4096769496201607E-01
 SKALA_GPW| Active atom-composite tau range  -9.4846992587945130E-08   6.2424439445592670E+00
 SKALA_GPW| Active atom-composite tau integral   7.3734673838534903E+01
 SKALA_GPW| Active atom-composite max gradient   1.1639701028021410E+00
    73 OT DIIS     0.10E+00  125.0     0.00000563       -95.1537415556 -4.53E-07
 SKALA_GPW| Atom-composite cross support/maxima   2.607069088142E+00   5.510999573140E-02   5.474987767566E-01   3.118614849629E+00
 SKALA_GPW| Active atom-composite XC energy  -3.0074567927768399E+01
 SKALA_GPW| Active atom-composite electrons   7.0000044891019940E+01
 SKALA_GPW| Active atom-composite density range  -5.7394677770688026E-09   3.4096551683069948E-01
 SKALA_GPW| Active atom-composite tau range  -9.4846948260898958E-08   6.2424439432011116E+00
 SKALA_GPW| Active atom-composite tau integral   7.3734668659458166E+01
 SKALA_GPW| Active atom-composite max gradient   1.1639699554506164E+00
    74 OT DIIS     0.10E+00  124.8     0.00000532       -95.1537419100 -3.54E-07
 SKALA_GPW| Atom-composite cross support/maxima   2.607069088142E+00   5.510898343365E-02   5.474984547085E-01   3.118615851084E+00
 SKALA_GPW| Active atom-composite XC energy  -3.0074569926157160E+01
 SKALA_GPW| Active atom-composite electrons   7.0000044891248109E+01
 SKALA_GPW| Active atom-composite density range  -5.7394682238396344E-09   3.4096760940618931E-01
 SKALA_GPW| Active atom-composite tau range  -9.4846895011702798E-08   6.2424466320793863E+00
 SKALA_GPW| Active atom-composite tau integral   7.3734666580942843E+01
 SKALA_GPW| Active atom-composite max gradient   1.1639703358019409E+00
    75 OT DIIS     0.10E+00  125.3     0.00000494       -95.1537422052 -2.95E-07
 SKALA_GPW| Atom-composite cross support/maxima   2.607069088142E+00   5.510795135469E-02   5.474965386094E-01   3.118609437321E+00
 SKALA_GPW| Active atom-composite XC energy  -3.0074571522996084E+01
 SKALA_GPW| Active atom-composite electrons   7.0000044891579208E+01
 SKALA_GPW| Active atom-composite density range  -5.7394802104589537E-09   3.4096900741890718E-01
 SKALA_GPW| Active atom-composite tau range  -9.4846670473490051E-08   6.2424333852210516E+00
 SKALA_GPW| Active atom-composite tau integral   7.3734671598128244E+01
 SKALA_GPW| Active atom-composite max gradient   1.1639698304650068E+00
    76 OT DIIS     0.10E+00  125.2     0.00000467       -95.1537424332 -2.28E-07
 SKALA_GPW| Atom-composite cross support/maxima   2.607069088142E+00   5.510664011565E-02   5.474952311577E-01   3.118608500265E+00
 SKALA_GPW| Active atom-composite XC energy  -3.0074569813765873E+01
 SKALA_GPW| Active atom-composite electrons   7.0000044891892358E+01
 SKALA_GPW| Active atom-composite density range  -5.7394793064425135E-09   3.4096966886729912E-01
 SKALA_GPW| Active atom-composite tau range  -9.4846589425818491E-08   6.2424336595337664E+00
 SKALA_GPW| Active atom-composite tau integral   7.3734661788663928E+01
 SKALA_GPW| Active atom-composite max gradient   1.1639697181154571E+00
    77 OT DIIS     0.10E+00  124.9     0.00000442       -95.1537426121 -1.79E-07
 SKALA_GPW| Atom-composite cross support/maxima   2.607069088142E+00   5.510585058455E-02   5.474965420295E-01   3.118613132528E+00
 SKALA_GPW| Active atom-composite XC energy  -3.0074571259868105E+01
 SKALA_GPW| Active atom-composite electrons   7.0000044892151323E+01
 SKALA_GPW| Active atom-composite density range  -5.7394794793455532E-09   3.4097056528126218E-01
 SKALA_GPW| Active atom-composite tau range  -9.4846777576654552E-08   6.2424440061944049E+00
 SKALA_GPW| Active atom-composite tau integral   7.3734672044435115E+01
 SKALA_GPW| Active atom-composite max gradient   1.1639732462560937E+00
    78 OT DIIS     0.10E+00  125.0     0.00000421       -95.1537427571 -1.45E-07
 SKALA_GPW| Atom-composite cross support/maxima   2.607069088142E+00   5.510566601183E-02   5.474955520185E-01   3.118600998668E+00
 SKALA_GPW| Active atom-composite XC energy  -3.0074572954381555E+01
 SKALA_GPW| Active atom-composite electrons   7.0000044892445786E+01
 SKALA_GPW| Active atom-composite density range  -5.7394951878097872E-09   3.4097279810670728E-01
 SKALA_GPW| Active atom-composite tau range  -9.4846503697443791E-08   6.2424223059482085E+00
 SKALA_GPW| Active atom-composite tau integral   7.3734682382196866E+01
 SKALA_GPW| Active atom-composite max gradient   1.1639713984717606E+00
    79 OT DIIS     0.10E+00  125.0     0.00000400       -95.1537428810 -1.24E-07
 SKALA_GPW| Atom-composite cross support/maxima   2.607069088142E+00   5.510516659069E-02   5.474963797644E-01   3.118605335389E+00
 SKALA_GPW| Active atom-composite XC energy  -3.0074570235069825E+01
 SKALA_GPW| Active atom-composite electrons   7.0000044892625354E+01
 SKALA_GPW| Active atom-composite density range  -5.7394742142189327E-09   3.4097224532336096E-01
 SKALA_GPW| Active atom-composite tau range  -9.4846609268414378E-08   6.2424315576677571E+00
 SKALA_GPW| Active atom-composite tau integral   7.3734665721345166E+01
 SKALA_GPW| Active atom-composite max gradient   1.1639729141768607E+00
    80 OT DIIS     0.10E+00  125.2     0.00000381       -95.1537429848 -1.04E-07
 SKALA_GPW| Atom-composite cross support/maxima   2.607069088142E+00   5.510525988292E-02   5.474969741076E-01   3.118602311937E+00
 SKALA_GPW| Active atom-composite XC energy  -3.0074571678733097E+01
 SKALA_GPW| Active atom-composite electrons   7.0000044892735360E+01
 SKALA_GPW| Active atom-composite density range  -5.7394803142456543E-09   3.4097205796544999E-01
 SKALA_GPW| Active atom-composite tau range  -9.4846698798614180E-08   6.2424270928993524E+00
 SKALA_GPW| Active atom-composite tau integral   7.3734679378955335E+01
 SKALA_GPW| Active atom-composite max gradient   1.1639739944102123E+00
    81 OT DIIS     0.10E+00  125.4     0.00000362       -95.1537430800 -9.52E-08
 SKALA_GPW| Atom-composite cross support/maxima   2.607069088142E+00   5.510571080903E-02   5.474975000740E-01   3.118602473752E+00
 SKALA_GPW| Active atom-composite XC energy  -3.0074572675147024E+01
 SKALA_GPW| Active atom-composite electrons   7.0000044892800844E+01
 SKALA_GPW| Active atom-composite density range  -5.7394844980261046E-09   3.4097290769445204E-01
 SKALA_GPW| Active atom-composite tau range  -9.4846778675826589E-08   6.2424267997158260E+00
 SKALA_GPW| Active atom-composite tau integral   7.3734678853999867E+01
 SKALA_GPW| Active atom-composite max gradient   1.1639763421586806E+00
    82 OT DIIS     0.10E+00  125.2     0.00000350       -95.1537431485 -6.85E-08
 SKALA_GPW| Atom-composite cross support/maxima   2.607069088142E+00   5.510590372535E-02   5.474975292111E-01   3.118599076599E+00
 SKALA_GPW| Active atom-composite XC energy  -3.0074571686339034E+01
 SKALA_GPW| Active atom-composite electrons   7.0000044892812269E+01
 SKALA_GPW| Active atom-composite density range  -5.7394859817317513E-09   3.4097141180800827E-01
 SKALA_GPW| Active atom-composite tau range  -9.4846830360239494E-08   6.2424211302624038E+00
 SKALA_GPW| Active atom-composite tau integral   7.3734674831257379E+01
 SKALA_GPW| Active atom-composite max gradient   1.1639748685367914E+00
    83 OT DIIS     0.10E+00  124.8     0.00000337       -95.1537431952 -4.67E-08
 SKALA_GPW| Atom-composite cross support/maxima   2.607069088142E+00   5.510612077077E-02   5.474979445849E-01   3.118599558193E+00
 SKALA_GPW| Active atom-composite XC energy  -3.0074571398170960E+01
 SKALA_GPW| Active atom-composite electrons   7.0000044892776259E+01
 SKALA_GPW| Active atom-composite density range  -5.7394920221281127E-09   3.4097054758913631E-01
 SKALA_GPW| Active atom-composite tau range  -9.4846965820576503E-08   6.2424226905716544E+00
 SKALA_GPW| Active atom-composite tau integral   7.3734671014235104E+01
 SKALA_GPW| Active atom-composite max gradient   1.1639756692223675E+00
    84 OT DIIS     0.10E+00  124.8     0.00000325       -95.1537432534 -5.82E-08
 SKALA_GPW| Atom-composite cross support/maxima   2.607069088142E+00   5.510657547839E-02   5.474984334093E-01   3.118599839710E+00
 SKALA_GPW| Active atom-composite XC energy  -3.0074572900062801E+01
 SKALA_GPW| Active atom-composite electrons   7.0000044892724162E+01
 SKALA_GPW| Active atom-composite density range  -5.7395024321356002E-09   3.4097009231160086E-01
 SKALA_GPW| Active atom-composite tau range  -9.4847135984392312E-08   6.2424226324015049E+00
 SKALA_GPW| Active atom-composite tau integral   7.3734676230767178E+01
 SKALA_GPW| Active atom-composite max gradient   1.1639772563335806E+00
    85 OT DIIS     0.10E+00  125.2     0.00000315       -95.1537433080 -5.47E-08
 SKALA_GPW| Atom-composite cross support/maxima   2.607069088142E+00   5.510666629124E-02   5.474979451430E-01   3.118595412496E+00
 SKALA_GPW| Active atom-composite XC energy  -3.0074572202811709E+01
 SKALA_GPW| Active atom-composite electrons   7.0000044892708132E+01
 SKALA_GPW| Active atom-composite density range  -5.7395014621168033E-09   3.4096959405244931E-01
 SKALA_GPW| Active atom-composite tau range  -9.4847101680502959E-08   6.2424142410250099E+00
 SKALA_GPW| Active atom-composite tau integral   7.3734668706914178E+01
 SKALA_GPW| Active atom-composite max gradient   1.1639766867337382E+00
    86 OT DIIS     0.10E+00  125.0     0.00000306       -95.1537433443 -3.63E-08
 SKALA_GPW| Atom-composite cross support/maxima   2.607069088142E+00   5.510649020512E-02   5.474985759336E-01   3.118598805603E+00
 SKALA_GPW| Active atom-composite XC energy  -3.0074571497528765E+01
 SKALA_GPW| Active atom-composite electrons   7.0000044892671767E+01
 SKALA_GPW| Active atom-composite density range  -5.7395127166026711E-09   3.4096851534195122E-01
 SKALA_GPW| Active atom-composite tau range  -9.4847270319660112E-08   6.2424208388705065E+00
 SKALA_GPW| Active atom-composite tau integral   7.3734662100934898E+01
 SKALA_GPW| Active atom-composite max gradient   1.1639785622446177E+00
    87 OT DIIS     0.10E+00  125.2     0.00000298       -95.1537433909 -4.66E-08
 SKALA_GPW| Atom-composite cross support/maxima   2.607069088142E+00   5.510651911140E-02   5.474985944274E-01   3.118594999609E+00
 SKALA_GPW| Active atom-composite XC energy  -3.0074573588907857E+01
 SKALA_GPW| Active atom-composite electrons   7.0000044892681885E+01
 SKALA_GPW| Active atom-composite density range  -5.7395186139193214E-09   3.4096903363839098E-01
 SKALA_GPW| Active atom-composite tau range  -9.4847297751240384E-08   6.2424141706246381E+00
 SKALA_GPW| Active atom-composite tau integral   7.3734671857378203E+01
 SKALA_GPW| Active atom-composite max gradient   1.1639792991189086E+00
    88 OT DIIS     0.10E+00  124.9     0.00000288       -95.1537434520 -6.10E-08
 SKALA_GPW| Atom-composite cross support/maxima   2.607069088142E+00   5.510613566368E-02   5.474987645995E-01   3.118594702554E+00
 SKALA_GPW| Active atom-composite XC energy  -3.0074572557028070E+01
 SKALA_GPW| Active atom-composite electrons   7.0000044892734451E+01
 SKALA_GPW| Active atom-composite density range  -5.7395227521386760E-09   3.4096927075836325E-01
 SKALA_GPW| Active atom-composite tau range  -9.4847300762765681E-08   6.2424141257776844E+00
 SKALA_GPW| Active atom-composite tau integral   7.3734658531987961E+01
 SKALA_GPW| Active atom-composite max gradient   1.1639800299988319E+00
    89 OT DIIS     0.10E+00  124.9     0.00000277       -95.1537435070 -5.50E-08
 SKALA_GPW| Atom-composite cross support/maxima   2.607069088142E+00   5.510555096472E-02   5.474987313067E-01   3.118591509912E+00
 SKALA_GPW| Active atom-composite XC energy  -3.0074572098700528E+01
 SKALA_GPW| Active atom-composite electrons   7.0000044892810550E+01
 SKALA_GPW| Active atom-composite density range  -5.7395242924390358E-09   3.4096883204292661E-01
 SKALA_GPW| Active atom-composite tau range  -9.4847260181766063E-08   6.2424087417440290E+00
 SKALA_GPW| Active atom-composite tau integral   7.3734656001543584E+01
 SKALA_GPW| Active atom-composite max gradient   1.1639803490185443E+00
    90 OT DIIS     0.10E+00  124.7     0.00000268       -95.1537435738 -6.68E-08
 SKALA_GPW| Atom-composite cross support/maxima   2.607069088142E+00   5.510519891862E-02   5.474992788662E-01   3.118591879681E+00
 SKALA_GPW| Active atom-composite XC energy  -3.0074573279686746E+01
 SKALA_GPW| Active atom-composite electrons   7.0000044892886706E+01
 SKALA_GPW| Active atom-composite density range  -5.7395287403641870E-09   3.4097012035807289E-01
 SKALA_GPW| Active atom-composite tau range  -9.4847278172466620E-08   6.2424108073453084E+00
 SKALA_GPW| Active atom-composite tau integral   7.3734657518512890E+01
 SKALA_GPW| Active atom-composite max gradient   1.1639813303964630E+00
    91 OT DIIS     0.10E+00  124.7     0.00000258       -95.1537436330 -5.93E-08
 SKALA_GPW| Atom-composite cross support/maxima   2.607069088142E+00   5.510477143393E-02   5.474995126064E-01   3.118590218187E+00
 SKALA_GPW| Active atom-composite XC energy  -3.0074573756509302E+01
 SKALA_GPW| Active atom-composite electrons   7.0000044893013708E+01
 SKALA_GPW| Active atom-composite density range  -5.7395294892654640E-09   3.4097077265052911E-01
 SKALA_GPW| Active atom-composite tau range  -9.4847249868468749E-08   6.2424079860977395E+00
 SKALA_GPW| Active atom-composite tau integral   7.3734657733967282E+01
 SKALA_GPW| Active atom-composite max gradient   1.1639817578064864E+00
    92 OT DIIS     0.10E+00  125.1     0.00000247       -95.1537436875 -5.45E-08
 SKALA_GPW| Atom-composite cross support/maxima   2.607069088142E+00   5.510413573145E-02   5.474993276316E-01   3.118586498385E+00
 SKALA_GPW| Active atom-composite XC energy  -3.0074572647982148E+01
 SKALA_GPW| Active atom-composite electrons   7.0000044893134046E+01
 SKALA_GPW| Active atom-composite density range  -5.7395221991621896E-09   3.4097109580037938E-01
 SKALA_GPW| Active atom-composite tau range  -9.4847108714378201E-08   6.2424019823489205E+00
 SKALA_GPW| Active atom-composite tau integral   7.3734649747924252E+01
 SKALA_GPW| Active atom-composite max gradient   1.1639807627321719E+00
    93 OT DIIS     0.10E+00  125.1     0.00000235       -95.1537437499 -6.24E-08
 SKALA_GPW| Atom-composite cross support/maxima   2.607069088142E+00   5.510378762839E-02   5.475001045381E-01   3.118589475662E+00
 SKALA_GPW| Active atom-composite XC energy  -3.0074573876411780E+01
 SKALA_GPW| Active atom-composite electrons   7.0000044893241764E+01
 SKALA_GPW| Active atom-composite density range  -5.7395277094730672E-09   3.4097148073983657E-01
 SKALA_GPW| Active atom-composite tau range  -9.4847210440031111E-08   6.2424078131287821E+00
 SKALA_GPW| Active atom-composite tau integral   7.3734656353602745E+01
 SKALA_GPW| Active atom-composite max gradient   1.1639821408532960E+00
    94 OT DIIS     0.10E+00  125.2     0.00000223       -95.1537438185 -6.86E-08
 SKALA_GPW| Atom-composite cross support/maxima   2.607069088142E+00   5.510373867637E-02   5.474996602476E-01   3.118585475900E+00
 SKALA_GPW| Active atom-composite XC energy  -3.0074574862411353E+01
 SKALA_GPW| Active atom-composite electrons   7.0000044893370472E+01
 SKALA_GPW| Active atom-composite density range  -5.7395213661450155E-09   3.4097239286011388E-01
 SKALA_GPW| Active atom-composite tau range  -9.4847109150182277E-08   6.2423994410848547E+00
 SKALA_GPW| Active atom-composite tau integral   7.3734661473384222E+01
 SKALA_GPW| Active atom-composite max gradient   1.1639810729245199E+00
    95 OT DIIS     0.10E+00  124.9     0.00000211       -95.1537438599 -4.13E-08
 SKALA_GPW| Atom-composite cross support/maxima   2.607069088142E+00   5.510345331397E-02   5.474995915272E-01   3.118586451890E+00
 SKALA_GPW| Active atom-composite XC energy  -3.0074573039988636E+01
 SKALA_GPW| Active atom-composite electrons   7.0000044893457030E+01
 SKALA_GPW| Active atom-composite density range  -5.7395199331601657E-09   3.4097166942200913E-01
 SKALA_GPW| Active atom-composite tau range  -9.4847112065404984E-08   6.2424014792269649E+00
 SKALA_GPW| Active atom-composite tau integral   7.3734649964882564E+01
 SKALA_GPW| Active atom-composite max gradient   1.1639809720760603E+00
    96 OT DIIS     0.10E+00  125.2     0.00000198       -95.1537439101 -5.03E-08
 SKALA_GPW| Atom-composite cross support/maxima   2.607069088142E+00   5.510354933727E-02   5.474992722000E-01   3.118585076925E+00
 SKALA_GPW| Active atom-composite XC energy  -3.0074574431558716E+01
 SKALA_GPW| Active atom-composite electrons   7.0000044893518847E+01
 SKALA_GPW| Active atom-composite density range  -5.7395206190373763E-09   3.4097132622993392E-01
 SKALA_GPW| Active atom-composite tau range  -9.4847132390544013E-08   6.2423981618433135E+00
 SKALA_GPW| Active atom-composite tau integral   7.3734661893837796E+01
 SKALA_GPW| Active atom-composite max gradient   1.1639809048510479E+00
    97 OT DIIS     0.10E+00  125.4     0.00000185       -95.1537439548 -4.46E-08
 SKALA_GPW| Atom-composite cross support/maxima   2.607069088142E+00   5.510380178128E-02   5.474993080500E-01   3.118591071631E+00
 SKALA_GPW| Active atom-composite XC energy  -3.0074575050284917E+01
 SKALA_GPW| Active atom-composite electrons   7.0000044893574483E+01
 SKALA_GPW| Active atom-composite density range  -5.7395253432216682E-09   3.4097157537229733E-01
 SKALA_GPW| Active atom-composite tau range  -9.4847215328903980E-08   6.2424021136646886E+00
 SKALA_GPW| Active atom-composite tau integral   7.3734662221273624E+01
 SKALA_GPW| Active atom-composite max gradient   1.1639832589781220E+00
    98 OT DIIS     0.10E+00  124.9     0.00000174       -95.1537439883 -3.36E-08
 SKALA_GPW| Atom-composite cross support/maxima   2.607069088142E+00   5.510383642597E-02   5.474986834266E-01   3.118585480097E+00
 SKALA_GPW| Active atom-composite XC energy  -3.0074574183366813E+01
 SKALA_GPW| Active atom-composite electrons   7.0000044893623951E+01
 SKALA_GPW| Active atom-composite density range  -5.7395247351920901E-09   3.4097048613805386E-01
 SKALA_GPW| Active atom-composite tau range  -9.4847189966519464E-08   6.2423973893883682E+00
 SKALA_GPW| Active atom-composite tau integral   7.3734659066089151E+01
 SKALA_GPW| Active atom-composite max gradient   1.1639811974536278E+00
    99 OT DIIS     0.10E+00  125.2     0.00000164       -95.1537440153 -2.70E-08
 SKALA_GPW| Atom-composite cross support/maxima   2.607069088142E+00   5.510395963710E-02   5.474984413661E-01   3.118584840240E+00
 SKALA_GPW| Active atom-composite XC energy  -3.0074574081044332E+01
 SKALA_GPW| Active atom-composite electrons   7.0000044893618707E+01
 SKALA_GPW| Active atom-composite density range  -5.7395267624085746E-09   3.4097003726355612E-01
 SKALA_GPW| Active atom-composite tau range  -9.4847194507695579E-08   6.2423962453372699E+00
 SKALA_GPW| Active atom-composite tau integral   7.3734657161528531E+01
 SKALA_GPW| Active atom-composite max gradient   1.1639812995721619E+00
   100 OT DIIS     0.10E+00  125.4     0.00000155       -95.1537440450 -2.97E-08
 SKALA_GPW| Atom-composite cross support/maxima   2.607069088142E+00   5.510413074994E-02   5.474988303235E-01   3.118586754900E+00
 SKALA_GPW| Active atom-composite XC energy  -3.0074575019235478E+01
 SKALA_GPW| Active atom-composite electrons   7.0000044893647612E+01
 SKALA_GPW| Active atom-composite density range  -5.7395348048134767E-09   3.4096990657951209E-01
 SKALA_GPW| Active atom-composite tau range  -9.4847297847845365E-08   6.2423995887115113E+00
 SKALA_GPW| Active atom-composite tau integral   7.3734660834701401E+01
 SKALA_GPW| Active atom-composite max gradient   1.1639825613720303E+00
   101 OT DIIS     0.10E+00  125.0     0.00000148       -95.1537440507 -5.66E-09
 SKALA_GPW| Atom-composite cross support/maxima   2.607069088142E+00   5.510412186374E-02   5.474997601844E-01   3.118583757176E+00
 SKALA_GPW| Active atom-composite XC energy  -3.0074574496261143E+01
 SKALA_GPW| Active atom-composite electrons   7.0000044893671756E+01
 SKALA_GPW| Active atom-composite density range  -5.7395338730642190E-09   3.4096979337224831E-01
 SKALA_GPW| Active atom-composite tau range  -9.4847239698085733E-08   6.2423945467317870E+00
 SKALA_GPW| Active atom-composite tau integral   7.3734655153436790E+01
 SKALA_GPW| Active atom-composite max gradient   1.1639822572616902E+00
   102 OT DIIS     0.10E+00  125.4     0.00000142       -95.1537440669 -1.62E-08
 SKALA_GPW| Atom-composite cross support/maxima   2.607069088142E+00   5.510398775345E-02   5.474994399923E-01   3.118584778625E+00
 SKALA_GPW| Active atom-composite XC energy  -3.0074574155158874E+01
 SKALA_GPW| Active atom-composite electrons   7.0000044893666541E+01
 SKALA_GPW| Active atom-composite density range  -5.7395386149803275E-09   3.4096940041616308E-01
 SKALA_GPW| Active atom-composite tau range  -9.4847289965398263E-08   6.2423967565874641E+00
 SKALA_GPW| Active atom-composite tau integral   7.3734651216180538E+01
 SKALA_GPW| Active atom-composite max gradient   1.1639831420461255E+00
   103 OT DIIS     0.10E+00  125.1     0.00000137       -95.1537440729 -6.03E-09
 SKALA_GPW| Atom-composite cross support/maxima   2.607069088142E+00   5.510396429906E-02   5.475002745747E-01   3.118583202553E+00
 SKALA_GPW| Active atom-composite XC energy  -3.0074575333035249E+01
 SKALA_GPW| Active atom-composite electrons   7.0000044893675323E+01
 SKALA_GPW| Active atom-composite density range  -5.7395417854059904E-09   3.4096985005640368E-01
 SKALA_GPW| Active atom-composite tau range  -9.4847310183893078E-08   6.2423945031923216E+00
 SKALA_GPW| Active atom-composite tau integral   7.3734656233949863E+01
 SKALA_GPW| Active atom-composite max gradient   1.1639836704364255E+00
   104 OT DIIS     0.10E+00  125.0     0.00000132       -95.1537440817 -8.74E-09
 SKALA_GPW| Atom-composite cross support/maxima   2.607069088142E+00   5.510376101812E-02   5.475001364539E-01   3.118583104484E+00
 SKALA_GPW| Active atom-composite XC energy  -3.0074574739178082E+01
 SKALA_GPW| Active atom-composite electrons   7.0000044893689562E+01
 SKALA_GPW| Active atom-composite density range  -5.7395441763259758E-09   3.4097006262023793E-01
 SKALA_GPW| Active atom-composite tau range  -9.4847332391314123E-08   6.2423951756827538E+00
 SKALA_GPW| Active atom-composite tau integral   7.3734648825950160E+01
 SKALA_GPW| Active atom-composite max gradient   1.1639842271106811E+00
   105 OT DIIS     0.10E+00  125.7     0.00000127       -95.1537440810  6.89E-10
 SKALA_GPW| Atom-composite cross support/maxima   2.607069088142E+00   5.510352661343E-02   5.474996215830E-01   3.118580917256E+00
 SKALA_GPW| Active atom-composite XC energy  -3.0074574583863502E+01
 SKALA_GPW| Active atom-composite electrons   7.0000044893690600E+01
 SKALA_GPW| Active atom-composite density range  -5.7395437866789277E-09   3.4096997827567144E-01
 SKALA_GPW| Active atom-composite tau range  -9.4847309460839285E-08   6.2423915518332826E+00
 SKALA_GPW| Active atom-composite tau integral   7.3734648102874161E+01
 SKALA_GPW| Active atom-composite max gradient   1.1639842363853456E+00
   106 OT DIIS     0.10E+00  125.3     0.00000123       -95.1537440960 -1.51E-08
 SKALA_GPW| Atom-composite cross support/maxima   2.607069088142E+00   5.510341918416E-02   5.475000262938E-01   3.118581052748E+00
 SKALA_GPW| Active atom-composite XC energy  -3.0074575033753014E+01
 SKALA_GPW| Active atom-composite electrons   7.0000044893690912E+01
 SKALA_GPW| Active atom-composite density range  -5.7395462765022892E-09   3.4097043224165052E-01
 SKALA_GPW| Active atom-composite tau range  -9.4847348069522658E-08   6.2423924762843868E+00
 SKALA_GPW| Active atom-composite tau integral   7.3734648895119577E+01
 SKALA_GPW| Active atom-composite max gradient   1.1639847547127031E+00
   107 OT DIIS     0.10E+00  125.2     0.00000120       -95.1537440877  8.38E-09
 SKALA_GPW| Atom-composite cross support/maxima   2.607069088142E+00   5.510327215606E-02   5.475002538893E-01   3.118581017143E+00
 SKALA_GPW| Active atom-composite XC energy  -3.0074575117410308E+01
 SKALA_GPW| Active atom-composite electrons   7.0000044893711021E+01
 SKALA_GPW| Active atom-composite density range  -5.7395477568440876E-09   3.4097060611458069E-01
 SKALA_GPW| Active atom-composite tau range  -9.4847378052528428E-08   6.2423925197348531E+00
 SKALA_GPW| Active atom-composite tau integral   7.3734649225635991E+01
 SKALA_GPW| Active atom-composite max gradient   1.1639850864833050E+00
   108 OT DIIS     0.10E+00  125.2     0.00000117       -95.1537440979 -1.03E-08
 SKALA_GPW| Atom-composite cross support/maxima   2.607069088142E+00   5.510312067154E-02   5.475001666124E-01   3.118579197702E+00
 SKALA_GPW| Active atom-composite XC energy  -3.0074574681010230E+01
 SKALA_GPW| Active atom-composite electrons   7.0000044893717828E+01
 SKALA_GPW| Active atom-composite density range  -5.7395455083810886E-09   3.4097065228353823E-01
 SKALA_GPW| Active atom-composite tau range  -9.4847341241751854E-08   6.2423893414250315E+00
 SKALA_GPW| Active atom-composite tau integral   7.3734646873715050E+01
 SKALA_GPW| Active atom-composite max gradient   1.1639847202617704E+00
   109 OT DIIS     0.10E+00  125.3     0.00000114       -95.1537441012 -3.32E-09
 SKALA_GPW| Atom-composite cross support/maxima   2.607069088142E+00   5.510305904804E-02   5.475003153167E-01   3.118580333917E+00
 SKALA_GPW| Active atom-composite XC energy  -3.0074575004806913E+01
 SKALA_GPW| Active atom-composite electrons   7.0000044893728230E+01
 SKALA_GPW| Active atom-composite density range  -5.7395477017797289E-09   3.4097065663507120E-01
 SKALA_GPW| Active atom-composite tau range  -9.4847388472909989E-08   6.2423912778387702E+00
 SKALA_GPW| Active atom-composite tau integral   7.3734649425486083E+01
 SKALA_GPW| Active atom-composite max gradient   1.1639851442184046E+00
   110 OT DIIS     0.10E+00  125.1     0.00000111       -95.1537441170 -1.58E-08
 SKALA_GPW| Atom-composite cross support/maxima   2.607069088142E+00   5.510308547440E-02   5.475000916065E-01   3.118579374971E+00
 SKALA_GPW| Active atom-composite XC energy  -3.0074575202792278E+01
 SKALA_GPW| Active atom-composite electrons   7.0000044893760986E+01
 SKALA_GPW| Active atom-composite density range  -5.7395462080248428E-09   3.4097084810436001E-01
 SKALA_GPW| Active atom-composite tau range  -9.4847371463734165E-08   6.2423892203333669E+00
 SKALA_GPW| Active atom-composite tau integral   7.3734651135063473E+01
 SKALA_GPW| Active atom-composite max gradient   1.1639848293409099E+00
   111 OT DIIS     0.10E+00  124.6     0.00000109       -95.1537441194 -2.38E-09
 SKALA_GPW| Atom-composite cross support/maxima   2.607069088142E+00   5.510303671074E-02   5.474999320790E-01   3.118579873168E+00
 SKALA_GPW| Active atom-composite XC energy  -3.0074574459578002E+01
 SKALA_GPW| Active atom-composite electrons   7.0000044893791937E+01
 SKALA_GPW| Active atom-composite density range  -5.7395455170803990E-09   3.4097051797236155E-01
 SKALA_GPW| Active atom-composite tau range  -9.4847368326136775E-08   6.2423897637582844E+00
 SKALA_GPW| Active atom-composite tau integral   7.3734647057721901E+01
 SKALA_GPW| Active atom-composite max gradient   1.1639847340634049E+00
   112 OT DIIS     0.10E+00  125.1     0.00000105       -95.1537441250 -5.62E-09
 SKALA_GPW| Atom-composite cross support/maxima   2.607069088142E+00   5.510310553940E-02   5.474995939991E-01   3.118579154870E+00
 SKALA_GPW| Active atom-composite XC energy  -3.0074574997101340E+01
 SKALA_GPW| Active atom-composite electrons   7.0000044893830122E+01
 SKALA_GPW| Active atom-composite density range  -5.7395448886729048E-09   3.4097034097431728E-01
 SKALA_GPW| Active atom-composite tau range  -9.4847354231494583E-08   6.2423878583370911E+00
 SKALA_GPW| Active atom-composite tau integral   7.3734651798914498E+01
 SKALA_GPW| Active atom-composite max gradient   1.1639845388468015E+00
   113 OT DIIS     0.10E+00  124.9     0.00000101       -95.1537441440 -1.90E-08
 SKALA_GPW| Atom-composite cross support/maxima   2.607069088142E+00   5.510323857367E-02   5.474995450563E-01   3.118581153111E+00
 SKALA_GPW| Active atom-composite XC energy  -3.0074575210974562E+01
 SKALA_GPW| Active atom-composite electrons   7.0000044893869884E+01
 SKALA_GPW| Active atom-composite density range  -5.7395465097414660E-09   3.4097040859481698E-01
 SKALA_GPW| Active atom-composite tau range  -9.4847385437194450E-08   6.2423907714349536E+00
 SKALA_GPW| Active atom-composite tau integral   7.3734651600473214E+01
 SKALA_GPW| Active atom-composite max gradient   1.1639847665191234E+00
   114 OT DIIS     0.10E+00  125.2     0.00000097       -95.1537441432  8.86E-10
 SKALA_GPW| Atom-composite cross support/maxima   2.607069088142E+00   5.510322401539E-02   5.474992630942E-01   3.118580062584E+00
 SKALA_GPW| Active atom-composite XC energy  -3.0074574901426438E+01
 SKALA_GPW| Active atom-composite electrons   7.0000044893925519E+01
 SKALA_GPW| Active atom-composite density range  -5.7395457091692569E-09   3.4097000758989121E-01
 SKALA_GPW| Active atom-composite tau range  -9.4847357371876356E-08   6.2423888437451645E+00
 SKALA_GPW| Active atom-composite tau integral   7.3734650159789325E+01
 SKALA_GPW| Active atom-composite max gradient   1.1639845663652009E+00
   115 OT DIIS     0.10E+00  124.8     0.00000093       -95.1537441535 -1.04E-08
 SKALA_GPW| Atom-composite cross support/maxima   2.607069088142E+00   5.510325582813E-02   5.474998329368E-01   3.118579306193E+00
 SKALA_GPW| Active atom-composite XC energy  -3.0074575016958502E+01
 SKALA_GPW| Active atom-composite electrons   7.0000044893942061E+01
 SKALA_GPW| Active atom-composite density range  -5.7395455023561730E-09   3.4096991299294871E-01
 SKALA_GPW| Active atom-composite tau range  -9.4847328245945109E-08   6.2423875755743623E+00
 SKALA_GPW| Active atom-composite tau integral   7.3734649451037072E+01
 SKALA_GPW| Active atom-composite max gradient   1.1639844663333303E+00
   116 OT DIIS     0.10E+00  125.3     0.00000089       -95.1537441695 -1.60E-08
 SKALA_GPW| Atom-composite cross support/maxima   2.607069088142E+00   5.510325237210E-02   5.475004010929E-01   3.118580513074E+00
 SKALA_GPW| Active atom-composite XC energy  -3.0074575547492351E+01
 SKALA_GPW| Active atom-composite electrons   7.0000044893978455E+01
 SKALA_GPW| Active atom-composite density range  -5.7395490538081764E-09   3.4096991150116263E-01
 SKALA_GPW| Active atom-composite tau range  -9.4847369391232452E-08   6.2423898638311659E+00
 SKALA_GPW| Active atom-composite tau integral   7.3734650981783957E+01
 SKALA_GPW| Active atom-composite max gradient   1.1639850832576863E+00
   117 OT DIIS     0.10E+00  124.7     0.00000085       -95.1537441697 -1.65E-10
 SKALA_GPW| Atom-composite cross support/maxima   2.607069088142E+00   5.510314910400E-02   5.475008004257E-01   3.118578678119E+00
 SKALA_GPW| Active atom-composite XC energy  -3.0074575431296832E+01
 SKALA_GPW| Active atom-composite electrons   7.0000044894007488E+01
 SKALA_GPW| Active atom-composite density range  -5.7395485075770063E-09   3.4097000725140464E-01
 SKALA_GPW| Active atom-composite tau range  -9.4847329877269884E-08   6.2423869088389745E+00
 SKALA_GPW| Active atom-composite tau integral   7.3734647998817977E+01
 SKALA_GPW| Active atom-composite max gradient   1.1639849733260728E+00
   118 OT DIIS     0.10E+00  125.2     0.00000080       -95.1537441807 -1.10E-08
 SKALA_GPW| Atom-composite cross support/maxima   2.607069088142E+00   5.510296572319E-02   5.475004092251E-01   3.118578909564E+00
 SKALA_GPW| Active atom-composite XC energy  -3.0074575380699390E+01
 SKALA_GPW| Active atom-composite electrons   7.0000044894010088E+01
 SKALA_GPW| Active atom-composite density range  -5.7395514814866339E-09   3.4096989937614802E-01
 SKALA_GPW| Active atom-composite tau range  -9.4847351618664333E-08   6.2423878184602888E+00
 SKALA_GPW| Active atom-composite tau integral   7.3734645728188923E+01
 SKALA_GPW| Active atom-composite max gradient   1.1639855778256845E+00
   119 OT DIIS     0.10E+00  125.0     0.00000077       -95.1537441820 -1.34E-09
 SKALA_GPW| Atom-composite cross support/maxima   2.607069088142E+00   5.510285595849E-02   5.475007240896E-01   3.118577605661E+00
 SKALA_GPW| Active atom-composite XC energy  -3.0074576277719849E+01
 SKALA_GPW| Active atom-composite electrons   7.0000044894016398E+01
 SKALA_GPW| Active atom-composite density range  -5.7395535667268836E-09   3.4097030818101487E-01
 SKALA_GPW| Active atom-composite tau range  -9.4847361307504447E-08   6.2423859440080740E+00
 SKALA_GPW| Active atom-composite tau integral   7.3734649298076022E+01
 SKALA_GPW| Active atom-composite max gradient   1.1639859409370541E+00
   120 OT DIIS     0.10E+00  125.2     0.00000072       -95.1537441921 -1.00E-08
 SKALA_GPW| Atom-composite cross support/maxima   2.607069088142E+00   5.510264088778E-02   5.475003813093E-01   3.118577557869E+00
 SKALA_GPW| Active atom-composite XC energy  -3.0074575910438121E+01
 SKALA_GPW| Active atom-composite electrons   7.0000044894025038E+01
 SKALA_GPW| Active atom-composite density range  -5.7395558116136773E-09   3.4097048312247002E-01
 SKALA_GPW| Active atom-composite tau range  -9.4847387804250137E-08   6.2423864430571623E+00
 SKALA_GPW| Active atom-composite tau integral   7.3734644549454501E+01
 SKALA_GPW| Active atom-composite max gradient   1.1639864149388828E+00
   121 OT DIIS     0.10E+00  124.4     0.00000067       -95.1537441955 -3.47E-09
 SKALA_GPW| Atom-composite cross support/maxima   2.607069088142E+00   5.510245399345E-02   5.475002997286E-01   3.118575612982E+00
 SKALA_GPW| Active atom-composite XC energy  -3.0074575794297743E+01
 SKALA_GPW| Active atom-composite electrons   7.0000044894017137E+01
 SKALA_GPW| Active atom-composite density range  -5.7395557064142400E-09   3.4097044487214639E-01
 SKALA_GPW| Active atom-composite tau range  -9.4847372255886326E-08   6.2423830983915254E+00
 SKALA_GPW| Active atom-composite tau integral   7.3734644277486666E+01
 SKALA_GPW| Active atom-composite max gradient   1.1639864354554836E+00
   122 OT DIIS     0.10E+00  125.0     0.00000064       -95.1537441978 -2.25E-09
 SKALA_GPW| Atom-composite cross support/maxima   2.607069088142E+00   5.510238803838E-02   5.475004820135E-01   3.118575676218E+00
 SKALA_GPW| Active atom-composite XC energy  -3.0074576036977248E+01
 SKALA_GPW| Active atom-composite electrons   7.0000044894018814E+01
 SKALA_GPW| Active atom-composite density range  -5.7395574075071380E-09   3.4097069190323653E-01
 SKALA_GPW| Active atom-composite tau range  -9.4847402025255271E-08   6.2423834953647201E+00
 SKALA_GPW| Active atom-composite tau integral   7.3734644596974888E+01
 SKALA_GPW| Active atom-composite max gradient   1.1639867546832734E+00
   123 OT DIIS     0.10E+00  125.3     0.00000061       -95.1537442096 -1.18E-08
 SKALA_GPW| Atom-composite cross support/maxima   2.607069088142E+00   5.510231814122E-02   5.475005685471E-01   3.118575904604E+00
 SKALA_GPW| Active atom-composite XC energy  -3.0074575948452853E+01
 SKALA_GPW| Active atom-composite electrons   7.0000044894027397E+01
 SKALA_GPW| Active atom-composite density range  -5.7395586900267847E-09   3.4097069351409670E-01
 SKALA_GPW| Active atom-composite tau range  -9.4847434785548151E-08   6.2423838503765339E+00
 SKALA_GPW| Active atom-composite tau integral   7.3734644506956926E+01
 SKALA_GPW| Active atom-composite max gradient   1.1639869893497226E+00
   124 OT DIIS     0.10E+00  125.3     0.00000059       -95.1537442089  6.74E-10
 SKALA_GPW| Atom-composite cross support/maxima   2.607069088142E+00   5.510229243879E-02   5.475004521752E-01   3.118574764187E+00
 SKALA_GPW| Active atom-composite XC energy  -3.0074575645228073E+01
 SKALA_GPW| Active atom-composite electrons   7.0000044894030452E+01
 SKALA_GPW| Active atom-composite density range  -5.7395575043160382E-09   3.4097066739617715E-01
 SKALA_GPW| Active atom-composite tau range  -9.4847419670018692E-08   6.2423817455772319E+00
 SKALA_GPW| Active atom-composite tau integral   7.3734643246522666E+01
 SKALA_GPW| Active atom-composite max gradient   1.1639867669829509E+00
   125 OT DIIS     0.10E+00  124.9     0.00000056       -95.1537442074  1.48E-09
 SKALA_GPW| Atom-composite cross support/maxima   2.607069088142E+00   5.510232445907E-02   5.475004678041E-01   3.118575389404E+00
 SKALA_GPW| Active atom-composite XC energy  -3.0074575692073459E+01
 SKALA_GPW| Active atom-composite electrons   7.0000044894038879E+01
 SKALA_GPW| Active atom-composite density range  -5.7395586161835450E-09   3.4097056837622863E-01
 SKALA_GPW| Active atom-composite tau range  -9.4847448519505344E-08   6.2423826932370989E+00
 SKALA_GPW| Active atom-composite tau integral   7.3734644311823615E+01
 SKALA_GPW| Active atom-composite max gradient   1.1639869577842843E+00
   126 OT DIIS     0.10E+00  124.7     0.00000055       -95.1537442081 -6.77E-10
 SKALA_GPW| Atom-composite cross support/maxima   2.607069088142E+00   5.510238797395E-02   5.475003352364E-01   3.118574997165E+00
 SKALA_GPW| Active atom-composite XC energy  -3.0074575746963244E+01
 SKALA_GPW| Active atom-composite electrons   7.0000044894055264E+01
 SKALA_GPW| Active atom-composite density range  -5.7395579899417734E-09   3.4097058772997263E-01
 SKALA_GPW| Active atom-composite tau range  -9.4847445225017520E-08   6.2423817724782840E+00
 SKALA_GPW| Active atom-composite tau integral   7.3734645183662892E+01
 SKALA_GPW| Active atom-composite max gradient   1.1639867938542181E+00
   127 OT DIIS     0.10E+00  124.7     0.00000053       -95.1537442103 -2.23E-09
 SKALA_GPW| Atom-composite cross support/maxima   2.607069088142E+00   5.510241998035E-02   5.475002790137E-01   3.118575454431E+00
 SKALA_GPW| Active atom-composite XC energy  -3.0074575340769481E+01
 SKALA_GPW| Active atom-composite electrons   7.0000044894071749E+01
 SKALA_GPW| Active atom-composite density range  -5.7395579419442172E-09   3.4097036714987211E-01
 SKALA_GPW| Active atom-composite tau range  -9.4847450249242284E-08   6.2423824307993261E+00
 SKALA_GPW| Active atom-composite tau integral   7.3734643214079924E+01
 SKALA_GPW| Active atom-composite max gradient   1.1639867857411768E+00
   128 OT DIIS     0.10E+00  124.9     0.00000051       -95.1537442082  2.14E-09
 SKALA_GPW| Atom-composite cross support/maxima   2.607069088142E+00   5.510248561314E-02   5.475001637383E-01   3.118575050626E+00
 SKALA_GPW| Active atom-composite XC energy  -3.0074575575565262E+01
 SKALA_GPW| Active atom-composite electrons   7.0000044894088887E+01
 SKALA_GPW| Active atom-composite density range  -5.7395577119941512E-09   3.4097028147532626E-01
 SKALA_GPW| Active atom-composite tau range  -9.4847440788656505E-08   6.2423815020368458E+00
 SKALA_GPW| Active atom-composite tau integral   7.3734645189143464E+01
 SKALA_GPW| Active atom-composite max gradient   1.1639867188789015E+00
   129 OT DIIS     0.10E+00  124.8     0.00000050       -95.1537442087 -5.53E-10
 SKALA_GPW| Atom-composite cross support/maxima   2.607069088142E+00   5.510255165025E-02   5.475001769677E-01   3.118575875059E+00
 SKALA_GPW| Active atom-composite XC energy  -3.0074575667632715E+01
 SKALA_GPW| Active atom-composite electrons   7.0000044894106281E+01
 SKALA_GPW| Active atom-composite density range  -5.7395583033377907E-09   3.4097029702151721E-01
 SKALA_GPW| Active atom-composite tau range  -9.4847451145196704E-08   6.2423829654701688E+00
 SKALA_GPW| Active atom-composite tau integral   7.3734644995342805E+01
 SKALA_GPW| Active atom-composite max gradient   1.1639868137425420E+00
   130 OT DIIS     0.10E+00  124.7     0.00000049       -95.1537442105 -1.79E-09
 SKALA_GPW| Atom-composite cross support/maxima   2.607069088142E+00   5.510254418425E-02   5.475001155048E-01   3.118575598871E+00
 SKALA_GPW| Active atom-composite XC energy  -3.0074575611835954E+01
 SKALA_GPW| Active atom-composite electrons   7.0000044894122595E+01
 SKALA_GPW| Active atom-composite density range  -5.7395580151305944E-09   3.4097017597529800E-01
 SKALA_GPW| Active atom-composite tau range  -9.4847438061458424E-08   6.2423823787847175E+00
 SKALA_GPW| Active atom-composite tau integral   7.3734644640970473E+01
 SKALA_GPW| Active atom-composite max gradient   1.1639867616432360E+00
   131 OT DIIS     0.10E+00  125.1     0.00000047       -95.1537442122 -1.68E-09
 SKALA_GPW| Atom-composite cross support/maxima   2.607069088142E+00   5.510254212508E-02   5.475001938503E-01   3.118575253943E+00
 SKALA_GPW| Active atom-composite XC energy  -3.0074575724122290E+01
 SKALA_GPW| Active atom-composite electrons   7.0000044894124812E+01
 SKALA_GPW| Active atom-composite density range  -5.7395577562974121E-09   3.4097020643084996E-01
 SKALA_GPW| Active atom-composite tau range  -9.4847420917951658E-08   6.2423818350231333E+00
 SKALA_GPW| Active atom-composite tau integral   7.3734644513865817E+01
 SKALA_GPW| Active atom-composite max gradient   1.1639867205622387E+00
   132 OT DIIS     0.10E+00  125.1     0.00000046       -95.1537442100  2.24E-09
 SKALA_GPW| Atom-composite cross support/maxima   2.607069088142E+00   5.510250744470E-02   5.475002564909E-01   3.118575767315E+00
 SKALA_GPW| Active atom-composite XC energy  -3.0074575936183436E+01
 SKALA_GPW| Active atom-composite electrons   7.0000044894134476E+01
 SKALA_GPW| Active atom-composite density range  -5.7395588260005502E-09   3.4097023473296573E-01
 SKALA_GPW| Active atom-composite tau range  -9.4847431377542361E-08   6.2423828196814863E+00
 SKALA_GPW| Active atom-composite tau integral   7.3734644898590730E+01
 SKALA_GPW| Active atom-composite max gradient   1.1639869232717484E+00
   133 OT DIIS     0.10E+00  125.3     0.00000045       -95.1537442177 -7.75E-09
 SKALA_GPW| Atom-composite cross support/maxima   2.607069088142E+00   5.510242601218E-02   5.475002858410E-01   3.118575101430E+00
 SKALA_GPW| Active atom-composite XC energy  -3.0074575931338110E+01
 SKALA_GPW| Active atom-composite electrons   7.0000044894147962E+01
 SKALA_GPW| Active atom-composite density range  -5.7395583010456583E-09   3.4097033827864920E-01
 SKALA_GPW| Active atom-composite tau range  -9.4847411150060262E-08   6.2423817651861864E+00
 SKALA_GPW| Active atom-composite tau integral   7.3734643895626860E+01
 SKALA_GPW| Active atom-composite max gradient   1.1639868353833358E+00
   134 OT DIIS     0.10E+00  125.1     0.00000043       -95.1537442074  1.03E-08
 SKALA_GPW| Atom-composite cross support/maxima   2.607069088142E+00   5.510231805809E-02   5.475002604279E-01   3.118575255220E+00
 SKALA_GPW| Active atom-composite XC energy  -3.0074575926141002E+01
 SKALA_GPW| Active atom-composite electrons   7.0000044894143400E+01
 SKALA_GPW| Active atom-composite density range  -5.7395592130068309E-09   3.4097033822884421E-01
 SKALA_GPW| Active atom-composite tau range  -9.4847416880815906E-08   6.2423822056995037E+00
 SKALA_GPW| Active atom-composite tau integral   7.3734643019675161E+01
 SKALA_GPW| Active atom-composite max gradient   1.1639870454063548E+00
   135 OT DIIS     0.10E+00  125.0     0.00000041       -95.1537442131 -5.74E-09
 SKALA_GPW| Atom-composite cross support/maxima   2.607069088142E+00   5.510223939712E-02   5.475002878550E-01   3.118574616682E+00
 SKALA_GPW| Active atom-composite XC energy  -3.0074576282187920E+01
 SKALA_GPW| Active atom-composite electrons   7.0000044894141453E+01
 SKALA_GPW| Active atom-composite density range  -5.7395594364599639E-09   3.4097053591474352E-01
 SKALA_GPW| Active atom-composite tau range  -9.4847413032504682E-08   6.2423811699652525E+00
 SKALA_GPW| Active atom-composite tau integral   7.3734644557934217E+01
 SKALA_GPW| Active atom-composite max gradient   1.1639870876034133E+00
   136 OT DIIS     0.10E+00  125.2     0.00000040       -95.1537442133 -2.28E-10
 SKALA_GPW| Atom-composite cross support/maxima   2.607069088142E+00   5.510212615844E-02   5.475003927490E-01   3.118574772041E+00
 SKALA_GPW| Active atom-composite XC energy  -3.0074576085705370E+01
 SKALA_GPW| Active atom-composite electrons   7.0000044894147422E+01
 SKALA_GPW| Active atom-composite density range  -5.7395601753289280E-09   3.4097059967968979E-01
 SKALA_GPW| Active atom-composite tau range  -9.4847426839679919E-08   6.2423816237651781E+00
 SKALA_GPW| Active atom-composite tau integral   7.3734642623618356E+01
 SKALA_GPW| Active atom-composite max gradient   1.1639872374681994E+00
   137 OT DIIS     0.10E+00  124.6     0.00000038       -95.1537442176 -4.28E-09
 SKALA_GPW| Atom-composite cross support/maxima   2.607069088142E+00   5.510203222681E-02   5.475003921571E-01   3.118573818550E+00
 SKALA_GPW| Active atom-composite XC energy  -3.0074576058879273E+01
 SKALA_GPW| Active atom-composite electrons   7.0000044894153419E+01
 SKALA_GPW| Active atom-composite density range  -5.7395602707618455E-09   3.4097057708167200E-01
 SKALA_GPW| Active atom-composite tau range  -9.4847423766551372E-08   6.2423799210581166E+00
 SKALA_GPW| Active atom-composite tau integral   7.3734642836876446E+01
 SKALA_GPW| Active atom-composite max gradient   1.1639872568148446E+00
   138 OT DIIS     0.10E+00  125.0     0.00000036       -95.1537442286 -1.10E-08
 SKALA_GPW| Atom-composite cross support/maxima   2.607069088142E+00   5.510201185462E-02   5.475004706232E-01   3.118573879531E+00
 SKALA_GPW| Active atom-composite XC energy  -3.0074576139398467E+01
 SKALA_GPW| Active atom-composite electrons   7.0000044894154797E+01
 SKALA_GPW| Active atom-composite density range  -5.7395614360150307E-09   3.4097068872923109E-01
 SKALA_GPW| Active atom-composite tau range  -9.4847442289790609E-08   6.2423801218651196E+00
 SKALA_GPW| Active atom-composite tau integral   7.3734643029884239E+01
 SKALA_GPW| Active atom-composite max gradient   1.1639874153402556E+00
   139 OT DIIS     0.10E+00  124.6     0.00000034       -95.1537442212  7.38E-09
 SKALA_GPW| Atom-composite cross support/maxima   2.607069088142E+00   5.510198940374E-02   5.475005114554E-01   3.118573945153E+00
 SKALA_GPW| Active atom-composite XC energy  -3.0074576038971614E+01
 SKALA_GPW| Active atom-composite electrons   7.0000044894171253E+01
 SKALA_GPW| Active atom-composite density range  -5.7395619942601249E-09   3.4097062748172835E-01
 SKALA_GPW| Active atom-composite tau range  -9.4847461744907449E-08   6.2423801681325521E+00
 SKALA_GPW| Active atom-composite tau integral   7.3734642866552704E+01
 SKALA_GPW| Active atom-composite max gradient   1.1639875537174498E+00
   140 OT DIIS     0.10E+00  125.0     0.00000032       -95.1537442188  2.42E-09
 SKALA_GPW| Atom-composite cross support/maxima   2.607069088142E+00   5.510200442232E-02   5.475004661612E-01   3.118573267422E+00
 SKALA_GPW| Active atom-composite XC energy  -3.0074575908616012E+01
 SKALA_GPW| Active atom-composite electrons   7.0000044894181855E+01
 SKALA_GPW| Active atom-composite density range  -5.7395616689818930E-09   3.4097058901979888E-01
 SKALA_GPW| Active atom-composite tau range  -9.4847455931046345E-08   6.2423789149040827E+00
 SKALA_GPW| Active atom-composite tau integral   7.3734642362239796E+01
 SKALA_GPW| Active atom-composite max gradient   1.1639874837238051E+00
   141 OT DIIS     0.10E+00  124.9     0.00000031       -95.1537442199 -1.17E-09
 SKALA_GPW| Atom-composite cross support/maxima   2.607069088142E+00   5.510205101678E-02   5.475005034922E-01   3.118573568833E+00
 SKALA_GPW| Active atom-composite XC energy  -3.0074575942709032E+01
 SKALA_GPW| Active atom-composite electrons   7.0000044894191149E+01
 SKALA_GPW| Active atom-composite density range  -5.7395626996888362E-09   3.4097048693225085E-01
 SKALA_GPW| Active atom-composite tau range  -9.4847473594135337E-08   6.2423793649040320E+00
 SKALA_GPW| Active atom-composite tau integral   7.3734642772782465E+01
 SKALA_GPW| Active atom-composite max gradient   1.1639876739693085E+00
   142 OT DIIS     0.10E+00  125.3     0.00000029       -95.1537442250 -5.01E-09
 SKALA_GPW| Atom-composite cross support/maxima   2.607069088142E+00   5.510210681202E-02   5.475004413637E-01   3.118573210654E+00
 SKALA_GPW| Active atom-composite XC energy  -3.0074575981864509E+01
 SKALA_GPW| Active atom-composite electrons   7.0000044894207065E+01
 SKALA_GPW| Active atom-composite density range  -5.7395625195617205E-09   3.4097047396653601E-01
 SKALA_GPW| Active atom-composite tau range  -9.4847469816974246E-08   6.2423786295292469E+00
 SKALA_GPW| Active atom-composite tau integral   7.3734643080703151E+01
 SKALA_GPW| Active atom-composite max gradient   1.1639876111631327E+00
   143 OT DIIS     0.10E+00  125.1     0.00000028       -95.1537442241  8.70E-10
 SKALA_GPW| Atom-composite cross support/maxima   2.607069088142E+00   5.510213534247E-02   5.475004514896E-01   3.118573497081E+00
 SKALA_GPW| Active atom-composite XC energy  -3.0074575781427232E+01
 SKALA_GPW| Active atom-composite electrons   7.0000044894219030E+01
 SKALA_GPW| Active atom-composite density range  -5.7395629685274198E-09   3.4097033625553175E-01
 SKALA_GPW| Active atom-composite tau range  -9.4847475606751476E-08   6.2423791199029690E+00
 SKALA_GPW| Active atom-composite tau integral   7.3734641745316637E+01
 SKALA_GPW| Active atom-composite max gradient   1.1639876941436025E+00
   144 OT DIIS     0.10E+00  125.1     0.00000027       -95.1537442227  1.39E-09
 SKALA_GPW| Atom-composite cross support/maxima   2.607069088142E+00   5.510218292981E-02   5.475003949953E-01   3.118573173757E+00
 SKALA_GPW| Active atom-composite XC energy  -3.0074575974158904E+01
 SKALA_GPW| Active atom-composite electrons   7.0000044894225724E+01
 SKALA_GPW| Active atom-composite density range  -5.7395629533275665E-09   3.4097030140133833E-01
 SKALA_GPW| Active atom-composite tau range  -9.4847467765382560E-08   6.2423784593721230E+00
 SKALA_GPW| Active atom-composite tau integral   7.3734642845640835E+01
 SKALA_GPW| Active atom-composite max gradient   1.1639876780763809E+00
   145 OT DIIS     0.10E+00  125.1     0.00000026       -95.1537442282 -5.47E-09
 SKALA_GPW| Atom-composite cross support/maxima   2.607069088142E+00   5.510220094011E-02   5.475004165928E-01   3.118573502927E+00
 SKALA_GPW| Active atom-composite XC energy  -3.0074576019016124E+01
 SKALA_GPW| Active atom-composite electrons   7.0000044894231451E+01
 SKALA_GPW| Active atom-composite density range  -5.7395632886832843E-09   3.4097031694922758E-01
 SKALA_GPW| Active atom-composite tau range  -9.4847471298650745E-08   6.2423790792336966E+00
 SKALA_GPW| Active atom-composite tau integral   7.3734642512770691E+01
 SKALA_GPW| Active atom-composite max gradient   1.1639877336944306E+00
   146 OT DIIS     0.10E+00  125.1     0.00000025       -95.1537442234  4.81E-09
 SKALA_GPW| Atom-composite cross support/maxima   2.607069088142E+00   5.510218482699E-02   5.475003683405E-01   3.118573354871E+00
 SKALA_GPW| Active atom-composite XC energy  -3.0074576003538766E+01
 SKALA_GPW| Active atom-composite electrons   7.0000044894236481E+01
 SKALA_GPW| Active atom-composite density range  -5.7395630885677453E-09   3.4097025899684591E-01
 SKALA_GPW| Active atom-composite tau range  -9.4847463541358861E-08   6.2423787845207901E+00
 SKALA_GPW| Active atom-composite tau integral   7.3734642302142660E+01
 SKALA_GPW| Active atom-composite max gradient   1.1639876996741791E+00
   147 OT DIIS     0.10E+00  125.2     0.00000024       -95.1537442320 -8.59E-09
 SKALA_GPW| Atom-composite cross support/maxima   2.607069088142E+00   5.510216931446E-02   5.475003763143E-01   3.118573222324E+00
 SKALA_GPW| Active atom-composite XC energy  -3.0074576078952088E+01
 SKALA_GPW| Active atom-composite electrons   7.0000044894232417E+01
 SKALA_GPW| Active atom-composite density range  -5.7395629317247547E-09   3.4097030132023920E-01
 SKALA_GPW| Active atom-composite tau range  -9.4847455816951868E-08   6.2423786010290119E+00
 SKALA_GPW| Active atom-composite tau integral   7.3734642315579933E+01
 SKALA_GPW| Active atom-composite max gradient   1.1639876804867555E+00
   148 OT DIIS     0.10E+00  125.2     0.00000023       -95.1537442274  4.52E-09
 SKALA_GPW| Atom-composite cross support/maxima   2.607069088142E+00   5.510213600067E-02   5.475003781847E-01   3.118573461967E+00
 SKALA_GPW| Active atom-composite XC energy  -3.0074576149700672E+01
 SKALA_GPW| Active atom-composite electrons   7.0000044894234321E+01
 SKALA_GPW| Active atom-composite density range  -5.7395632152147435E-09   3.4097032100621505E-01
 SKALA_GPW| Active atom-composite tau range  -9.4847459983483721E-08   6.2423790506224144E+00
 SKALA_GPW| Active atom-composite tau integral   7.3734642445260874E+01
 SKALA_GPW| Active atom-composite max gradient   1.1639877432088273E+00
   149 OT DIIS     0.10E+00  125.5     0.00000023       -95.1537442259  1.52E-09
 SKALA_GPW| Atom-composite cross support/maxima   2.607069088142E+00   5.510208740692E-02   5.475003624612E-01   3.118573207480E+00
 SKALA_GPW| Active atom-composite XC energy  -3.0074576143349049E+01
 SKALA_GPW| Active atom-composite electrons   7.0000044894236538E+01
 SKALA_GPW| Active atom-composite density range  -5.7395628110764050E-09   3.4097037644796474E-01
 SKALA_GPW| Active atom-composite tau range  -9.4847453276332446E-08   6.2423786381032222E+00
 SKALA_GPW| Active atom-composite tau integral   7.3734642207531948E+01
 SKALA_GPW| Active atom-composite max gradient   1.1639876704735701E+00
   150 OT DIIS     0.10E+00  124.9     0.00000022       -95.1537442256  3.56E-10
 SKALA_GPW| Atom-composite cross support/maxima   2.607069088142E+00   5.510204042259E-02   5.475004090329E-01   3.118573348556E+00
 SKALA_GPW| Active atom-composite XC energy  -3.0074576129575618E+01
 SKALA_GPW| Active atom-composite electrons   7.0000044894235359E+01
 SKALA_GPW| Active atom-composite density range  -5.7395631213221554E-09   3.4097038357040105E-01
 SKALA_GPW| Active atom-composite tau range  -9.4847458873654143E-08   6.2423789513639942E+00
 SKALA_GPW| Active atom-composite tau integral   7.3734641956557610E+01
 SKALA_GPW| Active atom-composite max gradient   1.1639877476514506E+00
   151 OT DIIS     0.10E+00  125.3     0.00000022       -95.1537442344 -8.83E-09
 SKALA_GPW| Atom-composite cross support/maxima   2.607069088142E+00   5.510200963836E-02   5.475004108666E-01   3.118573117305E+00
 SKALA_GPW| Active atom-composite XC energy  -3.0074576223452780E+01
 SKALA_GPW| Active atom-composite electrons   7.0000044894234236E+01
 SKALA_GPW| Active atom-composite density range  -5.7395630475499143E-09   3.4097045459784370E-01
 SKALA_GPW| Active atom-composite tau range  -9.4847457334321184E-08   6.2423785543570469E+00
 SKALA_GPW| Active atom-composite tau integral   7.3734642550907026E+01
 SKALA_GPW| Active atom-composite max gradient   1.1639877333367004E+00
   152 OT DIIS     0.10E+00  124.8     0.00000021       -95.1537442242  1.02E-08
 SKALA_GPW| Atom-composite cross support/maxima   2.607069088142E+00   5.510196559512E-02   5.475004521128E-01   3.118573250441E+00
 SKALA_GPW| Active atom-composite XC energy  -3.0074576119215024E+01
 SKALA_GPW| Active atom-composite electrons   7.0000044894235344E+01
 SKALA_GPW| Active atom-composite density range  -5.7395632128534034E-09   3.4097047711640160E-01
 SKALA_GPW| Active atom-composite tau range  -9.4847463162683597E-08   6.2423788434044116E+00
 SKALA_GPW| Active atom-composite tau integral   7.3734641835036498E+01
 SKALA_GPW| Active atom-composite max gradient   1.1639877667241032E+00
   153 OT DIIS     0.10E+00  125.3     0.00000021       -95.1537442259 -1.63E-09
 SKALA_GPW| Atom-composite cross support/maxima   2.607069088142E+00   5.510194158211E-02   5.475004564757E-01   3.118572951337E+00
 SKALA_GPW| Active atom-composite XC energy  -3.0074576117229107E+01
 SKALA_GPW| Active atom-composite electrons   7.0000044894232730E+01
 SKALA_GPW| Active atom-composite density range  -5.7395632795586691E-09   3.4097046950410198E-01
 SKALA_GPW| Active atom-composite tau range  -9.4847462021474877E-08   6.2423782981427545E+00
 SKALA_GPW| Active atom-composite tau integral   7.3734642059611787E+01
 SKALA_GPW| Active atom-composite max gradient   1.1639877764027486E+00
   154 OT DIIS     0.10E+00  125.0     0.00000020       -95.1537442274 -1.54E-09
 SKALA_GPW| Atom-composite cross support/maxima   2.607069088142E+00   5.510194645159E-02   5.475004901762E-01   3.118572978481E+00
 SKALA_GPW| Active atom-composite XC energy  -3.0074576142738970E+01
 SKALA_GPW| Active atom-composite electrons   7.0000044894241995E+01
 SKALA_GPW| Active atom-composite density range  -5.7395636598787049E-09   3.4097051683773533E-01
 SKALA_GPW| Active atom-composite tau range  -9.4847467821698048E-08   6.2423783834449882E+00
 SKALA_GPW| Active atom-composite tau integral   7.3734642126392259E+01
 SKALA_GPW| Active atom-composite max gradient   1.1639878364369047E+00
   155 OT DIIS     0.10E+00  124.8     0.00000019       -95.1537442200  7.46E-09
 SKALA_GPW| Atom-composite cross support/maxima   2.607069088142E+00   5.510194879233E-02   5.475005011545E-01   3.118572949951E+00
 SKALA_GPW| Active atom-composite XC energy  -3.0074576116016146E+01
 SKALA_GPW| Active atom-composite electrons   7.0000044894245136E+01
 SKALA_GPW| Active atom-composite density range  -5.7395640289100902E-09   3.4097047912571454E-01
 SKALA_GPW| Active atom-composite tau range  -9.4847472183443177E-08   6.2423783012667426E+00
 SKALA_GPW| Active atom-composite tau integral   7.3734642069647535E+01
 SKALA_GPW| Active atom-composite max gradient   1.1639878850031720E+00
   156 OT DIIS     0.10E+00  124.9     0.00000019       -95.1537442281 -8.15E-09
 SKALA_GPW| Atom-composite cross support/maxima   2.607069088142E+00   5.510196795357E-02   5.475004842000E-01   3.118572680329E+00
 SKALA_GPW| Active atom-composite XC energy  -3.0074576089414627E+01
 SKALA_GPW| Active atom-composite electrons   7.0000044894252554E+01
 SKALA_GPW| Active atom-composite density range  -5.7395640537456074E-09   3.4097045996403275E-01
 SKALA_GPW| Active atom-composite tau range  -9.4847468545280311E-08   6.2423778120831166E+00
 SKALA_GPW| Active atom-composite tau integral   7.3734641949837766E+01
 SKALA_GPW| Active atom-composite max gradient   1.1639878686200917E+00
   157 OT DIIS     0.10E+00  125.4     0.00000018       -95.1537442281 -1.43E-11
 SKALA_GPW| Atom-composite cross support/maxima   2.607069088142E+00   5.510199718664E-02   5.475004957719E-01   3.118572824391E+00
 SKALA_GPW| Active atom-composite XC energy  -3.0074576102955788E+01
 SKALA_GPW| Active atom-composite electrons   7.0000044894263709E+01
 SKALA_GPW| Active atom-composite density range  -5.7395646683662235E-09   3.4097040182000149E-01
 SKALA_GPW| Active atom-composite tau range  -9.4847474225463019E-08   6.2423780258931600E+00
 SKALA_GPW| Active atom-composite tau integral   7.3734641925038332E+01
 SKALA_GPW| Active atom-composite max gradient   1.1639879768951231E+00
   158 OT DIIS     0.10E+00  124.8     0.00000017       -95.1537442255  2.58E-09
 SKALA_GPW| Atom-composite cross support/maxima   2.607069088142E+00   5.510202933073E-02   5.475005510109E-01   3.118572498791E+00
 SKALA_GPW| Active atom-composite XC energy  -3.0074576148529580E+01
 SKALA_GPW| Active atom-composite electrons   7.0000044894271795E+01
 SKALA_GPW| Active atom-composite density range  -5.7395644149017892E-09   3.4097039411454944E-01
 SKALA_GPW| Active atom-composite tau range  -9.4847466679084550E-08   6.2423775539531086E+00
 SKALA_GPW| Active atom-composite tau integral   7.3734642043835393E+01
 SKALA_GPW| Active atom-composite max gradient   1.1639879115656293E+00
   159 OT DIIS     0.10E+00  125.0     0.00000016       -95.1537442233  2.24E-09
 SKALA_GPW| Atom-composite cross support/maxima   2.607069088142E+00   5.510203106294E-02   5.475005299236E-01   3.118572643553E+00
 SKALA_GPW| Active atom-composite XC energy  -3.0074576069477580E+01
 SKALA_GPW| Active atom-composite electrons   7.0000044894280450E+01
 SKALA_GPW| Active atom-composite density range  -5.7395647996298125E-09   3.4097031844348036E-01
 SKALA_GPW| Active atom-composite tau range  -9.4847470883508171E-08   6.2423776287710488E+00
 SKALA_GPW| Active atom-composite tau integral   7.3734641253785071E+01
 SKALA_GPW| Active atom-composite max gradient   1.1639879850892820E+00
   160 OT DIIS     0.10E+00  125.3     0.00000015       -95.1537442247 -1.39E-09
 SKALA_GPW| Atom-composite cross support/maxima   2.607069088142E+00   5.510204387705E-02   5.475005923219E-01   3.118572443081E+00
 SKALA_GPW| Active atom-composite XC energy  -3.0074576196534764E+01
 SKALA_GPW| Active atom-composite electrons   7.0000044894287200E+01
 SKALA_GPW| Active atom-composite density range  -5.7395649509493667E-09   3.4097030295967651E-01
 SKALA_GPW| Active atom-composite tau range  -9.4847469274395684E-08   6.2423772354009373E+00
 SKALA_GPW| Active atom-composite tau integral   7.3734641760003939E+01
 SKALA_GPW| Active atom-composite max gradient   1.1639880145405135E+00
   161 OT DIIS     0.10E+00  124.5     0.00000014       -95.1537442304 -5.68E-09
 SKALA_GPW| Atom-composite cross support/maxima   2.607069088142E+00   5.510203158653E-02   5.475006038185E-01   3.118572583647E+00
 SKALA_GPW| Active atom-composite XC energy  -3.0074576208180886E+01
 SKALA_GPW| Active atom-composite electrons   7.0000044894288649E+01
 SKALA_GPW| Active atom-composite density range  -5.7395650872384899E-09   3.4097032204976052E-01
 SKALA_GPW| Active atom-composite tau range  -9.4847473040019445E-08   6.2423779253658349E+00
 SKALA_GPW| Active atom-composite tau integral   7.3734641346004693E+01
 SKALA_GPW| Active atom-composite max gradient   1.1639880538368912E+00
   162 OT DIIS     0.10E+00  125.1     0.00000014       -95.1537442249  5.45E-09
 SKALA_GPW| Atom-composite cross support/maxima   2.607069088142E+00   5.510199978438E-02   5.475004767612E-01   3.118572425554E+00
 SKALA_GPW| Active atom-composite XC energy  -3.0074576191753220E+01
 SKALA_GPW| Active atom-composite electrons   7.0000044894294859E+01
 SKALA_GPW| Active atom-composite density range  -5.7395649818998033E-09   3.4097028862557505E-01
 SKALA_GPW| Active atom-composite tau range  -9.4847471287984760E-08   6.2423772125739596E+00
 SKALA_GPW| Active atom-composite tau integral   7.3734641194601735E+01
 SKALA_GPW| Active atom-composite max gradient   1.1639880463619963E+00
   163 OT DIIS     0.10E+00  124.8     0.00000013       -95.1537442261 -1.14E-09
 SKALA_GPW| Atom-composite cross support/maxima   2.607069088142E+00   5.510197096889E-02   5.475004397958E-01   3.118572385644E+00
 SKALA_GPW| Active atom-composite XC energy  -3.0074576243974647E+01
 SKALA_GPW| Active atom-composite electrons   7.0000044894293325E+01
 SKALA_GPW| Active atom-composite density range  -5.7395650897041102E-09   3.4097033102391633E-01
 SKALA_GPW| Active atom-composite tau range  -9.4847473266504779E-08   6.2423772830837514E+00
 SKALA_GPW| Active atom-composite tau integral   7.3734641208690704E+01
 SKALA_GPW| Active atom-composite max gradient   1.1639880749465772E+00
   164 OT DIIS     0.10E+00  124.8     0.00000012       -95.1537442312 -5.13E-09
 SKALA_GPW| Atom-composite cross support/maxima   2.607069088142E+00   5.510193756640E-02   5.475004578341E-01   3.118572492372E+00
 SKALA_GPW| Active atom-composite XC energy  -3.0074576268411242E+01
 SKALA_GPW| Active atom-composite electrons   7.0000044894290269E+01
 SKALA_GPW| Active atom-composite density range  -5.7395653737761024E-09   3.4097035087810845E-01
 SKALA_GPW| Active atom-composite tau range  -9.4847479145609747E-08   6.2423774217278662E+00
 SKALA_GPW| Active atom-composite tau integral   7.3734641252665483E+01
 SKALA_GPW| Active atom-composite max gradient   1.1639881313479021E+00
   165 OT DIIS     0.10E+00  125.1     0.00000012       -95.1537442295  1.68E-09
 SKALA_GPW| Atom-composite cross support/maxima   2.607069088142E+00   5.510190380032E-02   5.475004629470E-01   3.118572414232E+00
 SKALA_GPW| Active atom-composite XC energy  -3.0074576264345044E+01
 SKALA_GPW| Active atom-composite electrons   7.0000044894292571E+01
 SKALA_GPW| Active atom-composite density range  -5.7395652127469029E-09   3.4097039493699394E-01
 SKALA_GPW| Active atom-composite tau range  -9.4847476313191023E-08   6.2423771024260102E+00
 SKALA_GPW| Active atom-composite tau integral   7.3734641240082993E+01
 SKALA_GPW| Active atom-composite max gradient   1.1639880985855533E+00
   166 OT DIIS     0.10E+00  125.0     0.00000011       -95.1537442243  5.19E-09
 SKALA_GPW| Atom-composite cross support/maxima   2.607069088142E+00   5.510187549183E-02   5.475005122482E-01   3.118572395934E+00
 SKALA_GPW| Active atom-composite XC energy  -3.0074576245398035E+01
 SKALA_GPW| Active atom-composite electrons   7.0000044894294120E+01
 SKALA_GPW| Active atom-composite density range  -5.7395655991061611E-09   3.4097040052970440E-01
 SKALA_GPW| Active atom-composite tau range  -9.4847481901968222E-08   6.2423773645136258E+00
 SKALA_GPW| Active atom-composite tau integral   7.3734641138275691E+01
 SKALA_GPW| Active atom-composite max gradient   1.1639881751481922E+00
   167 OT DIIS     0.10E+00  125.1     0.00000011       -95.1537442230  1.34E-09
 SKALA_GPW| Atom-composite cross support/maxima   2.607069088142E+00   5.510186692133E-02   5.475005208764E-01   3.118572255750E+00
 SKALA_GPW| Active atom-composite XC energy  -3.0074576307991997E+01
 SKALA_GPW| Active atom-composite electrons   7.0000044894292699E+01
 SKALA_GPW| Active atom-composite density range  -5.7395656592771905E-09   3.4097044244522445E-01
 SKALA_GPW| Active atom-composite tau range  -9.4847480800735393E-08   6.2423771355314717E+00
 SKALA_GPW| Active atom-composite tau integral   7.3734641543095165E+01
 SKALA_GPW| Active atom-composite max gradient   1.1639881747241749E+00
   168 OT DIIS     0.10E+00  125.1     0.00000011       -95.1537442296 -6.60E-09
 SKALA_GPW| Atom-composite cross support/maxima   2.607069088142E+00   5.510185420579E-02   5.475005430978E-01   3.118572303526E+00
 SKALA_GPW| Active atom-composite XC energy  -3.0074576255502777E+01
 SKALA_GPW| Active atom-composite electrons   7.0000044894293865E+01
 SKALA_GPW| Active atom-composite density range  -5.7395657586287132E-09   3.4097044900694329E-01
 SKALA_GPW| Active atom-composite tau range  -9.4847481870452349E-08   6.2423772580390597E+00
 SKALA_GPW| Active atom-composite tau integral   7.3734641238581489E+01
 SKALA_GPW| Active atom-composite max gradient   1.1639881889756722E+00
   169 OT DIIS     0.10E+00  124.8     0.00000010       -95.1537442304 -8.55E-10
 SKALA_GPW| Atom-composite cross support/maxima   2.607069088142E+00   5.510185545318E-02   5.475005387219E-01   3.118572185884E+00
 SKALA_GPW| Active atom-composite XC energy  -3.0074576251012765E+01
 SKALA_GPW| Active atom-composite electrons   7.0000044894300416E+01
 SKALA_GPW| Active atom-composite density range  -5.7395657427352575E-09   3.4097043820046158E-01
 SKALA_GPW| Active atom-composite tau range  -9.4847478953837624E-08   6.2423770347435674E+00
 SKALA_GPW| Active atom-composite tau integral   7.3734641387448534E+01
 SKALA_GPW| Active atom-composite max gradient   1.1639881833310004E+00
   170 OT DIIS     0.10E+00  125.3     0.00000010       -95.1537442282  2.24E-09

  *** SCF run converged in   170 steps ***


  Electronic density on regular grids:        -70.0000000000        0.0000000000
  Core density on regular grids:               69.9999999999       -0.0000000001
  Total charge density on r-space grids:       -0.0000000000
  Total charge density g-space grids:          -0.0000000000

  Overlap energy of the core charge distribution:               0.00000535261389
  Self energy of the core charge distribution:               -226.55126121788356
  Core Hamiltonian energy:                                     70.42026396723432
  Hartree energy:                                              91.10471547160631
  Exchange-correlation energy:                                  0.00000000000000
  Dispersion energy:                                           -0.05289155075179

  GAPW_XC| Exc from hard and soft atomic rho1:                -30.07457625101276

  Total energy:                                               -95.15374422819357

  outer SCF iter =    1 RMS gradient =   0.10E-06 energy =        -95.1537442282
  outer SCF loop converged in   1 iterations or  170 steps


 !-----------------------------------------------------------------------------!
                     Mulliken Population Analysis

 #  Atom  Element  Kind  Atomic population                           Net charge
       1     C        1          3.888048                              0.111952
       2     C        1          3.852677                              0.147323
       3     C        1          3.643577                              0.356423
       4     C        1          3.852186                              0.147814
       5     C        1          3.887353                              0.112647
       6     C        1          3.822907                              0.177093
       7     C        1          3.888048                              0.111952
       8     C        1          3.822905                              0.177095
       9     C        1          3.887348                              0.112652
      10     C        1          3.852188                              0.147812
      11     C        1          3.643577                              0.356423
      12     C        1          3.852679                              0.147321
      13     N        2          5.185602                             -0.185602
      14     N        2          5.185604                             -0.185604
      15     H        3          1.200566                             -0.200566
      16     H        3          1.190062                             -0.190062
      17     H        3          1.189124                             -0.189124
      18     H        3          1.200334                             -0.200334
      19     H        3          1.200566                             -0.200566
      20     H        3          1.200334                             -0.200334
      21     H        3          1.189123                             -0.189123
      22     H        3          1.190067                             -0.190067
      23     H        3          1.041983                             -0.041983
      24     H        3          1.045580                             -0.045580
      25     H        3          1.045581                             -0.045581
      26     H        3          1.041982                             -0.041982
 # Total charge                             70.000000                  0.000000

 !-----------------------------------------------------------------------------!

 !-----------------------------------------------------------------------------!
                           Hirshfeld Charges

  #Atom  Element  Kind  Ref Charge     Population                    Net charge
      1       C      1       4.000          4.453                        -0.453
      2       C      1       4.000          4.479                        -0.479
      3       C      1       4.000          3.882                         0.118
      4       C      1       4.000          4.478                        -0.478
      5       C      1       4.000          4.452                        -0.452
      6       C      1       4.000          4.014                        -0.014
      7       C      1       4.000          4.453                        -0.453
      8       C      1       4.000          4.014                        -0.014
      9       C      1       4.000          4.452                        -0.452
     10       C      1       4.000          4.478                        -0.478
     11       C      1       4.000          3.882                         0.118
     12       C      1       4.000          4.479                        -0.479
     13       N      2       5.000          6.048                        -1.048
     14       N      2       5.000          6.048                        -1.048
     15       H      3       1.000          0.554                         0.446
     16       H      3       1.000          0.553                         0.447
     17       H      3       1.000          0.553                         0.447
     18       H      3       1.000          0.553                         0.447
     19       H      3       1.000          0.554                         0.446
     20       H      3       1.000          0.553                         0.447
     21       H      3       1.000          0.553                         0.447
     22       H      3       1.000          0.553                         0.447
     23       H      3       1.000          0.485                         0.515
     24       H      3       1.000          0.485                         0.515
     25       H      3       1.000          0.485                         0.515
     26       H      3       1.000          0.485                         0.515

  Total Charge                                                            0.020
 !-----------------------------------------------------------------------------!

 ENERGY| Total FORCE_EVAL ( QS ) energy [hartree]            -95.153744228193574

 -------------------------------------------------------------------------------
 -                                                                             -
 -                                DBCSR STATISTICS                             -
 -                                                                             -
 -------------------------------------------------------------------------------
 COUNTER                                    TOTAL       BLAS       SMM       ACC
 flops     3 x     3 x     3                82296       0.0%      0.0%    100.0% (*) 
 flops    32 x     3 x     3               877824       0.0%      0.0%    100.0% (*) 
 flops     3 x     3 x    32               877824       0.0%      0.0%    100.0% (*) 
 flops     3 x    32 x     3               877824       0.0%      0.0%    100.0% (*) 
 flops     3 x     3 x    14              2059344       0.0%      0.0%    100.0% (*) 
 flops    14 x     3 x     3              2573424       0.0%      0.0%    100.0% (*) 
 flops     3 x     3 x    29              4976748       0.0%      0.0%    100.0% (*) 
 flops    29 x     3 x     3              6219108       0.0%      0.0%    100.0% (*) 
 flops    32 x     3 x    32              9363456       0.0%      0.0%    100.0% (*) 
 flops    32 x    32 x     3              9363456       0.0%      0.0%    100.0% (*) 
 flops     3 x    32 x    32              9363456       0.0%      0.0%    100.0% (*) 
 flops    14 x    14 x     3             15685488       0.0%      0.0%    100.0% (*) 
 flops    32 x     3 x    14             21966336       0.0%      0.0%    100.0% (*) 
 flops     3 x    32 x    14             21966336       0.0%      0.0%    100.0% (*) 
 flops    14 x     3 x    32             27417600       0.0%      0.0%    100.0% (*) 
 flops    14 x    32 x     3             27417600       0.0%      0.0%    100.0% (*) 
 flops    29 x    14 x     3             34990704       0.0%      0.0%    100.0% (*) 
 flops    14 x    29 x     3             34990704       0.0%      0.0%    100.0% (*) 
 flops    32 x     3 x    29             53085312       0.0%      0.0%    100.0% (*) 
 flops     3 x    32 x    29             53085312       0.0%      0.0%    100.0% (*) 
 flops    29 x     3 x    32             66259200       0.0%      0.0%    100.0% (*) 
 flops    29 x    32 x     3             66259200       0.0%      0.0%    100.0% (*) 
 flops    29 x    29 x     3             90600930       0.0%      0.0%    100.0% (*) 
 flops    32 x    32 x    32             99876864       0.0%      0.0%    100.0%     
 flops    14 x     3 x    14            118371456       0.0%      0.0%    100.0% (*) 
 flops    14 x    14 x    32            167311872       0.0%      0.0%    100.0% (*) 
 flops    32 x    32 x    14            234307584       0.0%      0.0%    100.0% (*) 
 flops    29 x     3 x    14            286064352       0.0%      0.0%    100.0% (*) 
 flops    14 x     3 x    29            286064352       0.0%      0.0%    100.0% (*) 
 flops    14 x    32 x    32            292798464       0.0%      0.0%    100.0% (*) 
 flops    29 x    14 x    32            373234176       0.0%      0.0%    100.0%     
 flops    14 x    29 x    32            373234176       0.0%      0.0%    100.0% (*) 
 flops    32 x    32 x    29            566243328       0.0%      0.0%    100.0%     
 flops    29 x     3 x    29            691322184       0.0%      0.0%    100.0% (*) 
 flops    29 x    32 x    32            707596288       0.0%      0.0%    100.0%     
 flops    29 x    29 x    32            966409920       0.0%      0.0%    100.0%     
 flops    14 x    32 x    14           1262628864       0.0%      0.0%    100.0% (*) 
 flops    29 x    32 x    14           3051353088       0.0%      0.0%    100.0%     
 flops    14 x    32 x    29           3051353088       0.0%      0.0%    100.0% (*) 
 flops    29 x    32 x    29           7374103296       0.0%      0.0%    100.0%     

 *** WARNING in dbcsr_mm_sched.F:613 :: (*) ACC Untuned kernels, consider ***
 *** to run the ACC tuning procedure for them                             ***

 flops inhomo. stacks                           0       0.0%      0.0%      0.0%
 flops total                        20.462633E+09       0.0%      0.0%    100.0%
 flops max/rank                     20.462633E+09       0.0%      0.0%    100.0%
 matmuls inhomo. stacks                         0       0.0%      0.0%      0.0%
 matmuls total                            1236558       0.0%      0.0%    100.0%
 number of processed stacks                196572       0.0%      0.0%    100.0%
 average stack size                                     0.0       0.0       6.3
 marketing flops                    22.351833E+09
 -------------------------------------------------------------------------------
 # multiplications                           3927
 max memory usage/rank             270.565507E+09
 # max total images/rank                        1
 # max 3D layers                                1
 # MPI messages exchanged                       0
 -------------------------------------------------------------------------------
 -                                                                             -
 -                      DBCSR MESSAGE PASSING PERFORMANCE                      -
 -                                                                             -
 -------------------------------------------------------------------------------
 ROUTINE             CALLS      AVE VOLUME [Bytes]
 MP_Bcast               41                     12.
 MP_Allreduce        11880                      8.
 MP_Alltoall         12812                   9826.
 MP_ISend            15704                   1674.
 MP_IRecv            15704                   1674.
 -------------------------------------------------------------------------------

 -------------------------------------------------------------------------------
 -                                                                             -
 -                                GRID STATISTICS                              -
 -                                                                             -
 -------------------------------------------------------------------------------
 LP    KERNEL             BACKEND                              COUNT     PERCENT
 5     collocate ortho    GPU                                 836874      16.41%
 5     integrate ortho    GPU                                 831980      16.31%
 6     collocate ortho    GPU                                 748125      14.67%
 6     integrate ortho    GPU                                 743750      14.58%
 4     collocate ortho    GPU                                 367308       7.20%
 4     integrate ortho    GPU                                 365160       7.16%
 7     collocate ortho    GPU                                 359784       7.05%
 7     integrate ortho    GPU                                 357680       7.01%
 8     collocate ortho    GPU                                 245385       4.81%
 8     integrate ortho    GPU                                 243950       4.78%
 0     collocate general  CPU                                     78       0.00%
 0     integrate general  CPU                                     26       0.00%
 -------------------------------------------------------------------------------

 -------------------------------------------------------------------------------
 -                                                                             -
 -                          OFFLOAD MEMPOOL STATISTICS                         -
 -                                                                             -
 -------------------------------------------------------------------------------
 Memory consumption                Number of allocations  Used [MiB]  Size [MiB]
 Device                                                9         571         571
 Host                                                  9         571           0
 -------------------------------------------------------------------------------

 MEMORY| Estimated peak process memory [MiB]                               25947

 -------------------------------------------------------------------------------
 ----                             MULTIGRID INFO                            ----
 -------------------------------------------------------------------------------
 count for grid        1:          47496          cutoff [a.u.]          200.00
 count for grid        2:          20636          cutoff [a.u.]           66.67
 count for grid        3:          12562          cutoff [a.u.]           22.22
 count for grid        4:           2397          cutoff [a.u.]            7.41
 count for grid        5:              0          cutoff [a.u.]            2.47
 total gridlevel count  :          83091

 -------------------------------------------------------------------------------
 -                                                                             -
 -                         MESSAGE PASSING PERFORMANCE                         -
 -                                                                             -
 -------------------------------------------------------------------------------

 ROUTINE             CALLS      AVE VOLUME [Bytes]
 MP_Group              515
 MP_Bcast            20071                  53972.
 MP_Allreduce        72553               11632545.
 MP_Sync               187
 MP_comm_split         182
 -------------------------------------------------------------------------------


 -------------------------------------------------------------------------------
 -                                                                             -
 -                           R E F E R E N C E S                               -
 -                                                                             -
 -------------------------------------------------------------------------------
 
 CP2K version 2026.2 (Development Version), the CP2K developers group (2026).
 CP2K is freely available from https://www.cp2k.org/ .
 
 M. Iannuzzi, J. Wilhelm, F. Stein, A. Bussy, H. Elgabarty, D. Golze, A. Hehn, 
 M. Graml, S. Marek, B. Sertcan Gökmen, C. Schran, H. Forbert, R. Z. 
 Khaliullin, A. Kozhevnikov, M. Taillefumier, R. Meli, V. V. Rybkin, M. Brehm, 
 R. Schade, O. Schütt, J. V. Pototschnig, H. Mirhosseini, A. Knüpfer, D. Marx, 
 M. Krack, J. Hutter, T. D. Kühne.
 J. Phys. Chem. B 130, 1237-1310 (2026).
 The CP2K Program Package Made Simple.
 https://doi.org/10.1021/acs.jpcb.5c05851

 L. Wittmann, I. Gordiy, M. Friede, B. Helmich-Paris, S. Grimme, A. Hansen, M. 
 Bursch.
 Phys. Chem. Chem. Phys. 26, 21379-21394 (2024).
 Extension of the D3 and D4 London dispersion corrections to the full actinides 
 series.
 https://doi.org/10.1039/d4cp01514b

 T. D. Kühne, M. Iannuzzi, M. Del Ben, V. V. Rybkin, P. Seewald, F. Stein, T. 
 Laino, R. Z. Khaliullin, O. Schütt, F. Schiffmann, D. Golze, J. Wilhelm, S. 
 Chulkov, M. H. Bani-Hashemian, V. Weber, U. Borstnik, M. Taillefumier, A. S. 
 Jakobovits, A. Lazzaro, H. Pabst, T. Müller, R. Schade, M. Guidon, S. 
 Andermatt, N. Holmberg, G. K. Schenter, A. Hehn, A. Bussy, F. Belleflamme, G. 
 Tabacchi, A. Glöß, M. Lass, I. Bethune, C. J. Mundy, C. Plessl, M. Watkins, 
 J. VandeVondele, M. Krack, J. Hutter.
 J. Chem. Phys. 152, 194103 (2020).
 CP2K: An electronic structure and molecular dynamics software package - 
 Quickstep: Efficient and accurate electronic structure calculations.
 https://doi.org/10.1063/5.0007045

 L. Goerigk, A. Hansen, C. Bauer, S. Ehrlich, A. Najibi, S. Grimme.
 Phys. Chem. Chem. Phys. 19, 32184-32215 (2017).
 A look at the density functional theory zoo with the advanced GMTKN55 database 
 for general main group thermochemistry, kinetics and noncovalent interactions.
 https://doi.org/10.1039/C7CP04913G

 O. Schuett, P. Messmer, J. Hutter, J. VandeVondele.
 Electronic Structure Calculations on Graphics Processing Units, 173-190 (2016).
 GPU-Accelerated Sparse Matrix-Matrix Multiplication for Linear Scaling Density 
 Functional Theory.
 https://doi.org/10.1002/9781118670712.ch8

 U. Borstnik, J. VandeVondele, V. Weber, J. Hutter.
 Parallel Comput. 40, 47-58 (2014).
 Sparse matrix multiplication: The distributed block-compressed sparse row 
 library.
 https://doi.org/10.1016/j.parco.2014.03.012

 S. Grimme, S. Ehrlich, L. Goerigk.
 J. Comput. Chem. 32, 1456 (2011).
 Effect of the damping function in dispersion corrected density functional 
 theory.
 https://doi.org/10.1002/jcc.21759

 S. Grimme, J. Antony, S. Ehrlich, H. Krieg.
 J. Chem. Phys. 132, 154104 (2010).
 A consistent and accurate ab initio parametrization of density functional 
 dispersion correction (DFT-D) for the 94 elements H-Pu.
 https://doi.org/10.1063/1.3382344

 J. VandeVondele, J. Hutter.
 J. Chem. Phys. 127, 114105 (2007).
 Gaussian basis sets for accurate calculations on molecular systems in gas and 
 condensed phases.
 https://doi.org/10.1063/1.2770708

 M. Krack.
 Theor. Chem. Acc. 114, 145-152 (2005).
 Pseudopotentials for H to Kr optimized for gradient-corrected 
 exchange-correlation functionals.
 https://doi.org/10.1007/s00214-005-0655-y

 M. Frigo, S. G. Johnson.
 Proc. IEEE 93, 216-231 (2005).
 The design and implementation of FFTW3.
 https://doi.org/10.1109/JPROC.2004.840301

 J. VandeVondele, J. Hutter.
 J. Chem. Phys. 118, 4365-4369 (2003).
 An efficient orbital transformation method for electronic structure 
 calculations.
 https://doi.org/10.1063/1.1543154

 C. Hartwigsen, S. Goedecker, J. Hutter.
 Phys. Rev. B 58, 3641-3662 (1998).
 Relativistic separable dual-space Gaussian pseudopotentials from H to Rn.
 https://doi.org/10.1103/PhysRevB.58.3641

 S. Goedecker, M. Teter, J. Hutter.
 Phys. Rev. B 54, 1703-1710 (1996).
 Separable dual-space Gaussian pseudopotentials.
 https://doi.org/10.1103/PhysRevB.54.1703


 -------------------------------------------------------------------------------
 -                                                                             -
 -                                T I M I N G                                  -
 -                                                                             -
 -------------------------------------------------------------------------------
 SUBROUTINE                       CALLS  ASD         SELF TIME        TOTAL TIME
                                MAXIMUM       AVERAGE  MAXIMUM  AVERAGE  MAXIMUM
 CP2K                                 1  1.0     1.32     1.32 21325.30 21325.30
 qs_energies                          1  2.0     0.00     0.00 21312.33 21312.33
 scf_env_do_scf                       1  3.0     0.00     0.00 21306.87 21306.87
 scf_env_do_scf_inner_loop          170  4.0     0.13     0.13 21182.20 21182.20
 qs_ks_update_qs_env                171  5.0     0.00     0.00 21015.08 21015.08
 rebuild_ks_matrix                  170  6.0     0.00     0.00 21014.94 21014.94
 qs_ks_build_kohn_sham_matrix       170  7.0     0.05     0.05 21014.94 21014.94
 calculate_vxc_atom                 170  8.0 17636.25 17636.25 20564.07 20564.07
 gaVxcgb_GC                        8840  9.0  2185.59  2185.59  2185.59  2185.59
 -------------------------------------------------------------------------------

 The number of warnings for this run is : 1
 
 -------------------------------------------------------------------------------
  **** **** ******  **  PROGRAM ENDED AT                 2026-08-25 19:52:59.414
 ***** ** ***  *** **   PROGRAM RAN ON                                     gh003
 **    ****   ******    PROGRAM RAN BY                                  kuehne88
 ***** **    ** ** **   PROGRAM PROCESS ID                               2290414
  **** **  *******  **  PROGRAM STOPPED IN /data/home2/kuehne88/cp2k-native-skal
                                           a/validation-uzh/diet-production-p25/
                                           gapwxc-gth-one-center/08fab3d02b918e6
                                           d2460f05d048b7dc5babf1f73
