 DBCSR| CPU Multiplication driver                                           BLAS (U)
 DBCSR| Multrec recursion limit                                              512 (U)
 DBCSR| Multiplication stack size                                           1000 (D)
 DBCSR| Maximum elements for images                                    UNLIMITED (U)
 DBCSR| Multiplicative factor virtual images                                   1 (U)
 DBCSR| Use multiplication densification                                       T (D)
 DBCSR| Multiplication size stacks                                             3 (U)
 DBCSR| Use memory pool for CPU allocation                                     F (U)
 DBCSR| OMP: Current number of threads                                        24
 DBCSR| OMP: Max number of threads                                            24
 DBCSR| Split modifier for TAS multiplication algorithm                  1.0E+00 (U)


  **** **** ******  **  PROGRAM STARTED AT               2026-08-25 04:06:15.946
 ***** ** ***  *** **   PROGRAM STARTED ON                                cge015
 **    ****   ******    PROGRAM STARTED BY                              kuehne88
 ***** **    ** ** **   PROGRAM PROCESS ID                               2699438
  **** **  *******  **  PROGRAM STARTED IN /data/home2/kuehne88/cp2k-native-skal
                                           a/validation-uzh/diet-production-p25/
                                           shared-gapw-ae/621284d5f3ce70544411e2
                                           6ed9009691ff4edf41

 CP2K| version string:                 CP2K version 2026.2 (Development Version)
 CP2K| source code revision number:                                   c1bff3eeb8
 CP2K| cp2kflags: omp fftw3 spglib openblas libtorch libtorch_cuda              
 CP2K| is freely available from                            https://www.cp2k.org/
 CP2K| Program compiled at                                   2026-08-23 23:01:13
 CP2K| Program compiled on                                                cge022
 CP2K| Program compiled for                                               x86_64
 CP2K| Data directory path            /home/kuehne88/cp2k-native-skala/cp2k/data
 CP2K| Input file name                                             input.cpu.inp

 GLOBAL| Force Environment number                                              1
 GLOBAL| Basis set file name                             BASIS_MOLOPT_UZH_2026.2
 GLOBAL| Potential file name                                POTENTIAL_UZH_2026.2
 GLOBAL| MM Potential file name                                     MM_POTENTIAL
 GLOBAL| Coordinate file name                                      __STD_INPUT__
 GLOBAL| Method name                                                        CP2K
 GLOBAL| Project name                                       621284d5f3ce_gapw_ae
 GLOBAL| Run type                                                         ENERGY
 GLOBAL| FFT library                                                       FFTW3
 GLOBAL| Diagonalization library                                       ScaLAPACK
 GLOBAL| Cholesky decomposition library                                ScaLAPACK
 GLOBAL| DGEMM library                                                      BLAS
 GLOBAL| Direct generalized diagonalization requested                          F
 GLOBAL| Orthonormality check for eigenvectors                          DISABLED
 GLOBAL| Matrix multiplication library                                 ScaLAPACK
 GLOBAL| All-to-all communication in single precision                          F
 GLOBAL| FFTs using library dependent lengths                                  F
 GLOBAL| Grid backend                                                       AUTO
 GLOBAL| Global print level                                               MEDIUM
 GLOBAL| MPI I/O enabled                                                       T
 GLOBAL| Total number of message passing processes                             1
 GLOBAL| Number of distributed systems (nodes)                                 1
 GLOBAL| Number of threads for this process                                   24
 GLOBAL| This output is from process                                           0
 GLOBAL| OpenMP stack size per thread (OMP_STACKSIZE)                       512M
 GLOBAL| CPU model name                          AMD EPYC 9654 96-Core Processor

 MEMORY| system memory details [Kb]
 MEMORY|                        rank 0           min           max       average
 MEMORY| MemTotal           1584927744    1584927744    1584927744    1584927744
 MEMORY| MemFree            1458254684    1458254684    1458254684    1458254684
 MEMORY| Buffers                     0             0             0             0
 MEMORY| Cached               10044304      10044304      10044304      10044304
 MEMORY| Slab                  2834224       2834224       2834224       2834224
 MEMORY| SReclaimable           553272        553272        553272        553272
 MEMORY| MemLikelyFree      1468852260    1468852260    1468852260    1468852260


 *** Fundamental physical constants (SI units) ***

 *** Literature: B. J. Mohr and B. N. Taylor,
 ***             CODATA recommended values of the fundamental physical
 ***             constants: 2006, Web Version 5.1
 ***             http://physics.nist.gov/constants

 Speed of light in vacuum [m/s]                             2.99792458000000E+08
 Magnetic constant or permeability of vacuum [N/A**2]       1.25663706143592E-06
 Electric constant or permittivity of vacuum [F/m]          8.85418781762039E-12
 Planck constant (h) [J*s]                                  6.62606896000000E-34
 Planck constant (h-bar) [J*s]                              1.05457162825177E-34
 Elementary charge [C]                                      1.60217648700000E-19
 Electron mass [kg]                                         9.10938215000000E-31
 Electron g factor [ ]                                     -2.00231930436220E+00
 Proton mass [kg]                                           1.67262163700000E-27
 Fine-structure constant                                    7.29735253760000E-03
 Rydberg constant [1/m]                                     1.09737315685270E+07
 Avogadro constant [1/mol]                                  6.02214179000000E+23
 Boltzmann constant [J/K]                                   1.38065040000000E-23
 Atomic mass unit [kg]                                      1.66053878200000E-27
 Bohr radius [m]                                            5.29177208590000E-11

 *** Conversion factors ***

 [u] -> [a.u.]                                              1.82288848426455E+03
 [Angstrom] -> [Bohr] = [a.u.]                              1.88972613288564E+00
 [a.u.] = [Bohr] -> [Angstrom]                              5.29177208590000E-01
 [a.u.] -> [s]                                              2.41888432650478E-17
 [a.u.] -> [fs]                                             2.41888432650478E-02
 [a.u.] -> [J]                                              4.35974393937059E-18
 [a.u.] -> [N]                                              8.23872205491840E-08
 [a.u.] -> [K]                                              3.15774647902944E+05
 [a.u.] -> [kJ/mol]                                         2.62549961709828E+03
 [a.u.] -> [kcal/mol]                                       6.27509468713739E+02
 [a.u.] -> [Pa]                                             2.94210107994716E+13
 [a.u.] -> [bar]                                            2.94210107994716E+08
 [a.u.] -> [atm]                                            2.90362800883016E+08
 [a.u.] -> [eV]                                             2.72113838565563E+01
 [a.u.] -> [Hz]                                             6.57968392072181E+15
 [a.u.] -> [1/cm] (wave numbers)                            2.19474631370540E+05
 [a.u./Bohr**2] -> [1/cm]                                   5.14048714338585E+03
 

 CELL| Volume [angstrom^3]:                                         16875.000000
 CELL| Vector a [angstrom]:      25.000     0.000     0.000   |a| =    25.000000
 CELL| Vector b [angstrom]:       0.000    25.000     0.000   |b| =    25.000000
 CELL| Vector c [angstrom]:       0.000     0.000    27.000   |c| =    27.000000
 CELL| Angle (b,c), alpha [degree]:                                    90.000000
 CELL| Angle (a,c), beta  [degree]:                                    90.000000
 CELL| Angle (a,b), gamma [degree]:                                    90.000000
 CELL| Numerically orthorhombic:                                             YES
 CELL| Periodicity                                                          NONE

 CELL_REF| Volume [angstrom^3]:                                     16875.000000
 CELL_REF| Vector a [angstrom    25.000     0.000     0.000   |a| =    25.000000
 CELL_REF| Vector b [angstrom     0.000    25.000     0.000   |b| =    25.000000
 CELL_REF| Vector c [angstrom     0.000     0.000    27.000   |c| =    27.000000
 CELL_REF| Angle (b,c), alpha [degree]:                                90.000000
 CELL_REF| Angle (a,c), beta  [degree]:                                90.000000
 CELL_REF| Angle (a,b), gamma [degree]:                                90.000000
 CELL_REF| Numerically orthorhombic:                                         YES
 CELL_REF| Periodicity                                                      NONE

 GENERATE|  Preliminary Number of Bonds generated:                             0
 GENERATE|  Achieved consistency in connectivity generation.

 *******************************************************************************
 *******************************************************************************
 **                                                                           **
 **     #####                         ##              ##                      **
 **    ##   ##            ##          ##              ##                      **
 **   ##     ##                       ##            ######                    **
 **   ##     ##  ##   ##  ##   #####  ##  ##   ####   ##    #####    #####    **
 **   ##     ##  ##   ##  ##  ##      ## ##   ##      ##   ##   ##  ##   ##   **
 **   ##  ## ##  ##   ##  ##  ##      ####     ###    ##   ######   ######    **
 **    ##  ###   ##   ##  ##  ##      ## ##      ##   ##   ##       ##        **
 **     #######   #####   ##   #####  ##  ##  ####    ##    #####   ##        **
 **           ##                                                    ##        **
 **                                                                           **
 **                                                ... make the atoms dance   **
 **                                                                           **
 **            Copyright (C) by CP2K developers group (2000-2026)             **
 **                      J. Chem. Phys. 152, 194103 (2020)                    **
 **                                                                           **
 *******************************************************************************

 DFT| Spin restricted Kohn-Sham (RKS) calculation                            RKS
 DFT| Multiplicity                                                             1
 DFT| Number of spin states                                                    1
 DFT| Charge                                                                   0
 DFT| Self-interaction correction (SIC)                                       NO
 DFT| Cutoffs: density                                              1.000000E-10
 DFT|          gradient                                             1.000000E-10
 DFT|          tau                                                  1.000000E-10
 DFT|          cutoff_smoothing_range                               0.000000E+00
 DFT| XC density smoothing                                                  NONE
 DFT| XC derivatives                                                          PW

 FUNCTIONAL| GAUXC:
 FUNCTIONAL| Functional computed by GauXC Skala model SKALA                     

 vdW POTENTIAL|                                                   Pair Potential
 vdW POTENTIAL|          DFT-D3 (Version 3.1)
 vdW POTENTIAL|          Potential Form: S. Grimme et al, JCP 132: 154104 (2010)
 vdW POTENTIAL|          BJ Damping: S. Grimme et al, JCC 32: 1456 (2011)
 vdW POTENTIAL|          Cutoff Radius [Bohr]:                             37.79
 vdW POTENTIAL|          s6 Scaling Factor:                               1.0000
 vdW POTENTIAL|          a1 Damping Factor:                               0.3981
 vdW POTENTIAL|          s8 Scaling Factor:                               1.9889
 vdW POTENTIAL|          a2 Damping Factor:                               4.4211
 vdW POTENTIAL|          Cutoff for CN calculation:                   0.1000E-05

 QS| Method:                                                                GAPW
 QS| Density plane wave grid type                        NON-SPHERICAL FULLSPACE
 QS| Number of grid levels:                                                    5
 QS| Density cutoff [a.u.]:                                                320.0
 QS| Multi grid cutoff [a.u.]: 1) grid level                               320.0
 QS|                           2) grid level                               106.7
 QS|                           3) grid level                                35.6
 QS|                           4) grid level                                11.9
 QS|                           5) grid level                                 4.0
 QS| Grid level progression factor:                                          3.0
 QS| Relative density cutoff [a.u.]:                                        30.0
 QS| Interaction thresholds: eps_pgf_orb:                                1.0E-07
 QS|                         eps_filter_matrix:                          0.0E+00
 QS|                         eps_core_charge:                            1.0E-16
 QS|                         eps_rho_gspace:                             1.0E-14
 QS|                         eps_rho_rspace:                             1.0E-14
 QS|                         eps_gvg_rspace:                             1.0E-07
 QS|                         eps_ppl:                                    1.0E-02
 QS|                         eps_ppnl:                                   1.0E-09
 QS| GAPW|      XC integration using accurate scheme: Ref. exponent     6.000000
 QS| GAPW|      One center basis extended with primitives (small:s)
 QS| GAPW|                   eps_fit:                                    1.0E-04
 QS| GAPW|                   eps_iso:                                    1.0E-12
 QS| GAPW|                   eps_svd:                                    1.0E-08
 QS| GAPW|                   eps_cpc:                                    1.0E-14
 QS| GAPW|   atom-r-grid: quadrature:                                     GC_LOG
 QS| GAPW|      atom-s-grid:  max l :                                          6
 QS| GAPW|      max_l_rho0 :                                                   4


 ATOMIC KIND INFORMATION

  1. Atomic kind: Cl                                    Number of atoms:       1

     Orbital Basis Set                                       TZVPP-MOLOPT-PBE-ae

       Number of orbital shell sets:                                           3
       Number of orbital shells:                                              14
       Number of primitive Cartesian functions:                               17
       Number of Cartesian basis functions:                                   48
       Number of spherical basis functions:                                   42
       Norm type:                                                              2

       Normalised Cartesian orbitals:

                        Set   Shell   Orbital            Exponent    Coefficient

                          1       1    1s            69508.004502       1.620293
                                                     10426.074049       2.909035
                                                      2373.213726       5.003540
                                                       671.480826       7.546129
                                                       218.359533       9.526565
                                                        77.681940       8.262231
                                                        28.635695       3.151460

                          2       1    1s              666.452681       0.174519
                                                       157.540739       1.105481
                                                        50.271480       3.899432
                                                        18.561818       1.042848
                                                         7.676985      -4.122623

                          2       2    2px             666.452681      19.648709
                                                       157.540739      23.936338
                                                        50.271480      27.796757
                                                        18.561818      21.488527
                                                         7.676985      10.212769
                          2       2    2py             666.452681      19.648709
                                                       157.540739      23.936338
                                                        50.271480      27.796757
                                                        18.561818      21.488527
                                                         7.676985      10.212769
                          2       2    2pz             666.452681      19.648709
                                                       157.540739      23.936338
                                                        50.271480      27.796757
                                                        18.561818      21.488527
                                                         7.676985      10.212769

                          3       1    1s                7.922916      -0.101257
                                                         3.213593       1.388261
                                                         1.261473       0.174217
                                                         0.412964      -0.004531
                                                         0.130056       0.017913

                          3       2    2s                7.922916      -0.061102
                                                         3.213593      -0.039315
                                                         1.261473       0.078721
                                                         0.412964       0.321131
                                                         0.130056       0.013091

                          3       3    3s                7.922916      -0.023682
                                                         3.213593      -0.250639
                                                         1.261473      -0.050311
                                                         0.412964      -0.038904
                                                         0.130056       0.172328

                          3       4    2px               7.922916       2.235836
                                                         3.213593       5.865137
                                                         1.261473      -0.014735
                                                         0.412964      -0.101403
                                                         0.130056       0.004954
                          3       4    2py               7.922916       2.235836
                                                         3.213593       5.865137
                                                         1.261473      -0.014735
                                                         0.412964      -0.101403
                                                         0.130056       0.004954
                          3       4    2pz               7.922916       2.235836
                                                         3.213593       5.865137
                                                         1.261473      -0.014735
                                                         0.412964      -0.101403
                                                         0.130056       0.004954

                          3       5    3px               7.922916       1.915434
                                                         3.213593       0.016267
                                                         1.261473       1.807293
                                                         0.412964       0.011261
                                                         0.130056      -0.005014
                          3       5    3py               7.922916       1.915434
                                                         3.213593       0.016267
                                                         1.261473       1.807293
                                                         0.412964       0.011261
                                                         0.130056      -0.005014
                          3       5    3pz               7.922916       1.915434
                                                         3.213593       0.016267
                                                         1.261473       1.807293
                                                         0.412964       0.011261
                                                         0.130056      -0.005014

                          3       6    4px               7.922916      -0.244452
                                                         3.213593       1.150207
                                                         1.261473      -0.028120
                                                         0.412964       0.402822
                                                         0.130056       0.013770
                          3       6    4py               7.922916      -0.244452
                                                         3.213593       1.150207
                                                         1.261473      -0.028120
                                                         0.412964       0.402822
                                                         0.130056       0.013770
                          3       6    4pz               7.922916      -0.244452
                                                         3.213593       1.150207
                                                         1.261473      -0.028120
                                                         0.412964       0.402822
                                                         0.130056       0.013770

                          3       7    5px               7.922916       0.380326
                                                         3.213593      -0.509998
                                                         1.261473       0.100748
                                                         0.412964      -0.064707
                                                         0.130056       0.120331
                          3       7    5py               7.922916       0.380326
                                                         3.213593      -0.509998
                                                         1.261473       0.100748
                                                         0.412964      -0.064707
                                                         0.130056       0.120331
                          3       7    5pz               7.922916       0.380326
                                                         3.213593      -0.509998
                                                         1.261473       0.100748
                                                         0.412964      -0.064707
                                                         0.130056       0.120331

                          3       8    3dx2              7.922916      -4.440571
                                                         3.213593      14.264092
                                                         1.261473      -0.246797
                                                         0.412964      -0.014480
                                                         0.130056      -0.001027
                          3       8    3dxy              7.922916      -7.691295
                                                         3.213593      24.706133
                                                         1.261473      -0.427465
                                                         0.412964      -0.025081
                                                         0.130056      -0.001778
                          3       8    3dxz              7.922916      -7.691295
                                                         3.213593      24.706133
                                                         1.261473      -0.427465
                                                         0.412964      -0.025081
                                                         0.130056      -0.001778
                          3       8    3dy2              7.922916      -4.440571
                                                         3.213593      14.264092
                                                         1.261473      -0.246797
                                                         0.412964      -0.014480
                                                         0.130056      -0.001027
                          3       8    3dyz              7.922916      -7.691295
                                                         3.213593      24.706133
                                                         1.261473      -0.427465
                                                         0.412964      -0.025081
                                                         0.130056      -0.001778
                          3       8    3dz2              7.922916      -4.440571
                                                         3.213593      14.264092
                                                         1.261473      -0.246797
                                                         0.412964      -0.014480
                                                         0.130056      -0.001027

                          3       9    4dx2              7.922916       4.574445
                                                         3.213593       1.074633
                                                         1.261473       2.069884
                                                         0.412964       0.009946
                                                         0.130056       0.010343
                          3       9    4dxy              7.922916       7.923172
                                                         3.213593       1.861318
                                                         1.261473       3.585145
                                                         0.412964       0.017227
                                                         0.130056       0.017915
                          3       9    4dxz              7.922916       7.923172
                                                         3.213593       1.861318
                                                         1.261473       3.585145
                                                         0.412964       0.017227
                                                         0.130056       0.017915
                          3       9    4dy2              7.922916       4.574445
                                                         3.213593       1.074633
                                                         1.261473       2.069884
                                                         0.412964       0.009946
                                                         0.130056       0.010343
                          3       9    4dyz              7.922916       7.923172
                                                         3.213593       1.861318
                                                         1.261473       3.585145
                                                         0.412964       0.017227
                                                         0.130056       0.017915
                          3       9    4dz2              7.922916       4.574445
                                                         3.213593       1.074633
                                                         1.261473       2.069884
                                                         0.412964       0.009946
                                                         0.130056       0.010343

                          3      10    5dx2              7.922916       0.901685
                                                         3.213593       0.390939
                                                         1.261473      -0.214174
                                                         0.412964       0.321303
                                                         0.130056       0.008898
                          3      10    5dxy              7.922916       1.561765
                                                         3.213593       0.677126
                                                         1.261473      -0.370960
                                                         0.412964       0.556512
                                                         0.130056       0.015411
                          3      10    5dxz              7.922916       1.561765
                                                         3.213593       0.677126
                                                         1.261473      -0.370960
                                                         0.412964       0.556512
                                                         0.130056       0.015411
                          3      10    5dy2              7.922916       0.901685
                                                         3.213593       0.390939
                                                         1.261473      -0.214174
                                                         0.412964       0.321303
                                                         0.130056       0.008898
                          3      10    5dyz              7.922916       1.561765
                                                         3.213593       0.677126
                                                         1.261473      -0.370960
                                                         0.412964       0.556512
                                                         0.130056       0.015411
                          3      10    5dz2              7.922916       0.901685
                                                         3.213593       0.390939
                                                         1.261473      -0.214174
                                                         0.412964       0.321303
                                                         0.130056       0.008898

                          3      11    4fx3              7.922916       1.407301
                                                         3.213593       1.323019
                                                         1.261473       0.408981
                                                         0.412964       0.180490
                                                         0.130056      -0.000292
                          3      11    4fx2y             7.922916       3.146822
                                                         3.213593       2.958360
                                                         1.261473       0.914510
                                                         0.412964       0.403588
                                                         0.130056      -0.000652
                          3      11    4fx2z             7.922916       3.146822
                                                         3.213593       2.958360
                                                         1.261473       0.914510
                                                         0.412964       0.403588
                                                         0.130056      -0.000652
                          3      11    4fxy2             7.922916       3.146822
                                                         3.213593       2.958360
                                                         1.261473       0.914510
                                                         0.412964       0.403588
                                                         0.130056      -0.000652
                          3      11    4fxyz             7.922916       5.450455
                                                         3.213593       5.124030
                                                         1.261473       1.583978
                                                         0.412964       0.699034
                                                         0.130056      -0.001129
                          3      11    4fxz2             7.922916       3.146822
                                                         3.213593       2.958360
                                                         1.261473       0.914510
                                                         0.412964       0.403588
                                                         0.130056      -0.000652
                          3      11    4fy3              7.922916       1.407301
                                                         3.213593       1.323019
                                                         1.261473       0.408981
                                                         0.412964       0.180490
                                                         0.130056      -0.000292
                          3      11    4fy2z             7.922916       3.146822
                                                         3.213593       2.958360
                                                         1.261473       0.914510
                                                         0.412964       0.403588
                                                         0.130056      -0.000652
                          3      11    4fyz2             7.922916       3.146822
                                                         3.213593       2.958360
                                                         1.261473       0.914510
                                                         0.412964       0.403588
                                                         0.130056      -0.000652
                          3      11    4fz3              7.922916       1.407301
                                                         3.213593       1.323019
                                                         1.261473       0.408981
                                                         0.412964       0.180490
                                                         0.130056      -0.000292

       Atomic covalent radius [Angstrom]:                                  0.990

       Atomic van der Waals radius [Angstrom]:                             1.750

     The atoms of this atomic kind are PAW atoms (GAPW):
       Hard Gaussian function radius:                                      1.600
       Rho0 radius:                                                        1.600
       Maximum GTO radius used for PAW projector construction:            24.566

     GAPW Soft Basis Set                                TZVPP-MOLOPT-PBE-ae_soft

       Number of orbital shell sets:                                           3
       Number of orbital shells:                                              14
       Number of primitive Cartesian functions:                                4
       Number of Cartesian basis functions:                                   48
       Number of spherical basis functions:                                   42
       Norm type:                                                              2

       Normalised Cartesian orbitals:

                        Set   Shell   Orbital            Exponent    Coefficient

                          1       1    1s         

                          2       1    1s         

                          2       2    2px        
                          2       2    2py        
                          2       2    2pz        

                          3       1    1s                3.213593       1.388261
                                                         1.261473       0.174217
                                                         0.412964      -0.004531
                                                         0.130056       0.017913

                          3       2    2s                3.213593      -0.039315
                                                         1.261473       0.078721
                                                         0.412964       0.321131
                                                         0.130056       0.013091

                          3       3    3s                3.213593      -0.250639
                                                         1.261473      -0.050311
                                                         0.412964      -0.038904
                                                         0.130056       0.172328

                          3       4    2px               3.213593       5.865137
                                                         1.261473      -0.014735
                                                         0.412964      -0.101403
                                                         0.130056       0.004954
                          3       4    2py               3.213593       5.865137
                                                         1.261473      -0.014735
                                                         0.412964      -0.101403
                                                         0.130056       0.004954
                          3       4    2pz               3.213593       5.865137
                                                         1.261473      -0.014735
                                                         0.412964      -0.101403
                                                         0.130056       0.004954

                          3       5    3px               3.213593       0.016267
                                                         1.261473       1.807293
                                                         0.412964       0.011261
                                                         0.130056      -0.005014
                          3       5    3py               3.213593       0.016267
                                                         1.261473       1.807293
                                                         0.412964       0.011261
                                                         0.130056      -0.005014
                          3       5    3pz               3.213593       0.016267
                                                         1.261473       1.807293
                                                         0.412964       0.011261
                                                         0.130056      -0.005014

                          3       6    4px               3.213593       1.150207
                                                         1.261473      -0.028120
                                                         0.412964       0.402822
                                                         0.130056       0.013770
                          3       6    4py               3.213593       1.150207
                                                         1.261473      -0.028120
                                                         0.412964       0.402822
                                                         0.130056       0.013770
                          3       6    4pz               3.213593       1.150207
                                                         1.261473      -0.028120
                                                         0.412964       0.402822
                                                         0.130056       0.013770

                          3       7    5px               3.213593      -0.509998
                                                         1.261473       0.100748
                                                         0.412964      -0.064707
                                                         0.130056       0.120331
                          3       7    5py               3.213593      -0.509998
                                                         1.261473       0.100748
                                                         0.412964      -0.064707
                                                         0.130056       0.120331
                          3       7    5pz               3.213593      -0.509998
                                                         1.261473       0.100748
                                                         0.412964      -0.064707
                                                         0.130056       0.120331

                          3       8    3dx2              3.213593      14.264092
                                                         1.261473      -0.246797
                                                         0.412964      -0.014480
                                                         0.130056      -0.001027
                          3       8    3dxy              3.213593      24.706133
                                                         1.261473      -0.427465
                                                         0.412964      -0.025081
                                                         0.130056      -0.001778
                          3       8    3dxz              3.213593      24.706133
                                                         1.261473      -0.427465
                                                         0.412964      -0.025081
                                                         0.130056      -0.001778
                          3       8    3dy2              3.213593      14.264092
                                                         1.261473      -0.246797
                                                         0.412964      -0.014480
                                                         0.130056      -0.001027
                          3       8    3dyz              3.213593      24.706133
                                                         1.261473      -0.427465
                                                         0.412964      -0.025081
                                                         0.130056      -0.001778
                          3       8    3dz2              3.213593      14.264092
                                                         1.261473      -0.246797
                                                         0.412964      -0.014480
                                                         0.130056      -0.001027

                          3       9    4dx2              3.213593       1.074633
                                                         1.261473       2.069884
                                                         0.412964       0.009946
                                                         0.130056       0.010343
                          3       9    4dxy              3.213593       1.861318
                                                         1.261473       3.585145
                                                         0.412964       0.017227
                                                         0.130056       0.017915
                          3       9    4dxz              3.213593       1.861318
                                                         1.261473       3.585145
                                                         0.412964       0.017227
                                                         0.130056       0.017915
                          3       9    4dy2              3.213593       1.074633
                                                         1.261473       2.069884
                                                         0.412964       0.009946
                                                         0.130056       0.010343
                          3       9    4dyz              3.213593       1.861318
                                                         1.261473       3.585145
                                                         0.412964       0.017227
                                                         0.130056       0.017915
                          3       9    4dz2              3.213593       1.074633
                                                         1.261473       2.069884
                                                         0.412964       0.009946
                                                         0.130056       0.010343

                          3      10    5dx2              3.213593       0.390939
                                                         1.261473      -0.214174
                                                         0.412964       0.321303
                                                         0.130056       0.008898
                          3      10    5dxy              3.213593       0.677126
                                                         1.261473      -0.370960
                                                         0.412964       0.556512
                                                         0.130056       0.015411
                          3      10    5dxz              3.213593       0.677126
                                                         1.261473      -0.370960
                                                         0.412964       0.556512
                                                         0.130056       0.015411
                          3      10    5dy2              3.213593       0.390939
                                                         1.261473      -0.214174
                                                         0.412964       0.321303
                                                         0.130056       0.008898
                          3      10    5dyz              3.213593       0.677126
                                                         1.261473      -0.370960
                                                         0.412964       0.556512
                                                         0.130056       0.015411
                          3      10    5dz2              3.213593       0.390939
                                                         1.261473      -0.214174
                                                         0.412964       0.321303
                                                         0.130056       0.008898

                          3      11    4fx3              3.213593       1.323019
                                                         1.261473       0.408981
                                                         0.412964       0.180490
                                                         0.130056      -0.000292
                          3      11    4fx2y             3.213593       2.958360
                                                         1.261473       0.914510
                                                         0.412964       0.403588
                                                         0.130056      -0.000652
                          3      11    4fx2z             3.213593       2.958360
                                                         1.261473       0.914510
                                                         0.412964       0.403588
                                                         0.130056      -0.000652
                          3      11    4fxy2             3.213593       2.958360
                                                         1.261473       0.914510
                                                         0.412964       0.403588
                                                         0.130056      -0.000652
                          3      11    4fxyz             3.213593       5.124030
                                                         1.261473       1.583978
                                                         0.412964       0.699034
                                                         0.130056      -0.001129
                          3      11    4fxz2             3.213593       2.958360
                                                         1.261473       0.914510
                                                         0.412964       0.403588
                                                         0.130056      -0.000652
                          3      11    4fy3              3.213593       1.323019
                                                         1.261473       0.408981
                                                         0.412964       0.180490
                                                         0.130056      -0.000292
                          3      11    4fy2z             3.213593       2.958360
                                                         1.261473       0.914510
                                                         0.412964       0.403588
                                                         0.130056      -0.000652
                          3      11    4fyz2             3.213593       2.958360
                                                         1.261473       0.914510
                                                         0.412964       0.403588
                                                         0.130056      -0.000652
                          3      11    4fz3              3.213593       1.323019
                                                         1.261473       0.408981
                                                         0.412964       0.180490
                                                         0.130056      -0.000292

     AE Potential information for                                            ALL

       Description:                                       All-electron potential
                                          Krack, Parrinello, PCCP 2, 2105 (2000)

       Gaussian exponent of the core charge distribution:               2.974420
       Electronic configuration (s p d ...):                           6  11   0

  2. Atomic kind: H                                     Number of atoms:       1

     Orbital Basis Set                                       TZVPP-MOLOPT-PBE-ae

       Number of orbital shell sets:                                           1
       Number of orbital shells:                                               6
       Number of primitive Cartesian functions:                                5
       Number of Cartesian basis functions:                                   15
       Number of spherical basis functions:                                   14
       Norm type:                                                              2

       Normalised Cartesian orbitals:

                        Set   Shell   Orbital            Exponent    Coefficient

                          1       1    1s               34.177738      -6.423540
                                                         4.947701      -0.270539
                                                         1.065127       0.831136
                                                         0.293823      -0.051765
                                                         0.091371      -0.049397

                          1       2    2s               34.177738       3.211471
                                                         4.947701       0.528758
                                                         1.065127       0.154529
                                                         0.293823       0.227881
                                                         0.091371      -0.041080

                          1       3    3s               34.177738      -1.131577
                                                         4.947701      -0.040048
                                                         1.065127       0.164523
                                                         0.293823       0.077306
                                                         0.091371       0.076395

                          1       4    2px              34.177738     -11.084238
                                                         4.947701       1.341091
                                                         1.065127       1.416453
                                                         0.293823      -0.007684
                                                         0.091371       0.008886
                          1       4    2py              34.177738     -11.084238
                                                         4.947701       1.341091
                                                         1.065127       1.416453
                                                         0.293823      -0.007684
                                                         0.091371       0.008886
                          1       4    2pz              34.177738     -11.084238
                                                         4.947701       1.341091
                                                         1.065127       1.416453
                                                         0.293823      -0.007684
                                                         0.091371       0.008886

                          1       5    3px              34.177738       9.643751
                                                         4.947701      -0.549928
                                                         1.065127       0.106963
                                                         0.293823       0.330130
                                                         0.091371      -0.013062
                          1       5    3py              34.177738       9.643751
                                                         4.947701      -0.549928
                                                         1.065127       0.106963
                                                         0.293823       0.330130
                                                         0.091371      -0.013062
                          1       5    3pz              34.177738       9.643751
                                                         4.947701      -0.549928
                                                         1.065127       0.106963
                                                         0.293823       0.330130
                                                         0.091371      -0.013062

                          1       6    3dx2             34.177738       9.702470
                                                         4.947701      -1.124420
                                                         1.065127       1.617163
                                                         0.293823       0.052231
                                                         0.091371      -0.004737
                          1       6    3dxy             34.177738      16.805171
                                                         4.947701      -1.947552
                                                         1.065127       2.801009
                                                         0.293823       0.090468
                                                         0.091371      -0.008204
                          1       6    3dxz             34.177738      16.805171
                                                         4.947701      -1.947552
                                                         1.065127       2.801009
                                                         0.293823       0.090468
                                                         0.091371      -0.008204
                          1       6    3dy2             34.177738       9.702470
                                                         4.947701      -1.124420
                                                         1.065127       1.617163
                                                         0.293823       0.052231
                                                         0.091371      -0.004737
                          1       6    3dyz             34.177738      16.805171
                                                         4.947701      -1.947552
                                                         1.065127       2.801009
                                                         0.293823       0.090468
                                                         0.091371      -0.008204
                          1       6    3dz2             34.177738       9.702470
                                                         4.947701      -1.124420
                                                         1.065127       1.617163
                                                         0.293823       0.052231
                                                         0.091371      -0.004737

       Atomic covalent radius [Angstrom]:                                  0.320

       Atomic van der Waals radius [Angstrom]:                             1.090

     The atoms of this atomic kind are PAW atoms (GAPW):
       Hard Gaussian function radius:                                      1.000
       Rho0 radius:                                                        1.000
       Maximum GTO radius used for PAW projector construction:            24.566

     GAPW Soft Basis Set                                TZVPP-MOLOPT-PBE-ae_soft

       Number of orbital shell sets:                                           1
       Number of orbital shells:                                               6
       Number of primitive Cartesian functions:                                4
       Number of Cartesian basis functions:                                   15
       Number of spherical basis functions:                                   14
       Norm type:                                                              2

       Normalised Cartesian orbitals:

                        Set   Shell   Orbital            Exponent    Coefficient

                          1       1    1s                4.947701      -0.270539
                                                         1.065127       0.831136
                                                         0.293823      -0.051765
                                                         0.091371      -0.049397

                          1       2    2s                4.947701       0.528758
                                                         1.065127       0.154529
                                                         0.293823       0.227881
                                                         0.091371      -0.041080

                          1       3    3s                4.947701      -0.040048
                                                         1.065127       0.164523
                                                         0.293823       0.077306
                                                         0.091371       0.076395

                          1       4    2px               4.947701       1.341091
                                                         1.065127       1.416453
                                                         0.293823      -0.007684
                                                         0.091371       0.008886
                          1       4    2py               4.947701       1.341091
                                                         1.065127       1.416453
                                                         0.293823      -0.007684
                                                         0.091371       0.008886
                          1       4    2pz               4.947701       1.341091
                                                         1.065127       1.416453
                                                         0.293823      -0.007684
                                                         0.091371       0.008886

                          1       5    3px               4.947701      -0.549928
                                                         1.065127       0.106963
                                                         0.293823       0.330130
                                                         0.091371      -0.013062
                          1       5    3py               4.947701      -0.549928
                                                         1.065127       0.106963
                                                         0.293823       0.330130
                                                         0.091371      -0.013062
                          1       5    3pz               4.947701      -0.549928
                                                         1.065127       0.106963
                                                         0.293823       0.330130
                                                         0.091371      -0.013062

                          1       6    3dx2              4.947701      -1.124420
                                                         1.065127       1.617163
                                                         0.293823       0.052231
                                                         0.091371      -0.004737
                          1       6    3dxy              4.947701      -1.947552
                                                         1.065127       2.801009
                                                         0.293823       0.090468
                                                         0.091371      -0.008204
                          1       6    3dxz              4.947701      -1.947552
                                                         1.065127       2.801009
                                                         0.293823       0.090468
                                                         0.091371      -0.008204
                          1       6    3dy2              4.947701      -1.124420
                                                         1.065127       1.617163
                                                         0.293823       0.052231
                                                         0.091371      -0.004737
                          1       6    3dyz              4.947701      -1.947552
                                                         1.065127       2.801009
                                                         0.293823       0.090468
                                                         0.091371      -0.008204
                          1       6    3dz2              4.947701      -1.124420
                                                         1.065127       1.617163
                                                         0.293823       0.052231
                                                         0.091371      -0.004737

     AE Potential information for                                            ALL

       Description:                                       All-electron potential
                                          Krack, Parrinello, PCCP 2, 2105 (2000)

       Gaussian exponent of the core charge distribution:              12.500000
       Electronic configuration (s p d ...):                           1   0   0


 MOLECULE KIND INFORMATION


 All atoms are their own molecule, skipping detailed information


 TOTAL NUMBERS AND MAXIMUM NUMBERS

  Total number of            - Atomic kinds:                                   2
                             - Atoms:                                          2
                             - Shell sets:                                     4
                             - Shells:                                        20
                             - Primitive Cartesian functions:                 22
                             - Cartesian basis functions:                     63
                             - Spherical basis functions:                     56

  Maximum angular momentum of the orbital basis functions:                     3


 MODULE QUICKSTEP: ATOMIC COORDINATES IN ANGSTROM

   Atom Kind Element         X             Y             Z       Z(eff)     Mass
      1    1 Cl   17     12.500000     12.500000     14.137220  17.0000  35.4530
      2    2 H     1     12.500000     12.500000     12.862780   1.0000   1.0079



 SCF PARAMETERS         Density guess:                                    ATOMIC
                        --------------------------------------------------------
                        max_scf:                                             200
                        max_scf_history:                                       0
                        max_diis:                                              4
                        --------------------------------------------------------
                        eps_scf:                                        1.00E-07
                        eps_scf_history:                                0.00E+00
                        eps_diis:                                       0.00E+00
                        eps_eigval:                                     1.00E-05
                        --------------------------------------------------------
                        level_shift [a.u.]:                             0.000000
                        --------------------------------------------------------
                        Outer loop SCF in use 
                        No variables optimised in outer loop
                        eps_scf                                         1.00E-07
                        max_scf                                               20
                        No outer loop optimization
                        step_size                                       5.00E-01

 PW_GRID| Information for grid number                                          1
 PW_GRID| Cutoff [a.u.]                                                    320.0
 PW_GRID| spherical cutoff:                                                   NO
 PW_GRID|   Bounds   1           -192     191                Points:         384
 PW_GRID|   Bounds   2           -192     191                Points:         384
 PW_GRID|   Bounds   3           -216     215                Points:         432
 PW_GRID| Volume element (a.u.^3)  0.1788E-02     Volume (a.u.^3)    113878.1461
 PW_GRID| Grid span                                                    FULLSPACE

 PW_GRID| Information for grid number                                          2
 PW_GRID| Number of the reference grid                                         1
 PW_GRID| Cutoff [a.u.]                                                    106.7
 PW_GRID| spherical cutoff:                                                   NO
 PW_GRID|   Bounds   1           -112     112                Points:         225
 PW_GRID|   Bounds   2           -112     112                Points:         225
 PW_GRID|   Bounds   3           -120     119                Points:         240
 PW_GRID| Volume element (a.u.^3)  0.9373E-02     Volume (a.u.^3)    113878.1461
 PW_GRID| Grid span                                                    FULLSPACE

 PW_GRID| Information for grid number                                          3
 PW_GRID| Number of the reference grid                                         1
 PW_GRID| Cutoff [a.u.]                                                     35.6
 PW_GRID| spherical cutoff:                                                   NO
 PW_GRID|   Bounds   1            -64      63                Points:         128
 PW_GRID|   Bounds   2            -64      63                Points:         128
 PW_GRID|   Bounds   3            -72      71                Points:         144
 PW_GRID| Volume element (a.u.^3)  0.4827E-01     Volume (a.u.^3)    113878.1461
 PW_GRID| Grid span                                                    FULLSPACE

 PW_GRID| Information for grid number                                          4
 PW_GRID| Number of the reference grid                                         1
 PW_GRID| Cutoff [a.u.]                                                     11.9
 PW_GRID| spherical cutoff:                                                   NO
 PW_GRID|   Bounds   1            -37      37                Points:          75
 PW_GRID|   Bounds   2            -37      37                Points:          75
 PW_GRID|   Bounds   3            -40      39                Points:          80
 PW_GRID| Volume element (a.u.^3)  0.2531         Volume (a.u.^3)    113878.1461
 PW_GRID| Grid span                                                    FULLSPACE

 PW_GRID| Information for grid number                                          5
 PW_GRID| Number of the reference grid                                         1
 PW_GRID| Cutoff [a.u.]                                                      4.0
 PW_GRID| spherical cutoff:                                                   NO
 PW_GRID|   Bounds   1            -22      22                Points:          45
 PW_GRID|   Bounds   2            -22      22                Points:          45
 PW_GRID|   Bounds   3            -22      22                Points:          45
 PW_GRID| Volume element (a.u.^3)   1.250         Volume (a.u.^3)    113878.1461
 PW_GRID| Grid span                                                    FULLSPACE

 POISSON| Solver                                                        ANALYTIC
 POISSON| Periodicity                                                       NONE

 RS_GRID| Information for grid number                                          1
 RS_GRID|   Bounds   1           -192     191                Points:         384
 RS_GRID|   Bounds   2           -192     191                Points:         384
 RS_GRID|   Bounds   3           -216     215                Points:         432

 RS_GRID| Information for grid number                                          2
 RS_GRID|   Bounds   1           -112     112                Points:         225
 RS_GRID|   Bounds   2           -112     112                Points:         225
 RS_GRID|   Bounds   3           -120     119                Points:         240

 RS_GRID| Information for grid number                                          3
 RS_GRID|   Bounds   1            -64      63                Points:         128
 RS_GRID|   Bounds   2            -64      63                Points:         128
 RS_GRID|   Bounds   3            -72      71                Points:         144

 RS_GRID| Information for grid number                                          4
 RS_GRID|   Bounds   1            -37      37                Points:          75
 RS_GRID|   Bounds   2            -37      37                Points:          75
 RS_GRID|   Bounds   3            -40      39                Points:          80

 RS_GRID| Information for grid number                                          5
 RS_GRID|   Bounds   1            -22      22                Points:          45
 RS_GRID|   Bounds   2            -22      22                Points:          45
 RS_GRID|   Bounds   3            -22      22                Points:          45

 Extrapolation method: initial_guess

 Atomic guess: The first density matrix is obtained in terms of atomic orbitals
               and electronic configurations assigned to each atomic kind

 Guess for atomic kind: Cl

 Electronic structure
    Total number of core electrons                                          0.00
    Total number of valence electrons                                      17.00
    Total number of electrons                                              17.00
    Multiplicity                                                   not specified
    S      2.00  2.00  2.00
    P      6.00  5.00


 *******************************************************************************
                  Iteration          Convergence                     Energy [au]
 *******************************************************************************
                          1        0.850853                    -458.604733714761
                          2        0.507880                    -458.618589916580
                          3        0.892179E-01                -458.635442947912
                          4        0.606773E-02                -458.636432368385
                          5        0.987158E-04                -458.636436883829
                          6        0.117883E-05                -458.636436885240
                          7        0.837769E-06                -458.636436885240

 Energy components [Hartree]           Total Energy ::         -458.636436885240
                                        Band Energy ::         -264.377176504401
                                     Kinetic Energy ::          459.029825265863
                                   Potential Energy ::         -917.666262151103
                                      Virial (-V/T) ::            1.999143000391
                                        Core Energy ::         -634.828043617932
                                          XC Energy ::          -26.645873112110
                                     Coulomb Energy ::          202.837479844801

 Orbital energies  State     L     Occupation   Energy[a.u.]          Energy[eV]

                       1     0          2.000    -100.340265        -2730.397471
                       2     0          2.000      -9.185679         -249.955045
                       3     0          2.000      -0.751826          -20.458239

                       1     1          6.000      -7.039133         -191.544540
                       2     1          5.000      -0.317368           -8.636016


 Total Electron Density at R=0:                                      3107.814744

 Guess for atomic kind: H

 Electronic structure
    Total number of core electrons                                          0.00
    Total number of valence electrons                                       1.00
    Total number of electrons                                               1.00
    Multiplicity                                                   not specified
    S      1.00


 *******************************************************************************
                  Iteration          Convergence                     Energy [au]
 *******************************************************************************
                          1        0.842545E-02                  -0.445100128715
                          2        0.129529E-02                  -0.445186551903
                          3        0.161091E-05                  -0.445188626016
                          4        0.290776E-07                  -0.445188626019

 Energy components [Hartree]           Total Energy ::           -0.445188626019
                                        Band Energy ::           -0.232306922112
                                     Kinetic Energy ::            0.426044212024
                                   Potential Energy ::           -0.871232838043
                                      Virial (-V/T) ::            2.044935275390
                                        Core Energy ::           -0.495846412394
                                          XC Energy ::           -0.232824427171
                                     Coulomb Energy ::            0.283482213547

 Orbital energies  State     L     Occupation   Energy[a.u.]          Energy[eV]

                       1     0          1.000      -0.232307           -6.321393


 Total Electron Density at R=0:                                         0.247530
 Re-scaling the density matrix to get the right number of electrons
                  # Electrons              Trace(P)               Scaling factor
                           18                18.000                        1.000

 Number of electrons:                                                         18
 Number of occupied orbitals:                                                  9
 Number of molecular orbitals:                                                 9

 Number of orbital functions:                                                 56
 Number of independent orbital functions:                                     56


 SCF WAVEFUNCTION OPTIMIZATION

  ----------------------------------- OT ---------------------------------------
  Minimizer      : DIIS                : direct inversion
                                         in the iterative subspace
                                         using   7 DIIS vectors
                                         safer DIIS on
  Preconditioner : FULL_ALL            : diagonalization, state selective
  Precond_solver : DEFAULT
  stepsize       :    0.10000000                  energy_gap     :    0.00100000
  eps_taylor     :   0.10000E-15                  max_taylor     :             4
  ----------------------------------- OT ---------------------------------------

  Step     Update method      Time    Convergence         Total energy    Change
  ------------------------------------------------------------------------------
 SKALA_GPW| Atom-composite cross support/maxima   2.179973238379E+00   2.358520501055E+02   7.819614286778E+03   3.784326388439E+04
 SKALA_GPW| Active atom-composite XC energy  -2.5747159957719830E+01
 SKALA_GPW| Active atom-composite electrons   1.7999995324341455E+01
 SKALA_GPW| Active atom-composite density range  -7.2445785608916873E-10   1.2392478539625174E+03
 SKALA_GPW| Active atom-composite tau range  -5.4337247530035093E-09   2.0152372786965096E+05
 SKALA_GPW| Active atom-composite tau integral   3.9283911922631233E+02
 SKALA_GPW| Active atom-composite max gradient   4.1890679271664951E+04
     1 OT DIIS     0.10E+00   37.8     0.76852691      -430.0558542118 -4.30E+02
 SKALA_GPW| Atom-composite cross support/maxima   2.179973238379E+00   2.804381944213E+02   9.280238072713E+03   4.409083532518E+04
 SKALA_GPW| Active atom-composite XC energy  -2.7866388220607810E+01
 SKALA_GPW| Active atom-composite electrons   1.7999995238326811E+01
 SKALA_GPW| Active atom-composite density range  -5.8567976304236166E-10   1.4609639702789796E+03
 SKALA_GPW| Active atom-composite tau range  -3.3198107779393642E-09   2.3215745202639938E+05
 SKALA_GPW| Active atom-composite tau integral   4.4366818707295812E+02
 SKALA_GPW| Active atom-composite max gradient   4.9035014764133899E+04
     2 OT DIIS     0.10E+00   38.8     0.40491997      -453.0210268095 -2.30E+01
 SKALA_GPW| Atom-composite cross support/maxima   2.179973238379E+00   3.008935926257E+02   9.927887457942E+03   4.656656404739E+04
 SKALA_GPW| Active atom-composite XC energy  -2.8700954555137177E+01
 SKALA_GPW| Active atom-composite electrons   1.7999995169826793E+01
 SKALA_GPW| Active atom-composite density range  -5.5918758545251412E-10   1.5565448748957731E+03
 SKALA_GPW| Active atom-composite tau range  -2.8367524404793246E-09   2.4404908477838684E+05
 SKALA_GPW| Active atom-composite tau integral   4.6436069521135829E+02
 SKALA_GPW| Active atom-composite max gradient   5.2035177317791895E+04
     3 OT DIIS     0.10E+00   38.3     0.06899208      -460.3142737003 -7.29E+00
 SKALA_GPW| Atom-composite cross support/maxima   2.179973238379E+00   2.997458074094E+02   9.905379463107E+03   4.647594051381E+04
 SKALA_GPW| Active atom-composite XC energy  -2.8619018219830448E+01
 SKALA_GPW| Active atom-composite electrons   1.7999995168164855E+01
 SKALA_GPW| Active atom-composite density range  -5.5537562694634911E-10   1.5537582281457562E+03
 SKALA_GPW| Active atom-composite tau range  -2.5330468726641035E-09   2.4378457231212719E+05
 SKALA_GPW| Active atom-composite tau integral   4.6223704111175783E+02
 SKALA_GPW| Active atom-composite max gradient   5.1966321007851300E+04
     4 OT DIIS     0.10E+00   39.2     0.02119574      -460.5078950902 -1.94E-01
 SKALA_GPW| Atom-composite cross support/maxima   2.179973238379E+00   2.993346296668E+02   9.901594232591E+03   4.640431974066E+04
 SKALA_GPW| Active atom-composite XC energy  -2.8536697131399375E+01
 SKALA_GPW| Active atom-composite electrons   1.7999995161511858E+01
 SKALA_GPW| Active atom-composite density range  -5.3426750640741484E-10   1.5532948397112993E+03
 SKALA_GPW| Active atom-composite tau range  -1.9333584485619001E-09   2.4374497630509772E+05
 SKALA_GPW| Active atom-composite tau integral   4.6033999846418953E+02
 SKALA_GPW| Active atom-composite max gradient   5.1968011870138296E+04
     5 OT DIIS     0.10E+00   40.3     0.01611045      -460.5451449875 -3.72E-02
 SKALA_GPW| Atom-composite cross support/maxima   2.179973238379E+00   2.997247044774E+02   9.910139010179E+03   4.644700106329E+04
 SKALA_GPW| Active atom-composite XC energy  -2.8576923654354562E+01
 SKALA_GPW| Active atom-composite electrons   1.7999995153795172E+01
 SKALA_GPW| Active atom-composite density range  -4.6043377106494057E-10   1.5543697324876816E+03
 SKALA_GPW| Active atom-composite tau range  -2.2056601008898516E-09   2.4377948177906356E+05
 SKALA_GPW| Active atom-composite tau integral   4.6110159446611164E+02
 SKALA_GPW| Active atom-composite max gradient   5.1987129206989412E+04
     6 OT DIIS     0.10E+00   39.7     0.01732563      -460.5891678888 -4.40E-02
 SKALA_GPW| Atom-composite cross support/maxima   2.179973238379E+00   2.990088423981E+02   9.894907209715E+03   4.637929464881E+04
 SKALA_GPW| Active atom-composite XC energy  -2.8536716771403221E+01
 SKALA_GPW| Active atom-composite electrons   1.7999995150640352E+01
 SKALA_GPW| Active atom-composite density range  -4.0028278000804662E-10   1.5522667893010130E+03
 SKALA_GPW| Active atom-composite tau range  -3.3856616990482358E-09   2.4356957857961452E+05
 SKALA_GPW| Active atom-composite tau integral   4.5980335456568719E+02
 SKALA_GPW| Active atom-composite max gradient   5.1928971707769371E+04
     7 OT DIIS     0.10E+00   39.1     0.02191689      -460.6303010796 -4.11E-02
 SKALA_GPW| Atom-composite cross support/maxima   2.179973238379E+00   2.990792831200E+02   9.896857289514E+03   4.638662105461E+04
 SKALA_GPW| Active atom-composite XC energy  -2.8543226223562964E+01
 SKALA_GPW| Active atom-composite electrons   1.7999995150318309E+01
 SKALA_GPW| Active atom-composite density range  -3.9303582834885656E-10   1.5525182685415828E+03
 SKALA_GPW| Active atom-composite tau range  -3.4902139956885879E-09   2.4358350114333633E+05
 SKALA_GPW| Active atom-composite tau integral   4.5990454096846764E+02
 SKALA_GPW| Active atom-composite max gradient   5.1935223819675688E+04
     8 OT DIIS     0.10E+00   38.3     0.01938457      -460.6428271455 -1.25E-02
 SKALA_GPW| Atom-composite cross support/maxima   2.179973238379E+00   2.994327230012E+02   9.906998461890E+03   4.642455535616E+04
 SKALA_GPW| Active atom-composite XC energy  -2.8581592323367765E+01
 SKALA_GPW| Active atom-composite electrons   1.7999995156002594E+01
 SKALA_GPW| Active atom-composite density range  -4.1393424621065082E-10   1.5538100125419089E+03
 SKALA_GPW| Active atom-composite tau range  -2.9398948911938602E-09   2.4365574037337844E+05
 SKALA_GPW| Active atom-composite tau integral   4.6047185331633852E+02
 SKALA_GPW| Active atom-composite max gradient   5.1968541902739053E+04
     9 OT DIIS     0.10E+00   39.7     0.00838101      -460.7014109774 -5.86E-02
 SKALA_GPW| Atom-composite cross support/maxima   2.179973238379E+00   2.994581372865E+02   9.908078798049E+03   4.642647626208E+04
 SKALA_GPW| Active atom-composite XC energy  -2.8584938031037119E+01
 SKALA_GPW| Active atom-composite electrons   1.7999995155423932E+01
 SKALA_GPW| Active atom-composite density range  -4.0314855495617677E-10   1.5539366061563653E+03
 SKALA_GPW| Active atom-composite tau range  -2.9327149499476074E-09   2.4365312171344025E+05
 SKALA_GPW| Active atom-composite tau integral   4.6046169133929112E+02
 SKALA_GPW| Active atom-composite max gradient   5.1970962012333759E+04
    10 OT DIIS     0.10E+00   38.8     0.00736141      -460.7136100331 -1.22E-02
 SKALA_GPW| Atom-composite cross support/maxima   2.179973238379E+00   2.994136787855E+02   9.907653225729E+03   4.643227006381E+04
 SKALA_GPW| Active atom-composite XC energy  -2.8598186141635960E+01
 SKALA_GPW| Active atom-composite electrons   1.7999995155814393E+01
 SKALA_GPW| Active atom-composite density range  -3.9484379980750171E-10   1.5538448210568695E+03
 SKALA_GPW| Active atom-composite tau range  -2.1027508587591394E-09   2.4362680087820024E+05
 SKALA_GPW| Active atom-composite tau integral   4.6052922913219771E+02
 SKALA_GPW| Active atom-composite max gradient   5.1964464246919546E+04
    11 OT DIIS     0.10E+00   39.3     0.00614316      -460.7427967736 -2.92E-02
 SKALA_GPW| Atom-composite cross support/maxima   2.179973238379E+00   2.994503462668E+02   9.908776590907E+03   4.643208697828E+04
 SKALA_GPW| Active atom-composite XC energy  -2.8597113202062296E+01
 SKALA_GPW| Active atom-composite electrons   1.7999995155360722E+01
 SKALA_GPW| Active atom-composite density range  -3.8697651364335041E-10   1.5539876291520127E+03
 SKALA_GPW| Active atom-composite tau range  -2.2598948536235714E-09   2.4363489696830270E+05
 SKALA_GPW| Active atom-composite tau integral   4.6049762670239733E+02
 SKALA_GPW| Active atom-composite max gradient   5.1968554706976036E+04
    12 OT DIIS     0.10E+00   38.2     0.00602956      -460.7433965943 -6.00E-04
 SKALA_GPW| Atom-composite cross support/maxima   2.179973238379E+00   2.992546163002E+02   9.904051683409E+03   4.642149817367E+04
 SKALA_GPW| Active atom-composite XC energy  -2.8592743147689038E+01
 SKALA_GPW| Active atom-composite electrons   1.7999995156084463E+01
 SKALA_GPW| Active atom-composite density range  -4.0329249135815399E-10   1.5533432994341533E+03
 SKALA_GPW| Active atom-composite tau range  -1.8547856940185309E-09   2.4358657326724989E+05
 SKALA_GPW| Active atom-composite tau integral   4.6036124168432031E+02
 SKALA_GPW| Active atom-composite max gradient   5.1951180342874737E+04
    13 OT DIIS     0.10E+00   39.3     0.01161075      -460.7442793451 -8.83E-04
 SKALA_GPW| Atom-composite cross support/maxima   2.179973238379E+00   2.992508185596E+02   9.904581928276E+03   4.642391739670E+04
 SKALA_GPW| Active atom-composite XC energy  -2.8594814062278562E+01
 SKALA_GPW| Active atom-composite electrons   1.7999995155679919E+01
 SKALA_GPW| Active atom-composite density range  -4.0818409561757302E-10   1.5534024208978453E+03
 SKALA_GPW| Active atom-composite tau range  -1.4389683207910893E-09   2.4358740243098655E+05
 SKALA_GPW| Active atom-composite tau integral   4.6035441925689133E+02
 SKALA_GPW| Active atom-composite max gradient   5.1953628321817676E+04
    14 OT SD       0.10E+00   38.9     0.01038630      -460.7564894928 -1.22E-02
 SKALA_GPW| Atom-composite cross support/maxima   2.179973238379E+00   2.993582961417E+02   9.907073004908E+03   4.643157060361E+04
 SKALA_GPW| Active atom-composite XC energy  -2.8599585281114770E+01
 SKALA_GPW| Active atom-composite electrons   1.7999995154034128E+01
 SKALA_GPW| Active atom-composite density range  -4.0025225901951762E-10   1.5537299812956571E+03
 SKALA_GPW| Active atom-composite tau range  -1.3622649998385022E-09   2.4360945124679888E+05
 SKALA_GPW| Active atom-composite tau integral   4.6047589070491159E+02
 SKALA_GPW| Active atom-composite max gradient   5.1961759124288015E+04
    15 OT DIIS     0.10E+00   40.7     0.00617433      -460.7606726634 -4.18E-03
 SKALA_GPW| Atom-composite cross support/maxima   2.179973238379E+00   2.992997859167E+02   9.905671075303E+03   4.642852070067E+04
 SKALA_GPW| Active atom-composite XC energy  -2.8597070899133787E+01
 SKALA_GPW| Active atom-composite electrons   1.7999995152824404E+01
 SKALA_GPW| Active atom-composite density range  -3.9615404564728620E-10   1.5535462047377798E+03
 SKALA_GPW| Active atom-composite tau range  -1.4057589781339717E-09   2.4359561829076757E+05
 SKALA_GPW| Active atom-composite tau integral   4.6041873224859842E+02
 SKALA_GPW| Active atom-composite max gradient   5.1957086154731187E+04
    16 OT DIIS     0.10E+00   39.4     0.00789411      -460.7611171261 -4.44E-04
 SKALA_GPW| Atom-composite cross support/maxima   2.179973238379E+00   2.994706455045E+02   9.909896038316E+03   4.644071535974E+04
 SKALA_GPW| Active atom-composite XC energy  -2.8609659082136265E+01
 SKALA_GPW| Active atom-composite electrons   1.7999995151350330E+01
 SKALA_GPW| Active atom-composite density range  -3.6859225174015186E-10   1.5540611981461714E+03
 SKALA_GPW| Active atom-composite tau range  -1.4809322726008715E-09   2.4361430163969932E+05
 SKALA_GPW| Active atom-composite tau integral   4.6061738206633305E+02
 SKALA_GPW| Active atom-composite max gradient   5.1969180508423437E+04
    17 OT DIIS     0.10E+00   39.6     0.00497916      -460.7724603462 -1.13E-02
 SKALA_GPW| Atom-composite cross support/maxima   2.179973238379E+00   2.994310187661E+02   9.909190290773E+03   4.643980683501E+04
 SKALA_GPW| Active atom-composite XC energy  -2.8611463212099466E+01
 SKALA_GPW| Active atom-composite electrons   1.7999995151406793E+01
 SKALA_GPW| Active atom-composite density range  -3.5811814138794272E-10   1.5539487820276215E+03
 SKALA_GPW| Active atom-composite tau range  -1.4274799361360856E-09   2.4359877182933281E+05
 SKALA_GPW| Active atom-composite tau integral   4.6059518095227043E+02
 SKALA_GPW| Active atom-composite max gradient   5.1966166100367933E+04
    18 OT DIIS     0.10E+00   40.1     0.00414929      -460.7781306091 -5.67E-03
 SKALA_GPW| Atom-composite cross support/maxima   2.179973238379E+00   2.994189597097E+02   9.909426810772E+03   4.644073952768E+04
 SKALA_GPW| Active atom-composite XC energy  -2.8612176018456744E+01
 SKALA_GPW| Active atom-composite electrons   1.7999995148511033E+01
 SKALA_GPW| Active atom-composite density range  -3.3118344409615001E-10   1.5539561490190915E+03
 SKALA_GPW| Active atom-composite tau range  -1.5091558001289573E-09   2.4358872896591696E+05
 SKALA_GPW| Active atom-composite tau integral   4.6055585004281971E+02
 SKALA_GPW| Active atom-composite max gradient   5.1966698576689989E+04
    19 OT DIIS     0.10E+00   38.5     0.00362048      -460.7884398054 -1.03E-02
 SKALA_GPW| Atom-composite cross support/maxima   2.179973238379E+00   2.993066414953E+02   9.907226673046E+03   4.643333819719E+04
 SKALA_GPW| Active atom-composite XC energy  -2.8601757182505583E+01
 SKALA_GPW| Active atom-composite electrons   1.7999995143707359E+01
 SKALA_GPW| Active atom-composite density range  -2.9944025649892437E-10   1.5536865567975144E+03
 SKALA_GPW| Active atom-composite tau range  -2.0685436149764643E-09   2.4357395372339489E+05
 SKALA_GPW| Active atom-composite tau integral   4.6034010994526528E+02
 SKALA_GPW| Active atom-composite max gradient   5.1961545048370797E+04
    20 OT DIIS     0.10E+00   40.1     0.00407970      -460.7935329201 -5.09E-03
 SKALA_GPW| Atom-composite cross support/maxima   2.179973238379E+00   2.993458403523E+02   9.908450332852E+03   4.643659489723E+04
 SKALA_GPW| Active atom-composite XC energy  -2.8603005088376307E+01
 SKALA_GPW| Active atom-composite electrons   1.7999995141935276E+01
 SKALA_GPW| Active atom-composite density range  -2.8672796074186346E-10   1.5538310989017871E+03
 SKALA_GPW| Active atom-composite tau range  -1.9488748481123945E-09   2.4357957491519090E+05
 SKALA_GPW| Active atom-composite tau integral   4.6036249555842971E+02
 SKALA_GPW| Active atom-composite max gradient   5.1965308269649337E+04
    21 OT DIIS     0.10E+00   40.3     0.00279176      -460.7985720363 -5.04E-03
 SKALA_GPW| Atom-composite cross support/maxima   2.179973238379E+00   2.993351111074E+02   9.908334385014E+03   4.643740550247E+04
 SKALA_GPW| Active atom-composite XC energy  -2.8602992881551629E+01
 SKALA_GPW| Active atom-composite electrons   1.7999995140046526E+01
 SKALA_GPW| Active atom-composite density range  -2.6600659170622835E-10   1.5538090405664673E+03
 SKALA_GPW| Active atom-composite tau range  -2.0611751341883531E-09   2.4357627567011223E+05
 SKALA_GPW| Active atom-composite tau integral   4.6035729063998070E+02
 SKALA_GPW| Active atom-composite max gradient   5.1964778006223059E+04
    22 OT DIIS     0.10E+00   39.5     0.00249531      -460.8018980490 -3.33E-03
 SKALA_GPW| Atom-composite cross support/maxima   2.179973238379E+00   2.993234143905E+02   9.908265528666E+03   4.644081477788E+04
 SKALA_GPW| Active atom-composite XC energy  -2.8602592768478072E+01
 SKALA_GPW| Active atom-composite electrons   1.7999995135107991E+01
 SKALA_GPW| Active atom-composite density range  -2.2549126277025123E-10   1.5537951574672575E+03
 SKALA_GPW| Active atom-composite tau range  -2.4070303258593238E-09   2.4357735577679591E+05
 SKALA_GPW| Active atom-composite tau integral   4.6037785189681830E+02
 SKALA_GPW| Active atom-composite max gradient   5.1964554780816041E+04
    23 OT DIIS     0.10E+00   40.8     0.00202747      -460.8071955965 -5.30E-03
 SKALA_GPW| Atom-composite cross support/maxima   2.179973238379E+00   2.993179393506E+02   9.908134919665E+03   4.644198288879E+04
 SKALA_GPW| Active atom-composite XC energy  -2.8603846053875582E+01
 SKALA_GPW| Active atom-composite electrons   1.7999995134226534E+01
 SKALA_GPW| Active atom-composite density range  -2.1089790964631769E-10   1.5537804653923179E+03
 SKALA_GPW| Active atom-composite tau range  -2.6078972752567420E-09   2.4357822019133915E+05
 SKALA_GPW| Active atom-composite tau integral   4.6040131799781500E+02
 SKALA_GPW| Active atom-composite max gradient   5.1964190064157032E+04
    24 OT DIIS     0.10E+00   38.5     0.00174187      -460.8082629020 -1.07E-03
 SKALA_GPW| Atom-composite cross support/maxima   2.179973238379E+00   2.993300948556E+02   9.908613931163E+03   4.644258047913E+04
 SKALA_GPW| Active atom-composite XC energy  -2.8603380084296823E+01
 SKALA_GPW| Active atom-composite electrons   1.7999995133079505E+01
 SKALA_GPW| Active atom-composite density range  -1.9183933647732166E-10   1.5538455675036339E+03
 SKALA_GPW| Active atom-composite tau range  -2.8491682047683069E-09   2.4358491805387181E+05
 SKALA_GPW| Active atom-composite tau integral   4.6039039538027623E+02
 SKALA_GPW| Active atom-composite max gradient   5.1966320464569159E+04
    25 OT DIIS     0.10E+00   39.4     0.00175484      -460.8094704545 -1.21E-03
 SKALA_GPW| Atom-composite cross support/maxima   2.179973238379E+00   2.992630805638E+02   9.906864424938E+03   4.643885511481E+04
 SKALA_GPW| Active atom-composite XC energy  -2.8606400842750837E+01
 SKALA_GPW| Active atom-composite electrons   1.7999995136073331E+01
 SKALA_GPW| Active atom-composite density range  -2.0250155079036578E-10   1.5536312407239207E+03
 SKALA_GPW| Active atom-composite tau range  -3.1677145118894046E-09   2.4357291890389592E+05
 SKALA_GPW| Active atom-composite tau integral   4.6037280362539144E+02
 SKALA_GPW| Active atom-composite max gradient   5.1961015339426958E+04
    26 OT DIIS     0.10E+00   39.6     0.00416749      -460.8084014207  1.07E-03
 SKALA_GPW| Atom-composite cross support/maxima   2.179973238379E+00   2.993206513866E+02   9.908535597423E+03   4.644212317028E+04
 SKALA_GPW| Active atom-composite XC energy  -2.8604274614825822E+01
 SKALA_GPW| Active atom-composite electrons   1.7999995133462313E+01
 SKALA_GPW| Active atom-composite density range  -2.2629178179706339E-10   1.5538424264860685E+03
 SKALA_GPW| Active atom-composite tau range  -3.1940155676868941E-09   2.4358810860754151E+05
 SKALA_GPW| Active atom-composite tau integral   4.6037659956214191E+02
 SKALA_GPW| Active atom-composite max gradient   5.1966773848254910E+04
    27 OT DIIS     0.10E+00   37.2     0.00159305      -460.8105935002 -2.19E-03
 SKALA_GPW| Atom-composite cross support/maxima   2.179973238379E+00   2.993119836436E+02   9.908186993345E+03   4.644217056148E+04
 SKALA_GPW| Active atom-composite XC energy  -2.8608212929233481E+01
 SKALA_GPW| Active atom-composite electrons   1.7999995135546410E+01
 SKALA_GPW| Active atom-composite density range  -2.3207788432442226E-10   1.5537972354945393E+03
 SKALA_GPW| Active atom-composite tau range  -3.2504409906724770E-09   2.4358445056421761E+05
 SKALA_GPW| Active atom-composite tau integral   4.6041283217210844E+02
 SKALA_GPW| Active atom-composite max gradient   5.1965317853831613E+04
    28 OT DIIS     0.10E+00   38.5     0.00089737      -460.8106617169 -6.82E-05
 SKALA_GPW| Atom-composite cross support/maxima   2.179973238379E+00   2.993242641569E+02   9.908493635966E+03   4.644299550643E+04
 SKALA_GPW| Active atom-composite XC energy  -2.8609184252972813E+01
 SKALA_GPW| Active atom-composite electrons   1.7999995135788076E+01
 SKALA_GPW| Active atom-composite density range  -2.4399576109331322E-10   1.5538333981761668E+03
 SKALA_GPW| Active atom-composite tau range  -3.2556706462280138E-09   2.4358647516226876E+05
 SKALA_GPW| Active atom-composite tau integral   4.6042870301210706E+02
 SKALA_GPW| Active atom-composite max gradient   5.1966140674483991E+04
    29 OT DIIS     0.10E+00   38.1     0.00080652      -460.8109953499 -3.34E-04
 SKALA_GPW| Atom-composite cross support/maxima   2.179973238379E+00   2.993163922435E+02   9.908351222080E+03   4.644174458600E+04
 SKALA_GPW| Active atom-composite XC energy  -2.8609498985353010E+01
 SKALA_GPW| Active atom-composite electrons   1.7999995136506662E+01
 SKALA_GPW| Active atom-composite density range  -2.5045549347190880E-10   1.5538109673400779E+03
 SKALA_GPW| Active atom-composite tau range  -3.2443824409610784E-09   2.4358359046872990E+05
 SKALA_GPW| Active atom-composite tau integral   4.6041254486390568E+02
 SKALA_GPW| Active atom-composite max gradient   5.1965593430009307E+04
    30 OT DIIS     0.10E+00   39.3     0.00057664      -460.8111928387 -1.97E-04
 SKALA_GPW| Atom-composite cross support/maxima   2.179973238379E+00   2.993225809150E+02   9.908523190326E+03   4.644190842205E+04
 SKALA_GPW| Active atom-composite XC energy  -2.8609541154460285E+01
 SKALA_GPW| Active atom-composite electrons   1.7999995136448028E+01
 SKALA_GPW| Active atom-composite density range  -2.5594751289311672E-10   1.5538316702411153E+03
 SKALA_GPW| Active atom-composite tau range  -3.2583359824288517E-09   2.4358465071291337E+05
 SKALA_GPW| Active atom-composite tau integral   4.6041299252627363E+02
 SKALA_GPW| Active atom-composite max gradient   5.1966116795523267E+04
    31 OT DIIS     0.10E+00   38.5     0.00042463      -460.8112743945 -8.16E-05
 SKALA_GPW| Atom-composite cross support/maxima   2.179973238379E+00   2.993169262300E+02   9.908322782569E+03   4.644182627590E+04
 SKALA_GPW| Active atom-composite XC energy  -2.8610112325584211E+01
 SKALA_GPW| Active atom-composite electrons   1.7999995136597736E+01
 SKALA_GPW| Active atom-composite density range  -2.5631313490892935E-10   1.5538064114714093E+03
 SKALA_GPW| Active atom-composite tau range  -3.2508865496176997E-09   2.4358254656421367E+05
 SKALA_GPW| Active atom-composite tau integral   4.6041905028579185E+02
 SKALA_GPW| Active atom-composite max gradient   5.1965344729993834E+04
    32 OT DIIS     0.10E+00   39.0     0.00055136      -460.8112978740 -2.35E-05
 SKALA_GPW| Atom-composite cross support/maxima   2.179973238379E+00   2.993234436517E+02   9.908481295069E+03   4.644212109317E+04
 SKALA_GPW| Active atom-composite XC energy  -2.8610066724478628E+01
 SKALA_GPW| Active atom-composite electrons   1.7999995136479942E+01
 SKALA_GPW| Active atom-composite density range  -2.5734509004128209E-10   1.5538265424535437E+03
 SKALA_GPW| Active atom-composite tau range  -3.2442029203708704E-09   2.4358383504504254E+05
 SKALA_GPW| Active atom-composite tau integral   4.6042201840490264E+02
 SKALA_GPW| Active atom-composite max gradient   5.1965848150208309E+04
    33 OT DIIS     0.10E+00   39.2     0.00032023      -460.8113345040 -3.66E-05
 SKALA_GPW| Atom-composite cross support/maxima   2.179973238379E+00   2.993213328717E+02   9.908356141893E+03   4.644190843552E+04
 SKALA_GPW| Active atom-composite XC energy  -2.8610736916228653E+01
 SKALA_GPW| Active atom-composite electrons   1.7999995136902335E+01
 SKALA_GPW| Active atom-composite density range  -2.5644014344562358E-10   1.5538135339483269E+03
 SKALA_GPW| Active atom-composite tau range  -3.2176755178968311E-09   2.4358307799072325E+05
 SKALA_GPW| Active atom-composite tau integral   4.6042732356115141E+02
 SKALA_GPW| Active atom-composite max gradient   5.1965480896868758E+04
    34 OT DIIS     0.10E+00   39.8     0.00027422      -460.8113802228 -4.57E-05
 SKALA_GPW| Atom-composite cross support/maxima   2.179973238379E+00   2.993235143873E+02   9.908405548236E+03   4.644192696533E+04
 SKALA_GPW| Active atom-composite XC energy  -2.8610884251655225E+01
 SKALA_GPW| Active atom-composite electrons   1.7999995137031853E+01
 SKALA_GPW| Active atom-composite density range  -2.5732179739271415E-10   1.5538205419000851E+03
 SKALA_GPW| Active atom-composite tau range  -3.2231403453300176E-09   2.4358363992142965E+05
 SKALA_GPW| Active atom-composite tau integral   4.6042837056185681E+02
 SKALA_GPW| Active atom-composite max gradient   5.1965676653934715E+04
    35 OT DIIS     0.10E+00   38.9     0.00018050      -460.8113939353 -1.37E-05
 SKALA_GPW| Atom-composite cross support/maxima   2.179973238379E+00   2.993226171039E+02   9.908364657481E+03   4.644177590095E+04
 SKALA_GPW| Active atom-composite XC energy  -2.8611223339313774E+01
 SKALA_GPW| Active atom-composite electrons   1.7999995137343198E+01
 SKALA_GPW| Active atom-composite density range  -2.5846255405481599E-10   1.5538164364839777E+03
 SKALA_GPW| Active atom-composite tau range  -3.2341498619161195E-09   2.4358341532188980E+05
 SKALA_GPW| Active atom-composite tau integral   4.6042938018617554E+02
 SKALA_GPW| Active atom-composite max gradient   5.1965574848941324E+04
    36 OT DIIS     0.10E+00   39.5     0.00014157      -460.8114073331 -1.34E-05
 SKALA_GPW| Atom-composite cross support/maxima   2.179973238379E+00   2.993228397079E+02   9.908360199955E+03   4.644170526212E+04
 SKALA_GPW| Active atom-composite XC energy  -2.8611178985927467E+01
 SKALA_GPW| Active atom-composite electrons   1.7999995137383525E+01
 SKALA_GPW| Active atom-composite density range  -2.5828027878765640E-10   1.5538158406852829E+03
 SKALA_GPW| Active atom-composite tau range  -3.2317975354602216E-09   2.4358321458312040E+05
 SKALA_GPW| Active atom-composite tau integral   4.6042869413170490E+02
 SKALA_GPW| Active atom-composite max gradient   5.1965544321421650E+04
    37 OT DIIS     0.10E+00   38.6     0.00012473      -460.8114113305 -4.00E-06
 SKALA_GPW| Atom-composite cross support/maxima   2.179973238379E+00   2.993228718337E+02   9.908346575685E+03   4.644155966966E+04
 SKALA_GPW| Active atom-composite XC energy  -2.8611084692422519E+01
 SKALA_GPW| Active atom-composite electrons   1.7999995137429000E+01
 SKALA_GPW| Active atom-composite density range  -2.5825762974134934E-10   1.5538139059894734E+03
 SKALA_GPW| Active atom-composite tau range  -3.2309557979488759E-09   2.4358275762151100E+05
 SKALA_GPW| Active atom-composite tau integral   4.6042697173199201E+02
 SKALA_GPW| Active atom-composite max gradient   5.1965467913278779E+04
    38 OT DIIS     0.10E+00   40.0     0.00010689      -460.8114151868 -3.86E-06
 SKALA_GPW| Atom-composite cross support/maxima   2.179973238379E+00   2.993230199631E+02   9.908341921312E+03   4.644151546821E+04
 SKALA_GPW| Active atom-composite XC energy  -2.8611044638779902E+01
 SKALA_GPW| Active atom-composite electrons   1.7999995137443452E+01
 SKALA_GPW| Active atom-composite density range  -2.5827411504129328E-10   1.5538131880578385E+03
 SKALA_GPW| Active atom-composite tau range  -3.2313945618625278E-09   2.4358253632725964E+05
 SKALA_GPW| Active atom-composite tau integral   4.6042657123039646E+02
 SKALA_GPW| Active atom-composite max gradient   5.1965430868182848E+04
    39 OT DIIS     0.10E+00   39.2     0.00009929      -460.8114165361 -1.35E-06
 SKALA_GPW| Atom-composite cross support/maxima   2.179973238379E+00   2.993228124347E+02   9.908310651494E+03   4.644142639521E+04
 SKALA_GPW| Active atom-composite XC energy  -2.8610884128946264E+01
 SKALA_GPW| Active atom-composite electrons   1.7999995137433864E+01
 SKALA_GPW| Active atom-composite density range  -2.5794184826433376E-10   1.5538089836398444E+03
 SKALA_GPW| Active atom-composite tau range  -3.2272441667078235E-09   2.4358183459135622E+05
 SKALA_GPW| Active atom-composite tau integral   4.6042585317099343E+02
 SKALA_GPW| Active atom-composite max gradient   5.1965267428912848E+04
    40 OT DIIS     0.10E+00   39.0     0.00007792      -460.8114195894 -3.05E-06
 SKALA_GPW| Atom-composite cross support/maxima   2.179973238379E+00   2.993225545309E+02   9.908294561218E+03   4.644135733650E+04
 SKALA_GPW| Active atom-composite XC energy  -2.8610768594842526E+01
 SKALA_GPW| Active atom-composite electrons   1.7999995137431519E+01
 SKALA_GPW| Active atom-composite density range  -2.5764904399063086E-10   1.5538072270131352E+03
 SKALA_GPW| Active atom-composite tau range  -3.2225157570456573E-09   2.4358165405802280E+05
 SKALA_GPW| Active atom-composite tau integral   4.6042479707875418E+02
 SKALA_GPW| Active atom-composite max gradient   5.1965216826512624E+04
    41 OT DIIS     0.10E+00   39.2     0.00006847      -460.8114206712 -1.08E-06
 SKALA_GPW| Atom-composite cross support/maxima   2.179973238379E+00   2.993223564369E+02   9.908286454784E+03   4.644131633042E+04
 SKALA_GPW| Active atom-composite XC energy  -2.8610691400738926E+01
 SKALA_GPW| Active atom-composite electrons   1.7999995137429053E+01
 SKALA_GPW| Active atom-composite density range  -2.5756273465797459E-10   1.5538064663665000E+03
 SKALA_GPW| Active atom-composite tau range  -3.2200144059884763E-09   2.4358162044115868E+05
 SKALA_GPW| Active atom-composite tau integral   4.6042400507045716E+02
 SKALA_GPW| Active atom-composite max gradient   5.1965201956256249E+04
    42 OT DIIS     0.10E+00   39.0     0.00006258      -460.8114213033 -6.32E-07
 SKALA_GPW| Atom-composite cross support/maxima   2.179973238379E+00   2.993220327424E+02   9.908275358475E+03   4.644130948649E+04
 SKALA_GPW| Active atom-composite XC energy  -2.8610577697285592E+01
 SKALA_GPW| Active atom-composite electrons   1.7999995137410309E+01
 SKALA_GPW| Active atom-composite density range  -2.5776943074705181E-10   1.5538053196879116E+03
 SKALA_GPW| Active atom-composite tau range  -3.2185777936104893E-09   2.4358158548019378E+05
 SKALA_GPW| Active atom-composite tau integral   4.6042356519589350E+02
 SKALA_GPW| Active atom-composite max gradient   5.1965173351624304E+04
    43 OT DIIS     0.10E+00   39.2     0.00004603      -460.8114230002 -1.70E-06
 SKALA_GPW| Atom-composite cross support/maxima   2.179973238379E+00   2.993220185028E+02   9.908272263269E+03   4.644130801593E+04
 SKALA_GPW| Active atom-composite XC energy  -2.8610539924159447E+01
 SKALA_GPW| Active atom-composite electrons   1.7999995137408010E+01
 SKALA_GPW| Active atom-composite density range  -2.5777952013588318E-10   1.5538050119737388E+03
 SKALA_GPW| Active atom-composite tau range  -3.2172525909885780E-09   2.4358156601602086E+05
 SKALA_GPW| Active atom-composite tau integral   4.6042351490594615E+02
 SKALA_GPW| Active atom-composite max gradient   5.1965163127488107E+04
    44 OT DIIS     0.10E+00   39.2     0.00004024      -460.8114235786 -5.78E-07
 SKALA_GPW| Atom-composite cross support/maxima   2.179973238379E+00   2.993220829910E+02   9.908269681642E+03   4.644128669105E+04
 SKALA_GPW| Active atom-composite XC energy  -2.8610470802064711E+01
 SKALA_GPW| Active atom-composite electrons   1.7999995137407840E+01
 SKALA_GPW| Active atom-composite density range  -2.5783380787264154E-10   1.5538047824426239E+03
 SKALA_GPW| Active atom-composite tau range  -3.2150269640414021E-09   2.4358151596834947E+05
 SKALA_GPW| Active atom-composite tau integral   4.6042308207783134E+02
 SKALA_GPW| Active atom-composite max gradient   5.1965153698176488E+04
    45 OT DIIS     0.10E+00   39.9     0.00003037      -460.8114244759 -8.97E-07
 SKALA_GPW| Atom-composite cross support/maxima   2.179973238379E+00   2.993220748521E+02   9.908270283332E+03   4.644128732562E+04
 SKALA_GPW| Active atom-composite XC energy  -2.8610452329028380E+01
 SKALA_GPW| Active atom-composite electrons   1.7999995137400571E+01
 SKALA_GPW| Active atom-composite density range  -2.5788609533438735E-10   1.5538048771077492E+03
 SKALA_GPW| Active atom-composite tau range  -3.2140966722045788E-09   2.4358152595578585E+05
 SKALA_GPW| Active atom-composite tau integral   4.6042293368222352E+02
 SKALA_GPW| Active atom-composite max gradient   5.1965157605299915E+04
    46 OT DIIS     0.10E+00   38.5     0.00002664      -460.8114248091 -3.33E-07
 SKALA_GPW| Atom-composite cross support/maxima   2.179973238379E+00   2.993220901467E+02   9.908271157118E+03   4.644128791658E+04
 SKALA_GPW| Active atom-composite XC energy  -2.8610444825201107E+01
 SKALA_GPW| Active atom-composite electrons   1.7999995137397228E+01
 SKALA_GPW| Active atom-composite density range  -2.5793250297238340E-10   1.5538050187661970E+03
 SKALA_GPW| Active atom-composite tau range  -3.2134218529947069E-09   2.4358154086726112E+05
 SKALA_GPW| Active atom-composite tau integral   4.6042285297024353E+02
 SKALA_GPW| Active atom-composite max gradient   5.1965162630296778E+04
    47 OT DIIS     0.10E+00   39.7     0.00002477      -460.8114249758 -1.67E-07
 SKALA_GPW| Atom-composite cross support/maxima   2.179973238379E+00   2.993221878603E+02   9.908270805127E+03   4.644126624891E+04
 SKALA_GPW| Active atom-composite XC energy  -2.8610442835737022E+01
 SKALA_GPW| Active atom-composite electrons   1.7999995137408622E+01
 SKALA_GPW| Active atom-composite density range  -2.5809586982330468E-10   1.5538050673258756E+03
 SKALA_GPW| Active atom-composite tau range  -3.2130381525604616E-09   2.4358151010666328E+05
 SKALA_GPW| Active atom-composite tau integral   4.6042264347420894E+02
 SKALA_GPW| Active atom-composite max gradient   5.1965161853301091E+04
    48 OT DIIS     0.10E+00   38.8     0.00002032      -460.8114252233 -2.48E-07
 SKALA_GPW| Atom-composite cross support/maxima   2.179973238379E+00   2.993222639485E+02   9.908267886642E+03   4.644124270117E+04
 SKALA_GPW| Active atom-composite XC energy  -2.8610459588184810E+01
 SKALA_GPW| Active atom-composite electrons   1.7999995137431213E+01
 SKALA_GPW| Active atom-composite density range  -2.5830111375641044E-10   1.5538047466998489E+03
 SKALA_GPW| Active atom-composite tau range  -3.2128030739162896E-09   2.4358141856598272E+05
 SKALA_GPW| Active atom-composite tau integral   4.6042263636050433E+02
 SKALA_GPW| Active atom-composite max gradient   5.1965145995416162E+04
    49 OT DIIS     0.10E+00   39.9     0.00001614      -460.8114254418 -2.18E-07
 SKALA_GPW| Atom-composite cross support/maxima   2.179973238379E+00   2.993223110913E+02   9.908266644824E+03   4.644123434336E+04
 SKALA_GPW| Active atom-composite XC energy  -2.8610474342426347E+01
 SKALA_GPW| Active atom-composite electrons   1.7999995137445513E+01
 SKALA_GPW| Active atom-composite density range  -2.5835276887291836E-10   1.5538046045417004E+03
 SKALA_GPW| Active atom-composite tau range  -3.2126721588359823E-09   2.4358137778065985E+05
 SKALA_GPW| Active atom-composite tau integral   4.6042272906489757E+02
 SKALA_GPW| Active atom-composite max gradient   5.1965138400306918E+04
    50 OT DIIS     0.10E+00   40.4     0.00001438      -460.8114255121 -7.03E-08
 SKALA_GPW| Atom-composite cross support/maxima   2.179973238379E+00   2.993224177888E+02   9.908264568502E+03   4.644121361652E+04
 SKALA_GPW| Active atom-composite XC energy  -2.8610506516181829E+01
 SKALA_GPW| Active atom-composite electrons   1.7999995137478265E+01
 SKALA_GPW| Active atom-composite density range  -2.5842253537621451E-10   1.5538044017481070E+03
 SKALA_GPW| Active atom-composite tau range  -3.2125271754144595E-09   2.4358131174828130E+05
 SKALA_GPW| Active atom-composite tau integral   4.6042287811351150E+02
 SKALA_GPW| Active atom-composite max gradient   5.1965127091322574E+04
    51 OT DIIS     0.10E+00   40.2     0.00001107      -460.8114256147 -1.03E-07
 SKALA_GPW| Atom-composite cross support/maxima   2.179973238379E+00   2.993224071352E+02   9.908263397599E+03   4.644120820804E+04
 SKALA_GPW| Active atom-composite XC energy  -2.8610516196067273E+01
 SKALA_GPW| Active atom-composite electrons   1.7999995137487304E+01
 SKALA_GPW| Active atom-composite density range  -2.5845595819183648E-10   1.5538042860660428E+03
 SKALA_GPW| Active atom-composite tau range  -3.2126666789186333E-09   2.4358130108508069E+05
 SKALA_GPW| Active atom-composite tau integral   4.6042291394426150E+02
 SKALA_GPW| Active atom-composite max gradient   5.1965123647732129E+04
    52 OT DIIS     0.10E+00   40.2     0.00001010      -460.8114256263 -1.17E-08
 SKALA_GPW| Atom-composite cross support/maxima   2.179973238379E+00   2.993223934173E+02   9.908262039021E+03   4.644120712353E+04
 SKALA_GPW| Active atom-composite XC energy  -2.8610527256184710E+01
 SKALA_GPW| Active atom-composite electrons   1.7999995137494341E+01
 SKALA_GPW| Active atom-composite density range  -2.5847658086587735E-10   1.5538041564987570E+03
 SKALA_GPW| Active atom-composite tau range  -3.2126802024421910E-09   2.4358129769553340E+05
 SKALA_GPW| Active atom-composite tau integral   4.6042302941373583E+02
 SKALA_GPW| Active atom-composite max gradient   5.1965119849596922E+04
    53 OT DIIS     0.10E+00   39.4     0.00000916      -460.8114256462 -1.98E-08
 SKALA_GPW| Atom-composite cross support/maxima   2.179973238379E+00   2.993223954256E+02   9.908260421762E+03   4.644120233170E+04
 SKALA_GPW| Active atom-composite XC energy  -2.8610531061737319E+01
 SKALA_GPW| Active atom-composite electrons   1.7999995137500829E+01
 SKALA_GPW| Active atom-composite density range  -2.5847458475256427E-10   1.5538039830515850E+03
 SKALA_GPW| Active atom-composite tau range  -3.2124898477341417E-09   2.4358127853909190E+05
 SKALA_GPW| Active atom-composite tau integral   4.6042309127245926E+02
 SKALA_GPW| Active atom-composite max gradient   5.1965113650041247E+04
    54 OT DIIS     0.10E+00   39.8     0.00000820      -460.8114256545 -8.32E-09
 SKALA_GPW| Atom-composite cross support/maxima   2.179973238379E+00   2.993223884522E+02   9.908259366935E+03   4.644119803556E+04
 SKALA_GPW| Active atom-composite XC energy  -2.8610528447576112E+01
 SKALA_GPW| Active atom-composite electrons   1.7999995137502847E+01
 SKALA_GPW| Active atom-composite density range  -2.5846697962759442E-10   1.5538038534069710E+03
 SKALA_GPW| Active atom-composite tau range  -3.2123153165092434E-09   2.4358125950678933E+05
 SKALA_GPW| Active atom-composite tau integral   4.6042307327905513E+02
 SKALA_GPW| Active atom-composite max gradient   5.1965108997738927E+04
    55 OT DIIS     0.10E+00   40.1     0.00000761      -460.8114256638 -9.29E-09
 SKALA_GPW| Atom-composite cross support/maxima   2.179973238379E+00   2.993223428380E+02   9.908256061607E+03   4.644118622204E+04
 SKALA_GPW| Active atom-composite XC energy  -2.8610509044830966E+01
 SKALA_GPW| Active atom-composite electrons   1.7999995137504644E+01
 SKALA_GPW| Active atom-composite density range  -2.5842868086784576E-10   1.5538034285246883E+03
 SKALA_GPW| Active atom-composite tau range  -3.2115387026843486E-09   2.4358119723796606E+05
 SKALA_GPW| Active atom-composite tau integral   4.6042293696296235E+02
 SKALA_GPW| Active atom-composite max gradient   5.1965094114854393E+04
    56 OT DIIS     0.10E+00   40.6     0.00000527      -460.8114257034 -3.97E-08
 SKALA_GPW| Atom-composite cross support/maxima   2.179973238379E+00   2.993223337741E+02   9.908255295990E+03   4.644118456258E+04
 SKALA_GPW| Active atom-composite XC energy  -2.8610498350272209E+01
 SKALA_GPW| Active atom-composite electrons   1.7999995137501728E+01
 SKALA_GPW| Active atom-composite density range  -2.5842713254695279E-10   1.5538033725314922E+03
 SKALA_GPW| Active atom-composite tau range  -3.2113140664407914E-09   2.4358120034194255E+05
 SKALA_GPW| Active atom-composite tau integral   4.6042288363074130E+02
 SKALA_GPW| Active atom-composite max gradient   5.1965093144468105E+04
    57 OT DIIS     0.10E+00   40.3     0.00000429      -460.8114257098 -6.39E-09
 SKALA_GPW| Atom-composite cross support/maxima   2.179973238379E+00   2.993223272126E+02   9.908255182392E+03   4.644118490664E+04
 SKALA_GPW| Active atom-composite XC energy  -2.8610494908803943E+01
 SKALA_GPW| Active atom-composite electrons   1.7999995137499916E+01
 SKALA_GPW| Active atom-composite density range  -2.5843310856826695E-10   1.5538033686130036E+03
 SKALA_GPW| Active atom-composite tau range  -3.2113037730746704E-09   2.4358120409290501E+05
 SKALA_GPW| Active atom-composite tau integral   4.6042286573994454E+02
 SKALA_GPW| Active atom-composite max gradient   5.1965093453670212E+04
    58 OT DIIS     0.10E+00   39.7     0.00000404      -460.8114257254 -1.56E-08
 SKALA_GPW| Atom-composite cross support/maxima   2.179973238379E+00   2.993223187904E+02   9.908255198645E+03   4.644118627653E+04
 SKALA_GPW| Active atom-composite XC energy  -2.8610489295136212E+01
 SKALA_GPW| Active atom-composite electrons   1.7999995137496231E+01
 SKALA_GPW| Active atom-composite density range  -2.5844560319935813E-10   1.5538033762418061E+03
 SKALA_GPW| Active atom-composite tau range  -3.2112889169839822E-09   2.4358120844016119E+05
 SKALA_GPW| Active atom-composite tau integral   4.6042283893822895E+02
 SKALA_GPW| Active atom-composite max gradient   5.1965094096250999E+04
    59 OT DIIS     0.10E+00   40.4     0.00000362      -460.8114257379 -1.25E-08
 SKALA_GPW| Atom-composite cross support/maxima   2.179973238379E+00   2.993223266105E+02   9.908255432507E+03   4.644118623807E+04
 SKALA_GPW| Active atom-composite XC energy  -2.8610485690964804E+01
 SKALA_GPW| Active atom-composite electrons   1.7999995137494860E+01
 SKALA_GPW| Active atom-composite density range  -2.5844807423599347E-10   1.5538034040067075E+03
 SKALA_GPW| Active atom-composite tau range  -3.2112133668363026E-09   2.4358120819956288E+05
 SKALA_GPW| Active atom-composite tau integral   4.6042281141461177E+02
 SKALA_GPW| Active atom-composite max gradient   5.1965094757297156E+04
    60 OT DIIS     0.10E+00   39.7     0.00000337      -460.8114257535 -1.56E-08
 SKALA_GPW| Atom-composite cross support/maxima   2.179973238379E+00   2.993223298264E+02   9.908255514566E+03   4.644118503847E+04
 SKALA_GPW| Active atom-composite XC energy  -2.8610483261496448E+01
 SKALA_GPW| Active atom-composite electrons   1.7999995137494864E+01
 SKALA_GPW| Active atom-composite density range  -2.5844926856497763E-10   1.5538034122705869E+03
 SKALA_GPW| Active atom-composite tau range  -3.2111627679982031E-09   2.4358120589846509E+05
 SKALA_GPW| Active atom-composite tau integral   4.6042277621881510E+02
 SKALA_GPW| Active atom-composite max gradient   5.1965094916898699E+04
    61 OT DIIS     0.10E+00   39.5     0.00000318      -460.8114257537 -1.71E-10
 SKALA_GPW| Atom-composite cross support/maxima   2.179973238379E+00   2.993223341981E+02   9.908255623390E+03   4.644118494580E+04
 SKALA_GPW| Active atom-composite XC energy  -2.8610483620464048E+01
 SKALA_GPW| Active atom-composite electrons   1.7999995137495286E+01
 SKALA_GPW| Active atom-composite density range  -2.5845548579736422E-10   1.5538034261477494E+03
 SKALA_GPW| Active atom-composite tau range  -3.2111299467295022E-09   2.4358120583517890E+05
 SKALA_GPW| Active atom-composite tau integral   4.6042277219826440E+02
 SKALA_GPW| Active atom-composite max gradient   5.1965095217950904E+04
    62 OT DIIS     0.10E+00   38.6     0.00000288      -460.8114257567 -3.04E-09
 SKALA_GPW| Atom-composite cross support/maxima   2.179973238379E+00   2.993223413501E+02   9.908255778276E+03   4.644118544293E+04
 SKALA_GPW| Active atom-composite XC energy  -2.8610485965801903E+01
 SKALA_GPW| Active atom-composite electrons   1.7999995137496665E+01
 SKALA_GPW| Active atom-composite density range  -2.5846195034812295E-10   1.5538034491127000E+03
 SKALA_GPW| Active atom-composite tau range  -3.2111334396745713E-09   2.4358120834950279E+05
 SKALA_GPW| Active atom-composite tau integral   4.6042279301812533E+02
 SKALA_GPW| Active atom-composite max gradient   5.1965095840255555E+04
    63 OT DIIS     0.10E+00   41.5     0.00000269      -460.8114257520  4.71E-09
 SKALA_GPW| Atom-composite cross support/maxima   2.179973238379E+00   2.993223564491E+02   9.908256045977E+03   4.644118548738E+04
 SKALA_GPW| Active atom-composite XC energy  -2.8610492275512801E+01
 SKALA_GPW| Active atom-composite electrons   1.7999995137499003E+01
 SKALA_GPW| Active atom-composite density range  -2.5847523473794075E-10   1.5538034906478929E+03
 SKALA_GPW| Active atom-composite tau range  -3.2111705613121696E-09   2.4358121239075315E+05
 SKALA_GPW| Active atom-composite tau integral   4.6042283801543078E+02
 SKALA_GPW| Active atom-composite max gradient   5.1965096977854198E+04
    64 OT DIIS     0.10E+00   39.2     0.00000234      -460.8114257423  9.72E-09
 SKALA_GPW| Atom-composite cross support/maxima   2.179973238379E+00   2.993223573869E+02   9.908255894353E+03   4.644118445350E+04
 SKALA_GPW| Active atom-composite XC energy  -2.8610495318842609E+01
 SKALA_GPW| Active atom-composite electrons   1.7999995137501156E+01
 SKALA_GPW| Active atom-composite density range  -2.5847691377375818E-10   1.5538034668431758E+03
 SKALA_GPW| Active atom-composite tau range  -3.2111580664578800E-09   2.4358120649359046E+05
 SKALA_GPW| Active atom-composite tau integral   4.6042285194526164E+02
 SKALA_GPW| Active atom-composite max gradient   5.1965095900726432E+04
    65 OT DIIS     0.10E+00   38.7     0.00000214      -460.8114257612 -1.90E-08
 SKALA_GPW| Atom-composite cross support/maxima   2.179973238379E+00   2.993223605235E+02   9.908255760322E+03   4.644118369744E+04
 SKALA_GPW| Active atom-composite XC energy  -2.8610497057033886E+01
 SKALA_GPW| Active atom-composite electrons   1.7999995137503070E+01
 SKALA_GPW| Active atom-composite density range  -2.5847552025339269E-10   1.5538034497717529E+03
 SKALA_GPW| Active atom-composite tau range  -3.2111400645168689E-09   2.4358120261723513E+05
 SKALA_GPW| Active atom-composite tau integral   4.6042286254823460E+02
 SKALA_GPW| Active atom-composite max gradient   5.1965095095546923E+04
    66 OT DIIS     0.10E+00   40.7     0.00000200      -460.8114257642 -2.93E-09
 SKALA_GPW| Atom-composite cross support/maxima   2.179973238379E+00   2.993223639074E+02   9.908255482613E+03   4.644118238620E+04
 SKALA_GPW| Active atom-composite XC energy  -2.8610498852794134E+01
 SKALA_GPW| Active atom-composite electrons   1.7999995137504850E+01
 SKALA_GPW| Active atom-composite density range  -2.5847457009522971E-10   1.5538034199462763E+03
 SKALA_GPW| Active atom-composite tau range  -3.2111277181979242E-09   2.4358119806145687E+05
 SKALA_GPW| Active atom-composite tau integral   4.6042287327047262E+02
 SKALA_GPW| Active atom-composite max gradient   5.1965093914162484E+04
    67 OT DIIS     0.10E+00   41.3     0.00000180      -460.8114257571  7.05E-09
 SKALA_GPW| Atom-composite cross support/maxima   2.179973238379E+00   2.993223581579E+02   9.908254955731E+03   4.644118064974E+04
 SKALA_GPW| Active atom-composite XC energy  -2.8610499456270151E+01
 SKALA_GPW| Active atom-composite electrons   1.7999995137506012E+01
 SKALA_GPW| Active atom-composite density range  -2.5848055881570782E-10   1.5538033616526493E+03
 SKALA_GPW| Active atom-composite tau range  -3.2111553624948354E-09   2.4358119219281821E+05
 SKALA_GPW| Active atom-composite tau integral   4.6042287458333305E+02
 SKALA_GPW| Active atom-composite max gradient   5.1965092061049610E+04
    68 OT DIIS     0.10E+00   40.7     0.00000149      -460.8114257688 -1.17E-08
 SKALA_GPW| Atom-composite cross support/maxima   2.179973238379E+00   2.993223573721E+02   9.908254765813E+03   4.644117997185E+04
 SKALA_GPW| Active atom-composite XC energy  -2.8610499056851545E+01
 SKALA_GPW| Active atom-composite electrons   1.7999995137506676E+01
 SKALA_GPW| Active atom-composite density range  -2.5848518106790127E-10   1.5538033403738455E+03
 SKALA_GPW| Active atom-composite tau range  -3.2111685485596004E-09   2.4358118916579999E+05
 SKALA_GPW| Active atom-composite tau integral   4.6042287405528748E+02
 SKALA_GPW| Active atom-composite max gradient   5.1965091294965474E+04
    69 OT DIIS     0.10E+00   38.9     0.00000130      -460.8114257682  5.96E-10
 SKALA_GPW| Atom-composite cross support/maxima   2.179973238379E+00   2.993223567368E+02   9.908254588626E+03   4.644117870553E+04
 SKALA_GPW| Active atom-composite XC energy  -2.8610497006363804E+01
 SKALA_GPW| Active atom-composite electrons   1.7999995137505927E+01
 SKALA_GPW| Active atom-composite density range  -2.5848672901040316E-10   1.5538033201156543E+03
 SKALA_GPW| Active atom-composite tau range  -3.2111546268372524E-09   2.4358118536724785E+05
 SKALA_GPW| Active atom-composite tau integral   4.6042285501575162E+02
 SKALA_GPW| Active atom-composite max gradient   5.1965090586882354E+04
    70 OT DIIS     0.10E+00   40.0     0.00000112      -460.8114257624  5.85E-09
 SKALA_GPW| Atom-composite cross support/maxima   2.179973238379E+00   2.993223556202E+02   9.908254503777E+03   4.644117841738E+04
 SKALA_GPW| Active atom-composite XC energy  -2.8610495978017617E+01
 SKALA_GPW| Active atom-composite electrons   1.7999995137505561E+01
 SKALA_GPW| Active atom-composite density range  -2.5848615326818565E-10   1.5538033101171866E+03
 SKALA_GPW| Active atom-composite tau range  -3.2111397097075167E-09   2.4358118406305238E+05
 SKALA_GPW| Active atom-composite tau integral   4.6042284816051506E+02
 SKALA_GPW| Active atom-composite max gradient   5.1965090255395051E+04
    71 OT DIIS     0.10E+00   40.0     0.00000105      -460.8114257630 -6.86E-10
 SKALA_GPW| Atom-composite cross support/maxima   2.179973238379E+00   2.993223542083E+02   9.908254383803E+03   4.644117843726E+04
 SKALA_GPW| Active atom-composite XC energy  -2.8610494091397364E+01
 SKALA_GPW| Active atom-composite electrons   1.7999995137505511E+01
 SKALA_GPW| Active atom-composite density range  -2.5848515234709129E-10   1.5538032966337353E+03
 SKALA_GPW| Active atom-composite tau range  -3.2111029913000476E-09   2.4358118281440492E+05
 SKALA_GPW| Active atom-composite tau integral   4.6042284163186770E+02
 SKALA_GPW| Active atom-composite max gradient   5.1965089788974234E+04
    72 OT DIIS     0.10E+00   39.6     0.00000093      -460.8114257639 -8.80E-10
 SKALA_GPW| Atom-composite cross support/maxima   2.179973238379E+00   2.993223558651E+02   9.908254414521E+03   4.644117820263E+04
 SKALA_GPW| Active atom-composite XC energy  -2.8610492451951963E+01
 SKALA_GPW| Active atom-composite electrons   1.7999995137505042E+01
 SKALA_GPW| Active atom-composite density range  -2.5848709004785231E-10   1.5538033041720432E+03
 SKALA_GPW| Active atom-composite tau range  -3.2110641396621088E-09   2.4358118388719321E+05
 SKALA_GPW| Active atom-composite tau integral   4.6042283002351485E+02
 SKALA_GPW| Active atom-composite max gradient   5.1965090085363037E+04
    73 OT DIIS     0.10E+00   38.5     0.00000078      -460.8114257598  4.07E-09
 SKALA_GPW| Atom-composite cross support/maxima   2.179973238379E+00   2.993223560156E+02   9.908254447096E+03   4.644117815947E+04
 SKALA_GPW| Active atom-composite XC energy  -2.8610491762106879E+01
 SKALA_GPW| Active atom-composite electrons   1.7999995137505064E+01
 SKALA_GPW| Active atom-composite density range  -2.5848855099800014E-10   1.5538033084346657E+03
 SKALA_GPW| Active atom-composite tau range  -3.2110394676275989E-09   2.4358118418625885E+05
 SKALA_GPW| Active atom-composite tau integral   4.6042282478923028E+02
 SKALA_GPW| Active atom-composite max gradient   5.1965090239352226E+04
    74 OT DIIS     0.10E+00   39.9     0.00000071      -460.8114257764 -1.66E-08
 SKALA_GPW| Atom-composite cross support/maxima   2.179973238379E+00   2.993223571204E+02   9.908254487644E+03   4.644117827160E+04
 SKALA_GPW| Active atom-composite XC energy  -2.8610491609896119E+01
 SKALA_GPW| Active atom-composite electrons   1.7999995137504936E+01
 SKALA_GPW| Active atom-composite density range  -2.5848936082043485E-10   1.5538033128287054E+03
 SKALA_GPW| Active atom-composite tau range  -3.2110169836898188E-09   2.4358118419517187E+05
 SKALA_GPW| Active atom-composite tau integral   4.6042282547258259E+02
 SKALA_GPW| Active atom-composite max gradient   5.1965090329975450E+04
    75 OT DIIS     0.10E+00   39.4     0.00000064      -460.8114257628  1.36E-08
 SKALA_GPW| Atom-composite cross support/maxima   2.179973238379E+00   2.993223625848E+02   9.908254566482E+03   4.644117835603E+04
 SKALA_GPW| Active atom-composite XC energy  -2.8610492290113203E+01
 SKALA_GPW| Active atom-composite electrons   1.7999995137505184E+01
 SKALA_GPW| Active atom-composite density range  -2.5848926469610412E-10   1.5538033237273100E+03
 SKALA_GPW| Active atom-composite tau range  -3.2109717689973032E-09   2.4358118434324206E+05
 SKALA_GPW| Active atom-composite tau integral   4.6042283296658769E+02
 SKALA_GPW| Active atom-composite max gradient   5.1965090514977273E+04
    76 OT DIIS     0.10E+00   40.4     0.00000050      -460.8114257701 -7.25E-09
 SKALA_GPW| Atom-composite cross support/maxima   2.179973238379E+00   2.993223630091E+02   9.908254547486E+03   4.644117820044E+04
 SKALA_GPW| Active atom-composite XC energy  -2.8610492689946600E+01
 SKALA_GPW| Active atom-composite electrons   1.7999995137506282E+01
 SKALA_GPW| Active atom-composite density range  -2.5848948646177531E-10   1.5538033226233972E+03
 SKALA_GPW| Active atom-composite tau range  -3.2109604869943120E-09   2.4358118429046616E+05
 SKALA_GPW| Active atom-composite tau integral   4.6042283407171789E+02
 SKALA_GPW| Active atom-composite max gradient   5.1965090482707979E+04
    77 OT DIIS     0.10E+00   41.7     0.00000044      -460.8114257731 -3.08E-09
 SKALA_GPW| Atom-composite cross support/maxima   2.179973238379E+00   2.993223630024E+02   9.908254531683E+03   4.644117820067E+04
 SKALA_GPW| Active atom-composite XC energy  -2.8610493213395589E+01
 SKALA_GPW| Active atom-composite electrons   1.7999995137506140E+01
 SKALA_GPW| Active atom-composite density range  -2.5849050791554477E-10   1.5538033211633544E+03
 SKALA_GPW| Active atom-composite tau range  -3.2109619040912391E-09   2.4358118423981578E+05
 SKALA_GPW| Active atom-composite tau integral   4.6042283760249160E+02
 SKALA_GPW| Active atom-composite max gradient   5.1965090430511635E+04
    78 OT DIIS     0.10E+00   38.8     0.00000040      -460.8114257715  1.59E-09
 SKALA_GPW| Atom-composite cross support/maxima   2.179973238379E+00   2.993223633958E+02   9.908254532316E+03   4.644117814815E+04
 SKALA_GPW| Active atom-composite XC energy  -2.8610493581889237E+01
 SKALA_GPW| Active atom-composite electrons   1.7999995137506115E+01
 SKALA_GPW| Active atom-composite density range  -2.5849122572004566E-10   1.5538033214180664E+03
 SKALA_GPW| Active atom-composite tau range  -3.2109670175013307E-09   2.4358118414518508E+05
 SKALA_GPW| Active atom-composite tau integral   4.6042283939654021E+02
 SKALA_GPW| Active atom-composite max gradient   5.1965090426850227E+04
    79 OT DIIS     0.10E+00   43.2     0.00000037      -460.8114257717 -2.00E-10
 SKALA_GPW| Atom-composite cross support/maxima   2.179973238379E+00   2.993223636667E+02   9.908254517149E+03   4.644117794030E+04
 SKALA_GPW| Active atom-composite XC energy  -2.8610494000240983E+01
 SKALA_GPW| Active atom-composite electrons   1.7999995137506641E+01
 SKALA_GPW| Active atom-composite density range  -2.5849183977610824E-10   1.5538033197591919E+03
 SKALA_GPW| Active atom-composite tau range  -3.2109756411533607E-09   2.4358118369460848E+05
 SKALA_GPW| Active atom-composite tau integral   4.6042283998942531E+02
 SKALA_GPW| Active atom-composite max gradient   5.1965090363205192E+04
    80 OT DIIS     0.10E+00   39.0     0.00000034      -460.8114257639  7.88E-09
 SKALA_GPW| Atom-composite cross support/maxima   2.179973238379E+00   2.993223631339E+02   9.908254446609E+03   4.644117780057E+04
 SKALA_GPW| Active atom-composite XC energy  -2.8610494339340267E+01
 SKALA_GPW| Active atom-composite electrons   1.7999995137506890E+01
 SKALA_GPW| Active atom-composite density range  -2.5849166981243695E-10   1.5538033106296361E+03
 SKALA_GPW| Active atom-composite tau range  -3.2109873287905029E-09   2.4358118240632056E+05
 SKALA_GPW| Active atom-composite tau integral   4.6042284253342683E+02
 SKALA_GPW| Active atom-composite max gradient   5.1965090021633325E+04
    81 OT DIIS     0.10E+00   40.2     0.00000028      -460.8114257594  4.41E-09
 SKALA_GPW| Atom-composite cross support/maxima   2.179973238379E+00   2.993223629756E+02   9.908254418207E+03   4.644117769659E+04
 SKALA_GPW| Active atom-composite XC energy  -2.8610494364878438E+01
 SKALA_GPW| Active atom-composite electrons   1.7999995137506712E+01
 SKALA_GPW| Active atom-composite density range  -2.5849156731272828E-10   1.5538033072282908E+03
 SKALA_GPW| Active atom-composite tau range  -3.2109944102458454E-09   2.4358118194391139E+05
 SKALA_GPW| Active atom-composite tau integral   4.6042284217313414E+02
 SKALA_GPW| Active atom-composite max gradient   5.1965089901493091E+04
    82 OT DIIS     0.10E+00   38.5     0.00000026      -460.8114257620 -2.53E-09
 SKALA_GPW| Atom-composite cross support/maxima   2.179973238379E+00   2.993223623729E+02   9.908254390835E+03   4.644117754871E+04
 SKALA_GPW| Active atom-composite XC energy  -2.8610494218467707E+01
 SKALA_GPW| Active atom-composite electrons   1.7999995137507451E+01
 SKALA_GPW| Active atom-composite density range  -2.5849166659099658E-10   1.5538033041012359E+03
 SKALA_GPW| Active atom-composite tau range  -3.2110022885972752E-09   2.4358118163949126E+05
 SKALA_GPW| Active atom-composite tau integral   4.6042283980765944E+02
 SKALA_GPW| Active atom-composite max gradient   5.1965089819182613E+04
    83 OT DIIS     0.10E+00   39.3     0.00000023      -460.8114257602  1.77E-09
 SKALA_GPW| Atom-composite cross support/maxima   2.179973238379E+00   2.993223615535E+02   9.908254368423E+03   4.644117748528E+04
 SKALA_GPW| Active atom-composite XC energy  -2.8610494013499679E+01
 SKALA_GPW| Active atom-composite electrons   1.7999995137506886E+01
 SKALA_GPW| Active atom-composite density range  -2.5849176521698623E-10   1.5538033012009573E+03
 SKALA_GPW| Active atom-composite tau range  -3.2110060401744969E-09   2.4358118139489627E+05
 SKALA_GPW| Active atom-composite tau integral   4.6042283815331712E+02
 SKALA_GPW| Active atom-composite max gradient   5.1965089742946468E+04
    84 OT DIIS     0.10E+00   39.1     0.00000021      -460.8114257654 -5.14E-09
 SKALA_GPW| Atom-composite cross support/maxima   2.179973238379E+00   2.993223618542E+02   9.908254369941E+03   4.644117750658E+04
 SKALA_GPW| Active atom-composite XC energy  -2.8610493830693517E+01
 SKALA_GPW| Active atom-composite electrons   1.7999995137506847E+01
 SKALA_GPW| Active atom-composite density range  -2.5849163648213979E-10   1.5538033011873085E+03
 SKALA_GPW| Active atom-composite tau range  -3.2110032701891341E-09   2.4358118126758572E+05
 SKALA_GPW| Active atom-composite tau integral   4.6042283817211552E+02
 SKALA_GPW| Active atom-composite max gradient   5.1965089722818921E+04
    85 OT DIIS     0.10E+00   39.7     0.00000019      -460.8114257503  1.50E-08
 SKALA_GPW| Atom-composite cross support/maxima   2.179973238379E+00   2.993223621224E+02   9.908254372057E+03   4.644117746583E+04
 SKALA_GPW| Active atom-composite XC energy  -2.8610493645923924E+01
 SKALA_GPW| Active atom-composite electrons   1.7999995137506872E+01
 SKALA_GPW| Active atom-composite density range  -2.5849138956146983E-10   1.5538033015440185E+03
 SKALA_GPW| Active atom-composite tau range  -3.2109976262790477E-09   2.4358118121983012E+05
 SKALA_GPW| Active atom-composite tau integral   4.6042283696956650E+02
 SKALA_GPW| Active atom-composite max gradient   5.1965089728512139E+04
    86 OT DIIS     0.10E+00   40.1     0.00000018      -460.8114257526 -2.31E-09
 SKALA_GPW| Atom-composite cross support/maxima   2.179973238379E+00   2.993223621320E+02   9.908254371745E+03   4.644117746542E+04
 SKALA_GPW| Active atom-composite XC energy  -2.8610493439578548E+01
 SKALA_GPW| Active atom-composite electrons   1.7999995137506961E+01
 SKALA_GPW| Active atom-composite density range  -2.5849117071975321E-10   1.5538033015708479E+03
 SKALA_GPW| Active atom-composite tau range  -3.2109916791580690E-09   2.4358118122817576E+05
 SKALA_GPW| Active atom-composite tau integral   4.6042283594271407E+02
 SKALA_GPW| Active atom-composite max gradient   5.1965089729243598E+04
    87 OT DIIS     0.10E+00   38.9     0.00000017      -460.8114257572 -4.59E-09
 SKALA_GPW| Atom-composite cross support/maxima   2.179973238379E+00   2.993223622824E+02   9.908254377167E+03   4.644117751105E+04
 SKALA_GPW| Active atom-composite XC energy  -2.8610493359327769E+01
 SKALA_GPW| Active atom-composite electrons   1.7999995137506684E+01
 SKALA_GPW| Active atom-composite density range  -2.5849119941613293E-10   1.5538033022541081E+03
 SKALA_GPW| Active atom-composite tau range  -3.2109880854159700E-09   2.4358118130996506E+05
 SKALA_GPW| Active atom-composite tau integral   4.6042283611672400E+02
 SKALA_GPW| Active atom-composite max gradient   5.1965089745852150E+04
    88 OT DIIS     0.10E+00   40.3     0.00000016      -460.8114257582 -9.92E-10
 SKALA_GPW| Atom-composite cross support/maxima   2.179973238379E+00   2.993223630510E+02   9.908254404310E+03   4.644117751849E+04
 SKALA_GPW| Active atom-composite XC energy  -2.8610493242506514E+01
 SKALA_GPW| Active atom-composite electrons   1.7999995137507018E+01
 SKALA_GPW| Active atom-composite density range  -2.5849203753863206E-10   1.5538033063704236E+03
 SKALA_GPW| Active atom-composite tau range  -3.2109792130926608E-09   2.4358118177389313E+05
 SKALA_GPW| Active atom-composite tau integral   4.6042283535849981E+02
 SKALA_GPW| Active atom-composite max gradient   5.1965089884686604E+04
    89 OT DIIS     0.10E+00   38.8     0.00000012      -460.8114257651 -6.87E-09
 SKALA_GPW| Atom-composite cross support/maxima   2.179973238379E+00   2.993223633273E+02   9.908254408583E+03   4.644117752578E+04
 SKALA_GPW| Active atom-composite XC energy  -2.8610493269826829E+01
 SKALA_GPW| Active atom-composite electrons   1.7999995137507042E+01
 SKALA_GPW| Active atom-composite density range  -2.5849227279681933E-10   1.5538033071074767E+03
 SKALA_GPW| Active atom-composite tau range  -3.2109727193439066E-09   2.4358118182995397E+05
 SKALA_GPW| Active atom-composite tau integral   4.6042283587739792E+02
 SKALA_GPW| Active atom-composite max gradient   5.1965089902486805E+04
    90 OT DIIS     0.10E+00   39.6     0.00000010      -460.8114257688 -3.71E-09
 SKALA_GPW| Atom-composite cross support/maxima   2.179973238379E+00   2.993223634608E+02   9.908254406835E+03   4.644117752141E+04
 SKALA_GPW| Active atom-composite XC energy  -2.8610493302950708E+01
 SKALA_GPW| Active atom-composite electrons   1.7999995137506879E+01
 SKALA_GPW| Active atom-composite density range  -2.5849225490768304E-10   1.5538033068794916E+03
 SKALA_GPW| Active atom-composite tau range  -3.2109704882790640E-09   2.4358118174952851E+05
 SKALA_GPW| Active atom-composite tau integral   4.6042283627729205E+02
 SKALA_GPW| Active atom-composite max gradient   5.1965089886032569E+04
    91 OT DIIS     0.10E+00   39.5     0.00000009      -460.8114257661  2.71E-09

  *** SCF run converged in    91 steps ***


  Electronic density on regular grids:        -10.1902107482        7.8097892518
  Core density on regular grids:               18.0000000000        0.0000000000
  Hard and soft densities (Lebedev):          -33.8447330047      -26.0349437527
  Total Rho_soft + Rho1_hard - Rho1_soft      -18.0000000002
  Total charge density (r-space):              -0.0000000002
  Total Rho_soft + Rho0_soft (g-space):        -0.0000000005

  Overlap energy of the core charge distribution:               0.00000091501599
  Self energy of the core charge distribution:               -200.25290035557865
  Core Hamiltonian energy:                                   -265.22278976155616
  Hartree energy:                                              68.56347246470118
  Exchange-correlation energy:                                  0.00000000000000
  Dispersion energy:                                           -0.00056203708285

  GAPW| Exc from hard and soft atomic rho1:                   -28.61049330295071
  GAPW| local Eh = 1 center integrals:                        -35.28815368864345

  Total energy:                                              -460.81142576609460

  outer SCF iter =    1 RMS gradient =   0.93E-07 energy =       -460.8114257661
  outer SCF loop converged in   1 iterations or   91 steps


 !-----------------------------------------------------------------------------!
                     Mulliken Population Analysis

 #  Atom  Element  Kind  Atomic population                           Net charge
       1     Cl       1         17.271411                             -0.271411
       2     H        2          0.728589                              0.271411
 # Total charge                             18.000000                 -0.000000

 !-----------------------------------------------------------------------------!

 !-----------------------------------------------------------------------------!
                           Hirshfeld Charges

  #Atom  Element  Kind  Ref Charge     Population                    Net charge
      1       Cl     1      17.000         17.656                        -0.656
      2       H      2       1.000          0.343                         0.657

  Total Charge                                                            0.000
 !-----------------------------------------------------------------------------!

 ENERGY| Total FORCE_EVAL ( QS ) energy [hartree]           -460.811425766094601

 -------------------------------------------------------------------------------
 -                                                                             -
 -                                DBCSR STATISTICS                             -
 -                                                                             -
 -------------------------------------------------------------------------------
 COUNTER                                    TOTAL       BLAS       SMM       ACC
 flops    14 x    14 x     9               324576     100.0%      0.0%      0.0%     
 flops    14 x     9 x    14               687960     100.0%      0.0%      0.0%     
 flops    14 x    42 x     9               973728     100.0%      0.0%      0.0%     
 flops    14 x     9 x     9              1034208     100.0%      0.0%      0.0%     
 flops     9 x     9 x     9              1185354     100.0%      0.0%      0.0%     
 flops    42 x     9 x    14              2063880     100.0%      0.0%      0.0%     
 flops    14 x     9 x    42              2063880     100.0%      0.0%      0.0%     
 flops    14 x     9 x    56              2596608     100.0%      0.0%      0.0%     
 flops    42 x    42 x     9              2921184     100.0%      0.0%      0.0%     
 flops    42 x     9 x     9              3102624     100.0%      0.0%      0.0%     
 flops     9 x     9 x    56              3311280     100.0%      0.0%      0.0%     
 flops    42 x     9 x    42              6191640     100.0%      0.0%      0.0%     
 flops    42 x     9 x    56              7789824     100.0%      0.0%      0.0%     
 flops inhomo. stacks                           0       0.0%      0.0%      0.0%
 flops total                        34.246746E+06     100.0%      0.0%      0.0%
 flops max/rank                     34.246746E+06     100.0%      0.0%      0.0%
 matmuls inhomo. stacks                         0       0.0%      0.0%      0.0%
 matmuls total                               3514     100.0%      0.0%      0.0%
 number of processed stacks                  3514     100.0%      0.0%      0.0%
 average stack size                                     1.0       0.0       0.0
 marketing flops                    35.229472E+06
 -------------------------------------------------------------------------------
 # multiplications                           2106
 max memory usage/rank              61.960282E+09
 # max total images/rank                        1
 # max 3D layers                                1
 # MPI messages exchanged                       0
 -------------------------------------------------------------------------------

 -------------------------------------------------------------------------------
 -                                                                             -
 -                                GRID STATISTICS                              -
 -                                                                             -
 -------------------------------------------------------------------------------
 LP    KERNEL             BACKEND                              COUNT     PERCENT
 6     collocate ortho    CPU                                   2944      16.41%
 6     integrate ortho    CPU                                   2912      16.23%
 4     collocate ortho    CPU                                   1472       8.21%
 5     collocate ortho    CPU                                   1472       8.21%
 7     collocate ortho    CPU                                   1472       8.21%
 8     collocate ortho    CPU                                   1472       8.21%
 4     integrate ortho    CPU                                   1456       8.12%
 5     integrate ortho    CPU                                   1456       8.12%
 7     integrate ortho    CPU                                   1456       8.12%
 8     integrate ortho    CPU                                   1456       8.12%
 4     collocate general  CPU                                    182       1.01%
 4     integrate general  CPU                                    182       1.01%
 0     collocate general  CPU                                      4       0.02%
 0     integrate general  CPU                                      2       0.01%
 -------------------------------------------------------------------------------

 -------------------------------------------------------------------------------
 -                                                                             -
 -                          OFFLOAD MEMPOOL STATISTICS                         -
 -                                                                             -
 -------------------------------------------------------------------------------
 Memory consumption                Number of allocations  Used [MiB]  Size [MiB]
 Host                                                  8        1087          58
 -------------------------------------------------------------------------------

 MEMORY| Estimated peak process memory [MiB]                               35829

 -------------------------------------------------------------------------------
 ----                             MULTIGRID INFO                            ----
 -------------------------------------------------------------------------------
 count for grid        1:          36705          cutoff [a.u.]          320.00
 count for grid        2:           9522          cutoff [a.u.]          106.67
 count for grid        3:           4429          cutoff [a.u.]           35.56
 count for grid        4:           1840          cutoff [a.u.]           11.85
 count for grid        5:             85          cutoff [a.u.]            3.95
 total gridlevel count  :          52581

 -------------------------------------------------------------------------------
 -                                                                             -
 -                           R E F E R E N C E S                               -
 -                                                                             -
 -------------------------------------------------------------------------------
 
 CP2K version 2026.2 (Development Version), the CP2K developers group (2026).
 CP2K is freely available from https://www.cp2k.org/ .
 
 M. Iannuzzi, J. Wilhelm, F. Stein, A. Bussy, H. Elgabarty, D. Golze, A. Hehn, 
 M. Graml, S. Marek, B. Sertcan Gökmen, C. Schran, H. Forbert, R. Z. 
 Khaliullin, A. Kozhevnikov, M. Taillefumier, R. Meli, V. V. Rybkin, M. Brehm, 
 R. Schade, O. Schütt, J. V. Pototschnig, H. Mirhosseini, A. Knüpfer, D. Marx, 
 M. Krack, J. Hutter, T. D. Kühne.
 J. Phys. Chem. B 130, 1237-1310 (2026).
 The CP2K Program Package Made Simple.
 https://doi.org/10.1021/acs.jpcb.5c05851

 L. Wittmann, I. Gordiy, M. Friede, B. Helmich-Paris, S. Grimme, A. Hansen, M. 
 Bursch.
 Phys. Chem. Chem. Phys. 26, 21379-21394 (2024).
 Extension of the D3 and D4 London dispersion corrections to the full actinides 
 series.
 https://doi.org/10.1039/d4cp01514b

 T. D. Kühne, M. Iannuzzi, M. Del Ben, V. V. Rybkin, P. Seewald, F. Stein, T. 
 Laino, R. Z. Khaliullin, O. Schütt, F. Schiffmann, D. Golze, J. Wilhelm, S. 
 Chulkov, M. H. Bani-Hashemian, V. Weber, U. Borstnik, M. Taillefumier, A. S. 
 Jakobovits, A. Lazzaro, H. Pabst, T. Müller, R. Schade, M. Guidon, S. 
 Andermatt, N. Holmberg, G. K. Schenter, A. Hehn, A. Bussy, F. Belleflamme, G. 
 Tabacchi, A. Glöß, M. Lass, I. Bethune, C. J. Mundy, C. Plessl, M. Watkins, 
 J. VandeVondele, M. Krack, J. Hutter.
 J. Chem. Phys. 152, 194103 (2020).
 CP2K: An electronic structure and molecular dynamics software package - 
 Quickstep: Efficient and accurate electronic structure calculations.
 https://doi.org/10.1063/5.0007045

 L. Goerigk, A. Hansen, C. Bauer, S. Ehrlich, A. Najibi, S. Grimme.
 Phys. Chem. Chem. Phys. 19, 32184-32215 (2017).
 A look at the density functional theory zoo with the advanced GMTKN55 database 
 for general main group thermochemistry, kinetics and noncovalent interactions.
 https://doi.org/10.1039/C7CP04913G

 O. Schuett, P. Messmer, J. Hutter, J. VandeVondele.
 Electronic Structure Calculations on Graphics Processing Units, 173-190 (2016).
 GPU-Accelerated Sparse Matrix-Matrix Multiplication for Linear Scaling Density 
 Functional Theory.
 https://doi.org/10.1002/9781118670712.ch8

 U. Borstnik, J. VandeVondele, V. Weber, J. Hutter.
 Parallel Comput. 40, 47-58 (2014).
 Sparse matrix multiplication: The distributed block-compressed sparse row 
 library.
 https://doi.org/10.1016/j.parco.2014.03.012

 S. Grimme, S. Ehrlich, L. Goerigk.
 J. Comput. Chem. 32, 1456 (2011).
 Effect of the damping function in dispersion corrected density functional 
 theory.
 https://doi.org/10.1002/jcc.21759

 S. Grimme, J. Antony, S. Ehrlich, H. Krieg.
 J. Chem. Phys. 132, 154104 (2010).
 A consistent and accurate ab initio parametrization of density functional 
 dispersion correction (DFT-D) for the 94 elements H-Pu.
 https://doi.org/10.1063/1.3382344

 J. VandeVondele, J. Hutter.
 J. Chem. Phys. 127, 114105 (2007).
 Gaussian basis sets for accurate calculations on molecular systems in gas and 
 condensed phases.
 https://doi.org/10.1063/1.2770708

 M. Frigo, S. G. Johnson.
 Proc. IEEE 93, 216-231 (2005).
 The design and implementation of FFTW3.
 https://doi.org/10.1109/JPROC.2004.840301

 J. VandeVondele, J. Hutter.
 J. Chem. Phys. 118, 4365-4369 (2003).
 An efficient orbital transformation method for electronic structure 
 calculations.
 https://doi.org/10.1063/1.1543154

 M. Krack, M. Parrinello.
 Phys. Chem. Chem. Phys. 2, 2105-2112 (2000).
 All-electron ab-initio molecular dynamics.
 https://doi.org/10.1039/b001167n

 G. Lippert, J. Hutter, M. Parrinello.
 Theor. Chem. Acc. 103, 124-140 (1999).
 The Gaussian and augmented-plane-wave density functional method for ab initio 
 molecular dynamics simulations.
 https://doi.org/10.1007/s002140050523


 -------------------------------------------------------------------------------
 -                                                                             -
 -                                T I M I N G                                  -
 -                                                                             -
 -------------------------------------------------------------------------------
 SUBROUTINE                       CALLS  ASD         SELF TIME        TOTAL TIME
                                MAXIMUM       AVERAGE  MAXIMUM  AVERAGE  MAXIMUM
 CP2K                                 1  1.0    1.624    1.624 3624.929 3624.929
 qs_energies                          1  2.0    0.000    0.000 3608.973 3608.973
 scf_env_do_scf                       1  3.0    0.000    0.000 3601.540 3601.540
 scf_env_do_scf_inner_loop           91  4.0    0.104    0.104 3563.770 3563.770
 qs_ks_update_qs_env                 92  5.0    0.001    0.001 3020.960 3020.960
 rebuild_ks_matrix                   91  6.0    0.000    0.000 3020.952 3020.952
 qs_ks_build_kohn_sham_matrix        91  7.0    0.029    0.029 3020.952 3020.952
 calculate_vxc_atom                  91  8.0  936.249  936.249 2443.994 2443.994
 fft_wrap_pw1pw2                   2833  9.6    0.077    0.077 1410.777 1410.777
 fft_wrap_pw1pw2_320               1369 10.7  411.808  411.808 1314.918 1314.918
 qs_rho_update_rho_low               92  5.0    0.003    0.003  583.863  583.863
 calculate_rho_elec                 184  6.0   45.771   45.771  583.185  583.185
 xc_pw_derive                       546  9.5    0.009    0.009  549.354  549.354
 fft3d_s                           2834 11.6  516.335  516.335  516.349  516.349
 density_rs2pw                      184  7.0    0.016    0.016  428.139  428.139
 xc_pw_divergence                    91  9.0    0.006    0.006  364.024  364.024
 pw_scatter_s                      1367 12.1  339.629  339.629  339.629  339.629
 sum_up_and_integrate                91  8.0    0.006    0.006  252.724  252.724
 integrate_v_rspace                 182  9.0    0.192    0.192  249.573  249.573
 potential_pw2rs                    182 10.0    2.505    2.505  247.518  247.518
 skala_atom_torch_backward           91  9.0  240.078  240.078  240.078  240.078
 calc_tau_atom                      546  9.0  197.892  197.892  197.892  197.892
 gaVxcgb_GC                         364  9.0  151.337  151.337  151.337  151.337
 skala_atom_torch_forward            91  9.0    0.052    0.052  145.257  145.257
 torch_model_forward_mol_tensor      91 10.0  145.205  145.205  145.205  145.205
 prepare_gapw_den                    91  8.0    0.003    0.003  130.496  130.496
 put_rho0_on_grid                    91  9.0   22.426   22.426  120.943  120.943
 grid_collocate_task_list           184  7.0  109.275  109.275  109.275  109.275
 dgaVtaudgb                         364  9.0  103.160  103.160  103.160  103.160
 pw_poisson_solve                    91  8.0    0.003    0.003   90.976   90.976
 pw_gather_s                       1466 11.1   87.264   87.264   87.264   87.264
 fft_wrap_pw1pw2_110                366 10.5   22.896   22.896   72.902   72.902
 -------------------------------------------------------------------------------

 The number of warnings for this run is : 0
 
 -------------------------------------------------------------------------------
  **** **** ******  **  PROGRAM ENDED AT                 2026-08-25 05:06:40.960
 ***** ** ***  *** **   PROGRAM RAN ON                                    cge015
 **    ****   ******    PROGRAM RAN BY                                  kuehne88
 ***** **    ** ** **   PROGRAM PROCESS ID                               2699438
  **** **  *******  **  PROGRAM STOPPED IN /data/home2/kuehne88/cp2k-native-skal
                                           a/validation-uzh/diet-production-p25/
                                           shared-gapw-ae/621284d5f3ce70544411e2
                                           6ed9009691ff4edf41
