 DBCSR| CPU Multiplication driver                                           BLAS (U)
 DBCSR| Multrec recursion limit                                              512 (U)
 DBCSR| Multiplication stack size                                           1000 (D)
 DBCSR| Maximum elements for images                                    UNLIMITED (U)
 DBCSR| Multiplicative factor virtual images                                   1 (U)
 DBCSR| Use multiplication densification                                       T (D)
 DBCSR| Multiplication size stacks                                             3 (U)
 DBCSR| Use memory pool for CPU allocation                                     F (U)
 DBCSR| Number of 3D layers                                               SINGLE (U)
 DBCSR| Use MPI memory allocation                                              F (U)
 DBCSR| Use RMA algorithm                                                      F (U)
 DBCSR| Use Communication thread                                               T (U)
 DBCSR| Communication thread load                                             15 (D)
 DBCSR| MPI: My process id                                                     0
 DBCSR| MPI: Number of processes                                               1
 DBCSR| OMP: Current number of threads                                        20
 DBCSR| OMP: Max number of threads                                            20
 DBCSR| Split modifier for TAS multiplication algorithm                  1.0E+00 (U)


  **** **** ******  **  PROGRAM STARTED AT               2026-09-01 00:26:56.492
 ***** ** ***  *** **   PROGRAM STARTED ON                                 terok
 **    ****   ******    PROGRAM STARTED BY                              kuehne88
 ***** **    ** ** **   PROGRAM PROCESS ID                                457434
  **** **  *******  **  PROGRAM STARTED IN /home/kuehne88/work/native-skala-tero
                                           k/goldzak12/runs/production/hybrid-di
                                           rect/Si/v10

 CP2K| version string:                 CP2K version 2026.2 (Development Version)
 CP2K| source code revision number:                                   c1bff3eeb8
 CP2K| cp2kflags: omp fftw3 gauxc gauxc_mpi gauxc_onedft gauxc_host parallel sca
 CP2K|            lapack mpi_f08 openblas libtorch libtorch_cuda
 CP2K| is freely available from                            https://www.cp2k.org/
 CP2K| Program compiled at                                   2026-08-24 23:53:18
 CP2K| Program compiled on                                                 terok
 CP2K| Program compiled for                                               x86_64
 CP2K| Data directory path      /home/kuehne88/work/native-skala-terok/cp2k/data
 CP2K| Input file name                                          actual-input.inp

 GLOBAL| Force Environment number                                              1
 GLOBAL| Basis set file name                             BASIS_MOLOPT_UZH_2026.2
 GLOBAL| Potential file name                                POTENTIAL_UZH_2026.2
 GLOBAL| MM Potential file name                                     MM_POTENTIAL
 GLOBAL| Coordinate file name                                      __STD_INPUT__
 GLOBAL| Method name                                                        CP2K
 GLOBAL| Project name                    G12_Si_hybrid-direct_v1p1000000000_k444
 GLOBAL| Run type                                                         ENERGY
 GLOBAL| FFT library                                                       FFTW3
 GLOBAL| Diagonalization library                                       ScaLAPACK
 GLOBAL| Cholesky decomposition library                                ScaLAPACK
 GLOBAL| DGEMM library                                                      BLAS
 GLOBAL| Direct generalized diagonalization requested                          F
 GLOBAL| Orthonormality check for eigenvectors                          DISABLED
 GLOBAL| Matrix multiplication library                                 ScaLAPACK
 GLOBAL| All-to-all communication in single precision                          F
 GLOBAL| FFTs using library dependent lengths                                  F
 GLOBAL| Grid backend                                                       AUTO
 GLOBAL| Global print level                                               MEDIUM
 GLOBAL| MPI I/O enabled                                                       T
 GLOBAL| Total number of message passing processes                             1
 GLOBAL| Number of distributed systems (nodes)                                 1
 GLOBAL| Number of threads for this process                                   20
 GLOBAL| This output is from process                                           0
 GLOBAL| OpenMP stack size per thread (OMP_STACKSIZE)                       512M
 GLOBAL| CPU model name                                       AMD EPYC Processor

 MEMORY| system memory details [Kb]
 MEMORY|                        rank 0           min           max       average
 MEMORY| MemTotal            528104844     528104844     528104844     528104844
 MEMORY| MemFree             325870724     325870724     325870724     325870724
 MEMORY| Buffers                   664           664           664           664
 MEMORY| Cached              145186644     145186644     145186644     145186644
 MEMORY| Slab                 26800408      26800408      26800408      26800408
 MEMORY| SReclaimable         22327752      22327752      22327752      22327752
 MEMORY| MemLikelyFree       493385784     493385784     493385784     493385784


 *** Fundamental physical constants (SI units) ***

 *** Literature: B. J. Mohr and B. N. Taylor,
 ***             CODATA recommended values of the fundamental physical
 ***             constants: 2006, Web Version 5.1
 ***             http://physics.nist.gov/constants

 Speed of light in vacuum [m/s]                             2.99792458000000E+08
 Magnetic constant or permeability of vacuum [N/A**2]       1.25663706143592E-06
 Electric constant or permittivity of vacuum [F/m]          8.85418781762039E-12
 Planck constant (h) [J*s]                                  6.62606896000000E-34
 Planck constant (h-bar) [J*s]                              1.05457162825177E-34
 Elementary charge [C]                                      1.60217648700000E-19
 Electron mass [kg]                                         9.10938215000000E-31
 Electron g factor [ ]                                     -2.00231930436220E+00
 Proton mass [kg]                                           1.67262163700000E-27
 Fine-structure constant                                    7.29735253760000E-03
 Rydberg constant [1/m]                                     1.09737315685270E+07
 Avogadro constant [1/mol]                                  6.02214179000000E+23
 Boltzmann constant [J/K]                                   1.38065040000000E-23
 Atomic mass unit [kg]                                      1.66053878200000E-27
 Bohr radius [m]                                            5.29177208590000E-11

 *** Conversion factors ***

 [u] -> [a.u.]                                              1.82288848426455E+03
 [Angstrom] -> [Bohr] = [a.u.]                              1.88972613288564E+00
 [a.u.] = [Bohr] -> [Angstrom]                              5.29177208590000E-01
 [a.u.] -> [s]                                              2.41888432650478E-17
 [a.u.] -> [fs]                                             2.41888432650478E-02
 [a.u.] -> [J]                                              4.35974393937059E-18
 [a.u.] -> [N]                                              8.23872205491840E-08
 [a.u.] -> [K]                                              3.15774647902944E+05
 [a.u.] -> [kJ/mol]                                         2.62549961709828E+03
 [a.u.] -> [kcal/mol]                                       6.27509468713739E+02
 [a.u.] -> [Pa]                                             2.94210107994716E+13
 [a.u.] -> [bar]                                            2.94210107994716E+08
 [a.u.] -> [atm]                                            2.90362800883016E+08
 [a.u.] -> [eV]                                             2.72113838565563E+01
 [a.u.] -> [Hz]                                             6.57968392072181E+15
 [a.u.] -> [1/cm] (wave numbers)                            2.19474631370540E+05
 [a.u./Bohr**2] -> [1/cm]                                   5.14048714338585E+03
 

 CELL| Volume [angstrom^3]:                                           175.239057
 CELL| Vector a [angstrom]:       5.596     0.000     0.000   |a| =     5.595991
 CELL| Vector b [angstrom]:       0.000     5.596     0.000   |b| =     5.595991
 CELL| Vector c [angstrom]:       0.000     0.000     5.596   |c| =     5.595991
 CELL| Angle (b,c), alpha [degree]:                                    90.000000
 CELL| Angle (a,c), beta  [degree]:                                    90.000000
 CELL| Angle (a,b), gamma [degree]:                                    90.000000
 CELL| Numerically orthorhombic:                                             YES
 CELL| Periodicity                                                           XYZ

 CELL_REF| Volume [angstrom^3]:                                       175.239057
 CELL_REF| Vector a [angstrom     5.596     0.000     0.000   |a| =     5.595991
 CELL_REF| Vector b [angstrom     0.000     5.596     0.000   |b| =     5.595991
 CELL_REF| Vector c [angstrom     0.000     0.000     5.596   |c| =     5.595991
 CELL_REF| Angle (b,c), alpha [degree]:                                90.000000
 CELL_REF| Angle (a,c), beta  [degree]:                                90.000000
 CELL_REF| Angle (a,b), gamma [degree]:                                90.000000
 CELL_REF| Numerically orthorhombic:                                         YES
 CELL_REF| Periodicity                                                       XYZ

 GENERATE|  Preliminary Number of Bonds generated:                             0
 GENERATE|  Achieved consistency in connectivity generation.

 *** WARNING in cryssym.F:203 :: Symmetry library SPGLIB not available ***


 *******************************************************************************
 *******************************************************************************
 **                                                                           **
 **     #####                         ##              ##                      **
 **    ##   ##            ##          ##              ##                      **
 **   ##     ##                       ##            ######                    **
 **   ##     ##  ##   ##  ##   #####  ##  ##   ####   ##    #####    #####    **
 **   ##     ##  ##   ##  ##  ##      ## ##   ##      ##   ##   ##  ##   ##   **
 **   ##  ## ##  ##   ##  ##  ##      ####     ###    ##   ######   ######    **
 **    ##  ###   ##   ##  ##  ##      ## ##      ##   ##   ##       ##        **
 **     #######   #####   ##   #####  ##  ##  ####    ##    #####   ##        **
 **           ##                                                    ##        **
 **                                                                           **
 **                                                ... make the atoms dance   **
 **                                                                           **
 **            Copyright (C) by CP2K developers group (2000-2026)             **
 **                      J. Chem. Phys. 152, 194103 (2020)                    **
 **                                                                           **
 *******************************************************************************

 DFT| Spin restricted Kohn-Sham (RKS) calculation                            RKS
 DFT| Multiplicity                                                             1
 DFT| Number of spin states                                                    1
 DFT| Charge                                                                   0
 DFT| Self-interaction correction (SIC)                                       NO
 DFT| Cutoffs: density                                              1.000000E-10
 DFT|          gradient                                             1.000000E-10
 DFT|          tau                                                  1.000000E-10
 DFT|          cutoff_smoothing_range                               0.000000E+00
 DFT| XC density smoothing                                                  NONE
 DFT| XC derivatives                                                          PW

 FUNCTIONAL| GAUXC:
 FUNCTIONAL| Functional computed by GauXC Skala model SKALA                     

 vdW POTENTIAL|                                                   Pair Potential
 vdW POTENTIAL|          DFT-D3 (Version 3.1)
 vdW POTENTIAL|          Potential Form: S. Grimme et al, JCP 132: 154104 (2010)
 vdW POTENTIAL|          BJ Damping: S. Grimme et al, JCC 32: 1456 (2011)
 vdW POTENTIAL|          Cutoff Radius [Bohr]:                             37.79
 vdW POTENTIAL|          s6 Scaling Factor:                               1.0000
 vdW POTENTIAL|          a1 Damping Factor:                               0.3981
 vdW POTENTIAL|          s8 Scaling Factor:                               1.9889
 vdW POTENTIAL|          a2 Damping Factor:                               4.4211
 vdW POTENTIAL|          Cutoff for CN calculation:                   0.1000E-05

 QS| Method:                                                                GAPW
 QS| Density plane wave grid type                        NON-SPHERICAL FULLSPACE
 QS| Number of grid levels:                                                    5
 QS| Density cutoff [a.u.]:                                                400.0
 QS| Multi grid cutoff [a.u.]: 1) grid level                               400.0
 QS|                           2) grid level                               133.3
 QS|                           3) grid level                                44.4
 QS|                           4) grid level                                14.8
 QS|                           5) grid level                                 4.9
 QS| Grid level progression factor:                                          3.0
 QS| Relative density cutoff [a.u.]:                                        30.0
 QS| Interaction thresholds: eps_pgf_orb:                                1.0E-06
 QS|                         eps_filter_matrix:                          0.0E+00
 QS|                         eps_core_charge:                            1.0E-14
 QS|                         eps_rho_gspace:                             1.0E-12
 QS|                         eps_rho_rspace:                             1.0E-12
 QS|                         eps_gvg_rspace:                             1.0E-06
 QS|                         eps_ppl:                                    1.0E-02
 QS|                         eps_ppnl:                                   1.0E-08
 QS| GAPW|      XC integration using accurate scheme: Ref. exponent     6.000000
 QS| GAPW|      One center basis extended with primitives (small:s)
 QS| GAPW|                   eps_fit:                                    1.0E-04
 QS| GAPW|                   eps_iso:                                    1.0E-12
 QS| GAPW|                   eps_svd:                                    1.0E-08
 QS| GAPW|                   eps_cpc:                                    1.0E-12
 QS| GAPW|   atom-r-grid: quadrature:                                     GC_LOG
 QS| GAPW|      atom-s-grid:  max l :                                          6
 QS| GAPW|      max_l_rho0 :                                                   4
 QS| GAPW|      At least one kind is NOT PAW, i.e. it has only soft AO 
 QS| GAPW|      The NOT PAW atoms are treated fully GPW


 ATOMIC KIND INFORMATION

  1. Atomic kind: Si                                    Number of atoms:       8

     Orbital Basis Set                                   TZV2P-MOLOPT-PBE-GTH-q4

       Number of orbital shell sets:                                           1
       Number of orbital shells:                                               9
       Number of primitive Cartesian functions:                                4
       Number of Cartesian basis functions:                                   34
       Number of spherical basis functions:                                   29
       Norm type:                                                              2

       Normalised Cartesian orbitals:

                        Set   Shell   Orbital            Exponent    Coefficient

                          1       1    2s                1.225726       0.396008
                                                         0.420991      -0.156102
                                                         0.169524      -0.164194
                                                         0.047522       0.001359

                          1       2    3s                1.225726      -0.314955
                                                         0.420991       0.115254
                                                         0.169524      -0.070030
                                                         0.047522      -0.053096

                          1       3    4s                1.225726      -0.770932
                                                         0.420991       0.139640
                                                         0.169524      -0.125600
                                                         0.047522       0.070994

                          1       4    3px               1.225726       0.193725
                                                         0.420991      -0.297086
                                                         0.169524      -0.078660
                                                         0.047522       0.000093
                          1       4    3py               1.225726       0.193725
                                                         0.420991      -0.297086
                                                         0.169524      -0.078660
                                                         0.047522       0.000093
                          1       4    3pz               1.225726       0.193725
                                                         0.420991      -0.297086
                                                         0.169524      -0.078660
                                                         0.047522       0.000093

                          1       5    4px               1.225726       0.165208
                                                         0.420991      -0.261223
                                                         0.169524       0.105025
                                                         0.047522       0.021509
                          1       5    4py               1.225726       0.165208
                                                         0.420991      -0.261223
                                                         0.169524       0.105025
                                                         0.047522       0.021509
                          1       5    4pz               1.225726       0.165208
                                                         0.420991      -0.261223
                                                         0.169524       0.105025
                                                         0.047522       0.021509

                          1       6    5px               1.225726      -1.548058
                                                         0.420991       0.146763
                                                         0.169524      -0.083355
                                                         0.047522       0.028085
                          1       6    5py               1.225726      -1.548058
                                                         0.420991       0.146763
                                                         0.169524      -0.083355
                                                         0.047522       0.028085
                          1       6    5pz               1.225726      -1.548058
                                                         0.420991       0.146763
                                                         0.169524      -0.083355
                                                         0.047522       0.028085

                          1       7    4dx2              1.225726       0.452920
                                                         0.420991       0.207665
                                                         0.169524       0.027528
                                                         0.047522       0.000294
                          1       7    4dxy              1.225726       0.784480
                                                         0.420991       0.359686
                                                         0.169524       0.047680
                                                         0.047522       0.000509
                          1       7    4dxz              1.225726       0.784480
                                                         0.420991       0.359686
                                                         0.169524       0.047680
                                                         0.047522       0.000509
                          1       7    4dy2              1.225726       0.452920
                                                         0.420991       0.207665
                                                         0.169524       0.027528
                                                         0.047522       0.000294
                          1       7    4dyz              1.225726       0.784480
                                                         0.420991       0.359686
                                                         0.169524       0.047680
                                                         0.047522       0.000509
                          1       7    4dz2              1.225726       0.452920
                                                         0.420991       0.207665
                                                         0.169524       0.027528
                                                         0.047522       0.000294

                          1       8    5dx2              1.225726      -2.995584
                                                         0.420991       0.255705
                                                         0.169524      -0.031782
                                                         0.047522       0.000380
                          1       8    5dxy              1.225726      -5.188503
                                                         0.420991       0.442894
                                                         0.169524      -0.055048
                                                         0.047522       0.000659
                          1       8    5dxz              1.225726      -5.188503
                                                         0.420991       0.442894
                                                         0.169524      -0.055048
                                                         0.047522       0.000659
                          1       8    5dy2              1.225726      -2.995584
                                                         0.420991       0.255705
                                                         0.169524      -0.031782
                                                         0.047522       0.000380
                          1       8    5dyz              1.225726      -5.188503
                                                         0.420991       0.442894
                                                         0.169524      -0.055048
                                                         0.047522       0.000659
                          1       8    5dz2              1.225726      -2.995584
                                                         0.420991       0.255705
                                                         0.169524      -0.031782
                                                         0.047522       0.000380

                          1       9    5fx3              1.225726       0.367804
                                                         0.420991       0.134089
                                                         0.169524       0.010284
                                                         0.047522      -0.000037
                          1       9    5fx2y             1.225726       0.822434
                                                         0.420991       0.299833
                                                         0.169524       0.022995
                                                         0.047522      -0.000084
                          1       9    5fx2z             1.225726       0.822434
                                                         0.420991       0.299833
                                                         0.169524       0.022995
                                                         0.047522      -0.000084
                          1       9    5fxy2             1.225726       0.822434
                                                         0.420991       0.299833
                                                         0.169524       0.022995
                                                         0.047522      -0.000084
                          1       9    5fxyz             1.225726       1.424498
                                                         0.420991       0.519326
                                                         0.169524       0.039829
                                                         0.047522      -0.000145
                          1       9    5fxz2             1.225726       0.822434
                                                         0.420991       0.299833
                                                         0.169524       0.022995
                                                         0.047522      -0.000084
                          1       9    5fy3              1.225726       0.367804
                                                         0.420991       0.134089
                                                         0.169524       0.010284
                                                         0.047522      -0.000037
                          1       9    5fy2z             1.225726       0.822434
                                                         0.420991       0.299833
                                                         0.169524       0.022995
                                                         0.047522      -0.000084
                          1       9    5fyz2             1.225726       0.822434
                                                         0.420991       0.299833
                                                         0.169524       0.022995
                                                         0.047522      -0.000084
                          1       9    5fz3              1.225726       0.367804
                                                         0.420991       0.134089
                                                         0.169524       0.010284
                                                         0.047522      -0.000037

       Atomic covalent radius [Angstrom]:                                  1.110

       Atomic van der Waals radius [Angstrom]:                             2.100

     GTH Potential information for                                    GTH-PBE-q4

       Description:                       Goedecker-Teter-Hutter pseudopotential
                                           Goedecker et al., PRB 54, 1703 (1996)
                                          Hartwigsen et al., PRB 58, 3641 (1998)
                                                      Krack, TCA 114, 145 (2005)

       Gaussian exponent of the core charge distribution:               2.582849
       Electronic configuration (s p d ...):                       2   2   0   0

       Parameters of the local part of the GTH pseudopotential:

                          rloc        C1          C2          C3          C4
                        0.439983   -6.269270

       Parameters of the non-local part of the GTH pseudopotential:

                   l      r(l)      h(i,j,l)

                   0    0.435635    8.951852   -2.706271
                                   -2.706271    3.493787
                   1    0.497958    2.431277


 MOLECULE KIND INFORMATION


 All atoms are their own molecule, skipping detailed information


 TOTAL NUMBERS AND MAXIMUM NUMBERS

  Total number of            - Atomic kinds:                                   1
                             - Atoms:                                          8
                             - Shell sets:                                     8
                             - Shells:                                        72
                             - Primitive Cartesian functions:                 32
                             - Cartesian basis functions:                    272
                             - Spherical basis functions:                    232

  Maximum angular momentum of- Orbital basis functions:                        3
                             - Local part of the GTH pseudopotential:          0
                             - Non-local part of the GTH pseudopotential:      2


 MODULE QUICKSTEP: ATOMIC COORDINATES IN ANGSTROM

   Atom Kind Element         X             Y             Z       Z(eff)     Mass
      1    1 Si   14      0.000000      0.000000      0.000000   4.0000  28.0855
      2    1 Si   14      0.000000      2.797995      2.797995   4.0000  28.0855
      3    1 Si   14      2.797995      0.000000      2.797995   4.0000  28.0855
      4    1 Si   14      2.797995      2.797995      0.000000   4.0000  28.0855
      5    1 Si   14      1.398998      1.398998      1.398998   4.0000  28.0855
      6    1 Si   14      1.398998      4.196993      4.196993   4.0000  28.0855
      7    1 Si   14      4.196993      1.398998      4.196993   4.0000  28.0855
      8    1 Si   14      4.196993      4.196993      1.398998   4.0000  28.0855



 SCF PARAMETERS         Density guess:                                    ATOMIC
                        --------------------------------------------------------
                        max_scf:                                             200
                        max_scf_history:                                       0
                        max_diis:                                              4
                        --------------------------------------------------------
                        eps_scf:                                        5.00E-06
                        eps_scf_history:                                0.00E+00
                        eps_diis:                                       1.00E-01
                        eps_eigval:                                     1.00E-05
                        --------------------------------------------------------
                        level_shift [a.u.]:                             0.000000
                        --------------------------------------------------------
                        Mixing method:                           DIRECT_P_MIXING
                        --------------------------------------------------------
                        Outer loop SCF in use 
                        No variables optimised in outer loop
                        eps_scf                                         5.00E-06
                        max_scf                                                5
                        No outer loop optimization
                        step_size                                       5.00E-01

 PW_GRID| Information for grid number                                          1
 PW_GRID| Cutoff [a.u.]                                                    400.0
 PW_GRID| spherical cutoff:                                                   NO
 PW_GRID|   Bounds   1            -48      47                Points:          96
 PW_GRID|   Bounds   2            -48      47                Points:          96
 PW_GRID|   Bounds   3            -48      47                Points:          96
 PW_GRID| Volume element (a.u.^3)  0.1337E-02     Volume (a.u.^3)      1182.5718
 PW_GRID| Grid span                                                    FULLSPACE

 PW_GRID| Information for grid number                                          2
 PW_GRID| Number of the reference grid                                         1
 PW_GRID| Cutoff [a.u.]                                                    133.3
 PW_GRID| spherical cutoff:                                                   NO
 PW_GRID|   Bounds   1            -30      29                Points:          60
 PW_GRID|   Bounds   2            -30      29                Points:          60
 PW_GRID|   Bounds   3            -30      29                Points:          60
 PW_GRID| Volume element (a.u.^3)  0.5475E-02     Volume (a.u.^3)      1182.5718
 PW_GRID| Grid span                                                    FULLSPACE

 PW_GRID| Information for grid number                                          3
 PW_GRID| Number of the reference grid                                         1
 PW_GRID| Cutoff [a.u.]                                                     44.4
 PW_GRID| spherical cutoff:                                                   NO
 PW_GRID|   Bounds   1            -16      15                Points:          32
 PW_GRID|   Bounds   2            -16      15                Points:          32
 PW_GRID|   Bounds   3            -16      15                Points:          32
 PW_GRID| Volume element (a.u.^3)  0.3609E-01     Volume (a.u.^3)      1182.5718
 PW_GRID| Grid span                                                    FULLSPACE

 PW_GRID| Information for grid number                                          4
 PW_GRID| Number of the reference grid                                         1
 PW_GRID| Cutoff [a.u.]                                                     14.8
 PW_GRID| spherical cutoff:                                                   NO
 PW_GRID|   Bounds   1            -10       9                Points:          20
 PW_GRID|   Bounds   2            -10       9                Points:          20
 PW_GRID|   Bounds   3            -10       9                Points:          20
 PW_GRID| Volume element (a.u.^3)  0.1478         Volume (a.u.^3)      1182.5718
 PW_GRID| Grid span                                                    FULLSPACE

 PW_GRID| Information for grid number                                          5
 PW_GRID| Number of the reference grid                                         1
 PW_GRID| Cutoff [a.u.]                                                      4.9
 PW_GRID| spherical cutoff:                                                   NO
 PW_GRID|   Bounds   1             -6       5                Points:          12
 PW_GRID|   Bounds   2             -6       5                Points:          12
 PW_GRID|   Bounds   3             -6       5                Points:          12
 PW_GRID| Volume element (a.u.^3)  0.6844         Volume (a.u.^3)      1182.5718
 PW_GRID| Grid span                                                    FULLSPACE

 POISSON| Solver                                                        PERIODIC
 POISSON| Periodicity                                                        XYZ

 RS_GRID| Information for grid number                                          1
 RS_GRID|   Bounds   1            -48      47                Points:          96
 RS_GRID|   Bounds   2            -48      47                Points:          96
 RS_GRID|   Bounds   3            -48      47                Points:          96

 RS_GRID| Information for grid number                                          2
 RS_GRID|   Bounds   1            -30      29                Points:          60
 RS_GRID|   Bounds   2            -30      29                Points:          60
 RS_GRID|   Bounds   3            -30      29                Points:          60

 RS_GRID| Information for grid number                                          3
 RS_GRID|   Bounds   1            -16      15                Points:          32
 RS_GRID|   Bounds   2            -16      15                Points:          32
 RS_GRID|   Bounds   3            -16      15                Points:          32

 RS_GRID| Information for grid number                                          4
 RS_GRID|   Bounds   1            -10       9                Points:          20
 RS_GRID|   Bounds   2            -10       9                Points:          20
 RS_GRID|   Bounds   3            -10       9                Points:          20

 RS_GRID| Information for grid number                                          5
 RS_GRID|   Bounds   1             -6       5                Points:          12
 RS_GRID|   Bounds   2             -6       5                Points:          12
 RS_GRID|   Bounds   3             -6       5                Points:          12

 *******************************************************************************
                                    Kpoints
 *******************************************************************************
 BRILLOUIN| K-point scheme                                        Monkhorst-Pack
 BRILLOUIN| K-Point grid                                             4    4    4
 BRILLOUIN| Gamma-centered k-point mesh                                     ON
 BRILLOUIN| K-point symmetry accuracy                               0.100000E-07
 BRILLOUIN| K-Point point group symmetrization                                ON
 BRILLOUIN| Symmetry backend                                               K290
 BRILLOUIN| Symmetry reduction method                                      K290
 BRILLOUIN| Wavefunction type                                            COMPLEX
 BRILLOUIN| List of Kpoints [2 Pi/Bohr]                                       10
 BRILLOUIN| Number           Weight            X              Y              Z
 BRILLOUIN|     1           0.12500       -0.25000       -0.25000       -0.25000
 BRILLOUIN|     2           0.18750       -0.25000       -0.25000        0.00000
 BRILLOUIN|     3           0.18750       -0.25000       -0.25000        0.50000
 BRILLOUIN|     4           0.09375       -0.25000        0.00000        0.00000
 BRILLOUIN|     5           0.18750       -0.25000        0.00000        0.50000
 BRILLOUIN|     6           0.09375       -0.25000        0.50000        0.50000
 BRILLOUIN|     7           0.01562        0.00000        0.00000        0.00000
 BRILLOUIN|     8           0.04688        0.00000        0.00000        0.50000
 BRILLOUIN|     9           0.04688        0.00000        0.50000        0.50000
 BRILLOUIN|    10           0.01562        0.50000        0.50000        0.50000
 *******************************************************************************

 Extrapolation method: initial_guess

 Atomic guess: The first density matrix is obtained in terms of atomic orbitals
               and electronic configurations assigned to each atomic kind

 Guess for atomic kind: Si

 Electronic structure
    Total number of core electrons                                         10.00
    Total number of valence electrons                                       4.00
    Total number of electrons                                              14.00
    Multiplicity                                                   not specified
    S   [  2.00  2.00] 2.00
    P   [  6.00] 2.00


 *******************************************************************************
                  Iteration          Convergence                     Energy [au]
 *******************************************************************************
                          1        0.543323E-01                  -3.660143219958
                          2        0.234047E-01                  -3.663009798780
                          3        0.226205E-03                  -3.663777572878
                          4        0.558056E-06                  -3.663777636937

 Energy components [Hartree]           Total Energy ::           -3.663777636937
                                        Band Energy ::           -0.984334993298
                                     Kinetic Energy ::            1.376908294426
                                   Potential Energy ::           -5.040685931362
                                      Virial (-V/T) ::            3.660872660706
                                        Core Energy ::           -5.661357165131
                                          XC Energy ::           -0.978185127227
                                     Coulomb Energy ::            2.975764655422
                       Total Pseudopotential Energy ::           -7.083968923771
                       Local Pseudopotential Energy ::           -7.928832139320
                    Nonlocal Pseudopotential Energy ::            0.844863215548
                                        Confinement ::            0.457034642149

 Orbital energies  State     L     Occupation   Energy[a.u.]          Energy[eV]

                       1     0          2.000      -0.369997          -10.068127

                       1     1          2.000      -0.122171           -3.324432


 Total Electron Density at R=0:                                         0.000005
 Re-scaling the density matrix to get the right number of electrons
                  # Electrons              Trace(P)               Scaling factor
                           32                32.000                        1.000

 Number of electrons:                                                         32
 Number of occupied orbitals:                                                 16
 Number of molecular orbitals:                                                16

 Number of orbital functions:                                                232
 Number of independent orbital functions:                                    232


 SCF WAVEFUNCTION OPTIMIZATION

  Step     Update method      Time    Convergence         Total energy    Change
  ------------------------------------------------------------------------------

 *** WARNING in qs_ks_methods.F:773 :: Native SKALA grid evaluation with   ***
 *** k-points is using the CPU TorchScript path. Use a mutually compatible ***
 *** BLAS, ScaLAPACK, OpenMP, and LibTorch runtime stack, or select        ***
 *** NATIVE_GRID_USE_CUDA T.                                               ***

 SKALA_GPW| Atom-composite cross support/maxima   0.000000000000E+00   0.000000000000E+00   0.000000000000E+00   0.000000000000E+00
 SKALA_GPW| Active atom-composite XC energy  -9.1537756313319107E+00
 SKALA_GPW| Active atom-composite electrons   3.2043709171620364E+01
 SKALA_GPW| Active atom-composite density range   1.5010153610782648E-03   3.2195785240444807E-02
 SKALA_GPW| Active atom-composite tau range   7.0845815341737508E-04   2.8452487722280716E-02
 SKALA_GPW| Active atom-composite tau integral   1.1030942620607549E+01
 SKALA_GPW| Active atom-composite max gradient   4.0507507326184085E-02
     1 P_Mix/Diag. 0.10E+00   83.3     0.31324920       -31.8180005005 -3.18E+01
 SKALA_GPW| Atom-composite cross support/maxima   0.000000000000E+00   0.000000000000E+00   0.000000000000E+00   0.000000000000E+00
 SKALA_GPW| Active atom-composite XC energy  -9.1794693640426850E+00
 SKALA_GPW| Active atom-composite electrons   3.2042688047413037E+01
 SKALA_GPW| Active atom-composite density range   1.3692294255963999E-03   3.3016595618437214E-02
 SKALA_GPW| Active atom-composite tau range   6.9445633795321032E-04   2.8859727178514389E-02
 SKALA_GPW| Active atom-composite tau integral   1.1197551535474707E+01
 SKALA_GPW| Active atom-composite max gradient   4.0551238231344551E-02
     2 P_Mix/Diag. 0.10E+00   55.6     0.30286606       -31.7875311124  3.05E-02
 SKALA_GPW| Atom-composite cross support/maxima   0.000000000000E+00   0.000000000000E+00   0.000000000000E+00   0.000000000000E+00
 SKALA_GPW| Active atom-composite XC energy  -9.2075844656376091E+00
 SKALA_GPW| Active atom-composite electrons   3.2041764606412272E+01
 SKALA_GPW| Active atom-composite density range   1.2509938228935417E-03   3.3831173895718623E-02
 SKALA_GPW| Active atom-composite tau range   6.8121666752866137E-04   2.9233140117009553E-02
 SKALA_GPW| Active atom-composite tau integral   1.1350156888308584E+01
 SKALA_GPW| Active atom-composite max gradient   4.0556554639793248E-02
     3 P_Mix/Diag. 0.10E+00   54.2     0.29108316       -31.7633230227  2.42E-02
 SKALA_GPW| Atom-composite cross support/maxima   0.000000000000E+00   0.000000000000E+00   0.000000000000E+00   0.000000000000E+00
 SKALA_GPW| Active atom-composite XC energy  -9.2371488407844051E+00
 SKALA_GPW| Active atom-composite electrons   3.2040934213165855E+01
 SKALA_GPW| Active atom-composite density range   1.1447992531909230E-03   3.4630357551511712E-02
 SKALA_GPW| Active atom-composite tau range   6.6886026837361095E-04   2.9588835700076796E-02
 SKALA_GPW| Active atom-composite tau integral   1.1489771442425665E+01
 SKALA_GPW| Active atom-composite max gradient   4.0525707493689472E-02
     4 P_Mix/Diag. 0.10E+00   53.3     0.27865296       -31.7440904259  1.92E-02
 SKALA_GPW| Atom-composite cross support/maxima   0.000000000000E+00   0.000000000000E+00   0.000000000000E+00   0.000000000000E+00
 SKALA_GPW| Active atom-composite XC energy  -9.2673191348338939E+00
 SKALA_GPW| Active atom-composite electrons   3.2040193821710339E+01
 SKALA_GPW| Active atom-composite density range   1.0500392544931000E-03   3.5444244748725560E-02
 SKALA_GPW| Active atom-composite tau range   6.5760438555337081E-04   2.9918200630198725E-02
 SKALA_GPW| Active atom-composite tau integral   1.1616830453162564E+01
 SKALA_GPW| Active atom-composite max gradient   4.0464556304963470E-02
     5 P_Mix/Diag. 0.10E+00   59.1     0.26651673       -31.7288960676  1.52E-02
 SKALA_GPW| Atom-composite cross support/maxima   0.000000000000E+00   0.000000000000E+00   0.000000000000E+00   0.000000000000E+00
 SKALA_GPW| Active atom-composite XC energy  -9.2971631954666414E+00
 SKALA_GPW| Active atom-composite electrons   3.2039541385194475E+01
 SKALA_GPW| Active atom-composite density range   9.6663457735544315E-04   3.6213041277430316E-02
 SKALA_GPW| Active atom-composite tau range   6.4761743169575799E-04   3.0223784271472914E-02
 SKALA_GPW| Active atom-composite tau integral   1.1731908131868009E+01
 SKALA_GPW| Active atom-composite max gradient   4.0379445823485023E-02
     6 P_Mix/Diag. 0.10E+00   53.1     0.25477697       -31.7168386065  1.21E-02
 SKALA_GPW| Atom-composite cross support/maxima   0.000000000000E+00   0.000000000000E+00   0.000000000000E+00   0.000000000000E+00
 SKALA_GPW| Active atom-composite XC energy  -9.3250456533774582E+00
 SKALA_GPW| Active atom-composite electrons   3.2038979551983566E+01
 SKALA_GPW| Active atom-composite density range   8.9338586940921770E-04   3.6913504033217921E-02
 SKALA_GPW| Active atom-composite tau range   6.3920089507884278E-04   3.0497235807361783E-02
 SKALA_GPW| Active atom-composite tau integral   1.1834042567438853E+01
 SKALA_GPW| Active atom-composite max gradient   4.0273473486282352E-02
     7 P_Mix/Diag. 0.10E+00   56.8     0.24231325       -31.7067143494  1.01E-02
 SKALA_GPW| Atom-composite cross support/maxima   0.000000000000E+00   0.000000000000E+00   0.000000000000E+00   0.000000000000E+00
 SKALA_GPW| Active atom-composite XC energy  -9.3496401265632993E+00
 SKALA_GPW| Active atom-composite electrons   3.2038508316976554E+01
 SKALA_GPW| Active atom-composite density range   8.2805413625091934E-04   3.7526387016953003E-02
 SKALA_GPW| Active atom-composite tau range   6.3258923031690522E-04   3.0720960615654654E-02
 SKALA_GPW| Active atom-composite tau integral   1.1921906173920650E+01
 SKALA_GPW| Active atom-composite max gradient   4.0153956866395557E-02
     8 P_Mix/Diag. 0.10E+00   54.5     0.22857637       -31.6976817890  9.03E-03
 SKALA_GPW| Atom-composite cross support/maxima   0.000000000000E+00   0.000000000000E+00   0.000000000000E+00   0.000000000000E+00
 SKALA_GPW| Active atom-composite XC energy  -9.3707317289549898E+00
 SKALA_GPW| Active atom-composite electrons   3.2038117951604846E+01
 SKALA_GPW| Active atom-composite density range   7.6883758425788000E-04   3.8060911275730608E-02
 SKALA_GPW| Active atom-composite tau range   6.2766330321674770E-04   3.0891225896518222E-02
 SKALA_GPW| Active atom-composite tau integral   1.1996144347031887E+01
 SKALA_GPW| Active atom-composite max gradient   4.0058935739337796E-02
     9 P_Mix/Diag. 0.10E+00   52.0     0.21381408       -31.6894188305  8.26E-03
 SKALA_GPW| Atom-composite cross support/maxima   0.000000000000E+00   0.000000000000E+00   0.000000000000E+00   0.000000000000E+00
 SKALA_GPW| Active atom-composite XC energy  -9.3886629103584660E+00
 SKALA_GPW| Active atom-composite electrons   3.2037794542471332E+01
 SKALA_GPW| Active atom-composite density range   7.1460079900354759E-04   3.8537237378319940E-02
 SKALA_GPW| Active atom-composite tau range   6.2412170755570841E-04   3.1014138370271900E-02
 SKALA_GPW| Active atom-composite tau integral   1.2058551371343647E+01
 SKALA_GPW| Active atom-composite max gradient   3.9954791347986018E-02
    10 P_Mix/Diag. 0.10E+00   55.4     0.19858800       -31.6817977430  7.62E-03
 SKALA_GPW| Atom-composite cross support/maxima   0.000000000000E+00   0.000000000000E+00   0.000000000000E+00   0.000000000000E+00
 SKALA_GPW| Active atom-composite XC energy  -9.4037604154114423E+00
 SKALA_GPW| Active atom-composite electrons   3.2037525625302671E+01
 SKALA_GPW| Active atom-composite density range   6.6436418432020783E-04   3.8942836854832699E-02
 SKALA_GPW| Active atom-composite tau range   6.2168480575812760E-04   3.1101867707798960E-02
 SKALA_GPW| Active atom-composite tau integral   1.2110768192500032E+01
 SKALA_GPW| Active atom-composite max gradient   3.9845915983707243E-02
    11 P_Mix/Diag. 0.10E+00   59.0     0.18344638       -31.6746807305  7.12E-03
 SKALA_GPW| Atom-composite cross support/maxima   0.000000000000E+00   0.000000000000E+00   0.000000000000E+00   0.000000000000E+00
 SKALA_GPW| Active atom-composite XC energy  -9.4162433310869815E+00
 SKALA_GPW| Active atom-composite electrons   3.2037301587669475E+01
 SKALA_GPW| Active atom-composite density range   6.1701116304697966E-04   3.9284459798074461E-02
 SKALA_GPW| Active atom-composite tau range   6.2015430644164445E-04   3.1159266733775337E-02
 SKALA_GPW| Active atom-composite tau integral   1.2153860157167308E+01
 SKALA_GPW| Active atom-composite max gradient   3.9734540517774919E-02
    12 P_Mix/Diag. 0.10E+00   59.9     0.16897808       -31.6679478841  6.73E-03
 SKALA_GPW| Atom-composite cross support/maxima   0.000000000000E+00   0.000000000000E+00   0.000000000000E+00   0.000000000000E+00
 SKALA_GPW| Active atom-composite XC energy  -9.4263782111864671E+00
 SKALA_GPW| Active atom-composite electrons   3.2037114818311068E+01
 SKALA_GPW| Active atom-composite density range   5.7165445840508505E-04   3.9571596156827475E-02
 SKALA_GPW| Active atom-composite tau range   6.1937108710467521E-04   3.1176159221555536E-02
 SKALA_GPW| Active atom-composite tau integral   1.2188700721032991E+01
 SKALA_GPW| Active atom-composite max gradient   3.9621259175945715E-02
    13 P_Mix/Diag. 0.10E+00   60.0     0.15554555       -31.6615624750  6.39E-03
 SKALA_GPW| Atom-composite cross support/maxima   0.000000000000E+00   0.000000000000E+00   0.000000000000E+00   0.000000000000E+00
 SKALA_GPW| Active atom-composite XC energy  -9.4345075440315576E+00
 SKALA_GPW| Active atom-composite electrons   3.2036958858313085E+01
 SKALA_GPW| Active atom-composite density range   5.2791119092468702E-04   3.9809557181125436E-02
 SKALA_GPW| Active atom-composite tau range   6.1918628647009719E-04   3.1156417088907640E-02
 SKALA_GPW| Active atom-composite tau integral   1.2216259451875953E+01
 SKALA_GPW| Active atom-composite max gradient   3.9506142700256888E-02
    14 P_Mix/Diag. 0.10E+00   57.9     0.14318416       -31.6555404564  6.02E-03
 SKALA_GPW| Atom-composite cross support/maxima   0.000000000000E+00   0.000000000000E+00   0.000000000000E+00   0.000000000000E+00
 SKALA_GPW| Active atom-composite XC energy  -9.4409556042470939E+00
 SKALA_GPW| Active atom-composite electrons   3.2036828449303563E+01
 SKALA_GPW| Active atom-composite density range   4.8568304383706158E-04   4.0003783467098070E-02
 SKALA_GPW| Active atom-composite tau range   6.1947235433667733E-04   3.1104713678352377E-02
 SKALA_GPW| Active atom-composite tau integral   1.2237453836795162E+01
 SKALA_GPW| Active atom-composite max gradient   3.9389055728869811E-02
    15 P_Mix/Diag. 0.10E+00   61.7     0.13178107       -31.6498994142  5.64E-03
 SKALA_GPW| Atom-composite cross support/maxima   0.000000000000E+00   0.000000000000E+00   0.000000000000E+00   0.000000000000E+00
 SKALA_GPW| Active atom-composite XC energy  -9.4460111867411136E+00
 SKALA_GPW| Active atom-composite electrons   3.2036719426650201E+01
 SKALA_GPW| Active atom-composite density range   4.4502673074864557E-04   4.0160278790442150E-02
 SKALA_GPW| Active atom-composite tau range   6.2012591904049574E-04   3.1025522012371357E-02
 SKALA_GPW| Active atom-composite tau integral   1.2253090748143086E+01
 SKALA_GPW| Active atom-composite max gradient   3.9269874578631910E-02
    16 P_Mix/Diag. 0.10E+00   56.2     0.12117604       -31.6446580470  5.24E-03
 SKALA_GPW| Atom-composite cross support/maxima   0.000000000000E+00   0.000000000000E+00   0.000000000000E+00   0.000000000000E+00
 SKALA_GPW| Active atom-composite XC energy  -9.4499582710860945E+00
 SKALA_GPW| Active atom-composite electrons   3.2036628196594521E+01
 SKALA_GPW| Active atom-composite density range   4.0625523512124751E-04   4.0284977310626101E-02
 SKALA_GPW| Active atom-composite tau range   6.2105116408755448E-04   3.0924442384750297E-02
 SKALA_GPW| Active atom-composite tau integral   1.2264040516646451E+01
 SKALA_GPW| Active atom-composite max gradient   3.9149248170663779E-02
    17 P_Mix/Diag. 0.10E+00   60.2     0.11123479       -31.6398364983  4.82E-03
 SKALA_GPW| Atom-composite cross support/maxima   0.000000000000E+00   0.000000000000E+00   0.000000000000E+00   0.000000000000E+00
 SKALA_GPW| Active atom-composite XC energy  -9.4530646189888152E+00
 SKALA_GPW| Active atom-composite electrons   3.2036551531816080E+01
 SKALA_GPW| Active atom-composite density range   3.6978142347922843E-04   4.0384031191778948E-02
 SKALA_GPW| Active atom-composite tau range   6.2215548360022356E-04   3.0808475234969143E-02
 SKALA_GPW| Active atom-composite tau integral   1.2271281040066368E+01
 SKALA_GPW| Active atom-composite max gradient   3.9028860030508206E-02
    18 P_Mix/Diag. 0.10E+00   56.8     0.10188106       -31.6354429346  4.39E-03
 SKALA_GPW| Atom-composite cross support/maxima   0.000000000000E+00   0.000000000000E+00   0.000000000000E+00   0.000000000000E+00
 SKALA_GPW| Active atom-composite XC energy  -9.4555521971720715E+00
 SKALA_GPW| Active atom-composite electrons   3.2036486654748572E+01
 SKALA_GPW| Active atom-composite density range   3.3592504624704308E-04   4.0474513202658158E-02
 SKALA_GPW| Active atom-composite tau range   6.2335733695521205E-04   3.0684771742848876E-02
 SKALA_GPW| Active atom-composite tau integral   1.2275774859703965E+01
 SKALA_GPW| Active atom-composite max gradient   3.8910929237274336E-02
    19 P_Mix/Diag. 0.10E+00   57.9     0.09309459       -31.6314667227  3.98E-03
 SKALA_GPW| Atom-composite cross support/maxima   0.000000000000E+00   0.000000000000E+00   0.000000000000E+00   0.000000000000E+00
 SKALA_GPW| Active atom-composite XC energy  -9.4575861450165188E+00
 SKALA_GPW| Active atom-composite electrons   3.2036431311935132E+01
 SKALA_GPW| Active atom-composite density range   3.0482260008519188E-04   4.0552675436406373E-02
 SKALA_GPW| Active atom-composite tau range   6.2459316248096824E-04   3.0559335043162428E-02
 SKALA_GPW| Active atom-composite tau integral   1.2278340599571660E+01
 SKALA_GPW| Active atom-composite max gradient   3.8797547801066874E-02
    20 DIIS/Diag.  0.22E-02   54.4     0.09419178       -31.6278828003  3.58E-03
 SKALA_GPW| Atom-composite cross support/maxima   0.000000000000E+00   0.000000000000E+00   0.000000000000E+00   0.000000000000E+00
 SKALA_GPW| Active atom-composite XC energy  -9.4730520722559017E+00
 SKALA_GPW| Active atom-composite electrons   3.2035994170659293E+01
 SKALA_GPW| Active atom-composite density range   1.6043761621241083E-05   4.1135577421920741E-02
 SKALA_GPW| Active atom-composite tau range   6.3879496312450673E-04   2.9168299122424381E-02
 SKALA_GPW| Active atom-composite tau integral   1.2273526397395145E+01
 SKALA_GPW| Active atom-composite max gradient   3.7632509233660696E-02
    21 DIIS/Diag.  0.84E-02   55.7     0.00201188       -31.5959955132  3.19E-02
 SKALA_GPW| Atom-composite cross support/maxima   0.000000000000E+00   0.000000000000E+00   0.000000000000E+00   0.000000000000E+00
 SKALA_GPW| Active atom-composite XC energy  -9.4725250264609961E+00
 SKALA_GPW| Active atom-composite electrons   3.2036000768543850E+01
 SKALA_GPW| Active atom-composite density range   1.4996694229765000E-05   4.1114761340534677E-02
 SKALA_GPW| Active atom-composite tau range   6.3913031601644361E-04   2.9129522849530316E-02
 SKALA_GPW| Active atom-composite tau integral   1.2269712017643485E+01
 SKALA_GPW| Active atom-composite max gradient   3.7614528564076447E-02
    22 DIIS/Diag.  0.14E-02   52.0     0.00049114       -31.5960135660 -1.81E-05
 SKALA_GPW| Atom-composite cross support/maxima   0.000000000000E+00   0.000000000000E+00   0.000000000000E+00   0.000000000000E+00
 SKALA_GPW| Active atom-composite XC energy  -9.4724231985201168E+00
 SKALA_GPW| Active atom-composite electrons   3.2036001144342620E+01
 SKALA_GPW| Active atom-composite density range   1.4767445357972202E-05   4.1109574555759101E-02
 SKALA_GPW| Active atom-composite tau range   6.3915545972292615E-04   2.9121175691102962E-02
 SKALA_GPW| Active atom-composite tau integral   1.2268934614441795E+01
 SKALA_GPW| Active atom-composite max gradient   3.7611188512990779E-02
    23 DIIS/Diag.  0.13E-02   57.4     0.00517885       -31.5960116968  1.87E-06
 SKALA_GPW| Atom-composite cross support/maxima   0.000000000000E+00   0.000000000000E+00   0.000000000000E+00   0.000000000000E+00
 SKALA_GPW| Active atom-composite XC energy  -9.4732493441487282E+00
 SKALA_GPW| Active atom-composite electrons   3.2036005010852854E+01
 SKALA_GPW| Active atom-composite density range   1.7532377496096327E-05   4.1163548368869485E-02
 SKALA_GPW| Active atom-composite tau range   6.3922520834765737E-04   2.9201677647708642E-02
 SKALA_GPW| Active atom-composite tau integral   1.2276128073306030E+01
 SKALA_GPW| Active atom-composite max gradient   3.7639726428691803E-02
    24 DIIS/Diag.  0.34E-01   56.6     0.00625334       -31.5959584885  5.32E-05
 SKALA_GPW| Atom-composite cross support/maxima   0.000000000000E+00   0.000000000000E+00   0.000000000000E+00   0.000000000000E+00
 SKALA_GPW| Active atom-composite XC energy  -9.4710881547852726E+00
 SKALA_GPW| Active atom-composite electrons   3.2036051666750673E+01
 SKALA_GPW| Active atom-composite density range   1.4168825628226274E-05   4.1106644010566275E-02
 SKALA_GPW| Active atom-composite tau range   6.4150603179749608E-04   2.9058824955114342E-02
 SKALA_GPW| Active atom-composite tau integral   1.2260301747862616E+01
 SKALA_GPW| Active atom-composite max gradient   3.7550655404718955E-02
    25 DIIS/Diag.  0.11E-03   54.9     0.00082712       -31.5960510325 -9.25E-05
 SKALA_GPW| Atom-composite cross support/maxima   0.000000000000E+00   0.000000000000E+00   0.000000000000E+00   0.000000000000E+00
 SKALA_GPW| Active atom-composite XC energy  -9.4717754281324282E+00
 SKALA_GPW| Active atom-composite electrons   3.2036038161340777E+01
 SKALA_GPW| Active atom-composite density range   1.4190343130327196E-05   4.1124253228415515E-02
 SKALA_GPW| Active atom-composite tau range   6.4113980435785874E-04   2.9070404573850833E-02
 SKALA_GPW| Active atom-composite tau integral   1.2262303537596825E+01
 SKALA_GPW| Active atom-composite max gradient   3.7556602299704096E-02
    26 DIIS/Diag.  0.58E-04   59.7     0.00032664       -31.5960517573 -7.25E-07
 SKALA_GPW| Atom-composite cross support/maxima   0.000000000000E+00   0.000000000000E+00   0.000000000000E+00   0.000000000000E+00
 SKALA_GPW| Active atom-composite XC energy  -9.4716398764507659E+00
 SKALA_GPW| Active atom-composite electrons   3.2036041253238679E+01
 SKALA_GPW| Active atom-composite density range   1.4120845198300073E-05   4.1121391103217622E-02
 SKALA_GPW| Active atom-composite tau range   6.4124363553653225E-04   2.9065474756895873E-02
 SKALA_GPW| Active atom-composite tau integral   1.2261606528277429E+01
 SKALA_GPW| Active atom-composite max gradient   3.7553859258322622E-02
    27 DIIS/Diag.  0.21E-05   59.5     0.00010199       -31.5960519653 -2.08E-07
 SKALA_GPW| Atom-composite cross support/maxima   0.000000000000E+00   0.000000000000E+00   0.000000000000E+00   0.000000000000E+00
 SKALA_GPW| Active atom-composite XC energy  -9.4716016606386049E+00
 SKALA_GPW| Active atom-composite electrons   3.2036042306889534E+01
 SKALA_GPW| Active atom-composite density range   1.4090584805236957E-05   4.1120192196903077E-02
 SKALA_GPW| Active atom-composite tau range   6.4126634326369908E-04   2.9064871987110972E-02
 SKALA_GPW| Active atom-composite tau integral   1.2261517330558471E+01
 SKALA_GPW| Active atom-composite max gradient   3.7553299403521388E-02
    28 DIIS/Diag.  0.32E-05   55.8     0.00006334       -31.5960519554  9.93E-09
 SKALA_GPW| Atom-composite cross support/maxima   0.000000000000E+00   0.000000000000E+00   0.000000000000E+00   0.000000000000E+00
 SKALA_GPW| Active atom-composite XC energy  -9.4716035062414861E+00
 SKALA_GPW| Active atom-composite electrons   3.2036042324408605E+01
 SKALA_GPW| Active atom-composite density range   1.4126647245538510E-05   4.1120677199869997E-02
 SKALA_GPW| Active atom-composite tau range   6.4126739516747204E-04   2.9064778405693728E-02
 SKALA_GPW| Active atom-composite tau integral   1.2261521852406860E+01
 SKALA_GPW| Active atom-composite max gradient   3.7553397560286132E-02
    29 DIIS/Diag.  0.24E-06   52.5     0.00001638       -31.5960519659 -1.05E-08
 SKALA_GPW| Atom-composite cross support/maxima   0.000000000000E+00   0.000000000000E+00   0.000000000000E+00   0.000000000000E+00
 SKALA_GPW| Active atom-composite XC energy  -9.4716055700940736E+00
 SKALA_GPW| Active atom-composite electrons   3.2036042242768673E+01
 SKALA_GPW| Active atom-composite density range   1.4116276484071674E-05   4.1120592139907527E-02
 SKALA_GPW| Active atom-composite tau range   6.4126615166033754E-04   2.9064614962146986E-02
 SKALA_GPW| Active atom-composite tau integral   1.2261518350854091E+01
 SKALA_GPW| Active atom-composite max gradient   3.7553454842334577E-02
    30 DIIS/Diag.  0.46E-07   54.6     0.00000864       -31.5960519677 -1.82E-09
 SKALA_GPW| Atom-composite cross support/maxima   0.000000000000E+00   0.000000000000E+00   0.000000000000E+00   0.000000000000E+00
 SKALA_GPW| Active atom-composite XC energy  -9.4716099309715709E+00
 SKALA_GPW| Active atom-composite electrons   3.2036042156472028E+01
 SKALA_GPW| Active atom-composite density range   1.4118614209370638E-05   4.1120738267537621E-02
 SKALA_GPW| Active atom-composite tau range   6.4126336587833033E-04   2.9064717324984005E-02
 SKALA_GPW| Active atom-composite tau integral   1.2261537553037389E+01
 SKALA_GPW| Active atom-composite max gradient   3.7553470505827843E-02
    31 DIIS/Diag.  0.12E-07   53.9     0.00000478       -31.5960519642  3.53E-09

  *** SCF run converged in    31 steps ***


  Electronic density on regular grids:        -32.0000000000        0.0000000000
  Core density on regular grids:               31.9999999999       -0.0000000001
  Hard and soft densities (Lebedev):           -0.0000000000       -0.0000000000
  Total Rho_soft + Rho1_hard - Rho1_soft      -32.0000000000
  Total charge density (r-space):              -0.0000000001
  Total Rho_soft + Rho0_soft (g-space):        -0.0000000001

  Overlap energy of the core charge distribution:               0.00000000001035
  Self energy of the core charge distribution:                -82.06718048728062
  Core Hamiltonian energy:                                     16.98933674867093
  Hartree energy:                                              43.11336218784903
  Exchange-correlation energy:                                  0.00000000000000
  Dispersion energy:                                           -0.15996048247097

  GAPW| Exc from hard and soft atomic rho1:                    -9.47160993097157
  GAPW| local Eh = 1 center integrals:                          0.00000000000000

  Total energy:                                               -31.59605196419286

  outer SCF iter =    1 RMS gradient =   0.00E+00 energy =        -31.5960519642
  outer SCF loop converged in   1 iterations or   31 steps


 !-----------------------------------------------------------------------------!
                     Mulliken Population Analysis

 #  Atom  Element  Kind  Atomic population                           Net charge
       1     Si       1          3.997620                              0.002380
       2     Si       1          4.000795                             -0.000795
       3     Si       1          4.000794                             -0.000794
       4     Si       1          4.000794                             -0.000794
       5     Si       1          4.001206                             -0.001206
       6     Si       1          3.999826                              0.000174
       7     Si       1          3.999594                              0.000406
       8     Si       1          3.999371                              0.000629
 # Total charge                             32.000000                  0.000000

 !-----------------------------------------------------------------------------!

 !-----------------------------------------------------------------------------!
                           Hirshfeld Charges

  #Atom  Element  Kind  Ref Charge     Population                    Net charge
      1       Si     1       4.000          4.000                         0.000
      2       Si     1       4.000          4.000                        -0.000
      3       Si     1       4.000          4.000                        -0.000
      4       Si     1       4.000          4.000                        -0.000
      5       Si     1       4.000          4.000                        -0.000
      6       Si     1       4.000          4.000                         0.000
      7       Si     1       4.000          4.000                         0.000
      8       Si     1       4.000          4.000                         0.000

  Total Charge                                                           -0.000
 !-----------------------------------------------------------------------------!

 ENERGY| Total FORCE_EVAL ( QS ) energy [hartree]            -31.596051964192860

 -------------------------------------------------------------------------------
 -                                                                             -
 -                                DBCSR STATISTICS                             -
 -                                                                             -
 -------------------------------------------------------------------------------
 COUNTER                                    TOTAL       BLAS       SMM       ACC
 flops inhomo. stacks                           0       0.0%      0.0%      0.0%
 flops total                         0.000000E+00       0.0%      0.0%      0.0%
 flops max/rank                      0.000000E+00       0.0%      0.0%      0.0%
 matmuls inhomo. stacks                         0       0.0%      0.0%      0.0%
 matmuls total                                  0       0.0%      0.0%      0.0%
 number of processed stacks                     0       0.0%      0.0%      0.0%
 average stack size                                     0.0       0.0       0.0
 marketing flops                     0.000000E+00
 -------------------------------------------------------------------------------
 -                                                                             -
 -                      DBCSR MESSAGE PASSING PERFORMANCE                      -
 -                                                                             -
 -------------------------------------------------------------------------------
 ROUTINE             CALLS      AVE VOLUME [Bytes]
 MP_Bcast                1                     12.
 MP_Allreduce           19                     21.
 MP_Alltoall         31952                 279241.
 -------------------------------------------------------------------------------

 -------------------------------------------------------------------------------
 -                                                                             -
 -                                GRID STATISTICS                              -
 -                                                                             -
 -------------------------------------------------------------------------------
 LP    KERNEL             BACKEND                              COUNT     PERCENT
 6     collocate ortho    CPU                                 650752      25.40%
 8     collocate ortho    CPU                                 650752      25.40%
 6     integrate ortho    CPU                                 630416      24.60%
 8     integrate ortho    CPU                                 630416      24.60%
 0     collocate general  CPU                                     16       0.00%
 0     integrate general  CPU                                      8       0.00%
 -------------------------------------------------------------------------------

 -------------------------------------------------------------------------------
 -                                                                             -
 -                          OFFLOAD MEMPOOL STATISTICS                         -
 -                                                                             -
 -------------------------------------------------------------------------------
 Memory consumption                Number of allocations  Used [MiB]  Size [MiB]
 Host                                                  8          79    89717789
 -------------------------------------------------------------------------------

 MEMORY| Estimated peak process memory [MiB]                                2083

 -------------------------------------------------------------------------------
 ----                             MULTIGRID INFO                            ----
 -------------------------------------------------------------------------------
 count for grid        1:              3          cutoff [a.u.]          400.00
 count for grid        2:           1623          cutoff [a.u.]          133.33
 count for grid        3:           7688          cutoff [a.u.]           44.44
 count for grid        4:          12251          cutoff [a.u.]           14.81
 count for grid        5:           5434          cutoff [a.u.]            4.94
 total gridlevel count  :          26999

 -------------------------------------------------------------------------------
 -                                                                             -
 -                         MESSAGE PASSING PERFORMANCE                         -
 -                                                                             -
 -------------------------------------------------------------------------------

 ROUTINE             CALLS      AVE VOLUME [Bytes]
 MP_Group                5
 MP_Bcast            11314                    209.
 MP_Allreduce        27112                  80939.
 MP_Sync                 5
 MP_Wait              9400
 MP_ISend            13160                  61519.
 MP_IRecv            13160                  61519.
 -------------------------------------------------------------------------------


 -------------------------------------------------------------------------------
 -                                                                             -
 -                           R E F E R E N C E S                               -
 -                                                                             -
 -------------------------------------------------------------------------------
 
 CP2K version 2026.2 (Development Version), the CP2K developers group (2026).
 CP2K is freely available from https://www.cp2k.org/ .
 
 M. Iannuzzi, J. Wilhelm, F. Stein, A. Bussy, H. Elgabarty, D. Golze, A. Hehn, 
 M. Graml, S. Marek, B. Sertcan Gökmen, C. Schran, H. Forbert, R. Z. 
 Khaliullin, A. Kozhevnikov, M. Taillefumier, R. Meli, V. V. Rybkin, M. Brehm, 
 R. Schade, O. Schütt, J. V. Pototschnig, H. Mirhosseini, A. Knüpfer, D. Marx, 
 M. Krack, J. Hutter, T. D. Kühne.
 J. Phys. Chem. B 130, 1237-1310 (2026).
 The CP2K Program Package Made Simple.
 https://doi.org/10.1021/acs.jpcb.5c05851

 L. Wittmann, I. Gordiy, M. Friede, B. Helmich-Paris, S. Grimme, A. Hansen, M. 
 Bursch.
 Phys. Chem. Chem. Phys. 26, 21379-21394 (2024).
 Extension of the D3 and D4 London dispersion corrections to the full actinides 
 series.
 https://doi.org/10.1039/d4cp01514b

 T. D. Kühne, M. Iannuzzi, M. Del Ben, V. V. Rybkin, P. Seewald, F. Stein, T. 
 Laino, R. Z. Khaliullin, O. Schütt, F. Schiffmann, D. Golze, J. Wilhelm, S. 
 Chulkov, M. H. Bani-Hashemian, V. Weber, U. Borstnik, M. Taillefumier, A. S. 
 Jakobovits, A. Lazzaro, H. Pabst, T. Müller, R. Schade, M. Guidon, S. 
 Andermatt, N. Holmberg, G. K. Schenter, A. Hehn, A. Bussy, F. Belleflamme, G. 
 Tabacchi, A. Glöß, M. Lass, I. Bethune, C. J. Mundy, C. Plessl, M. Watkins, 
 J. VandeVondele, M. Krack, J. Hutter.
 J. Chem. Phys. 152, 194103 (2020).
 CP2K: An electronic structure and molecular dynamics software package - 
 Quickstep: Efficient and accurate electronic structure calculations.
 https://doi.org/10.1063/5.0007045

 L. Goerigk, A. Hansen, C. Bauer, S. Ehrlich, A. Najibi, S. Grimme.
 Phys. Chem. Chem. Phys. 19, 32184-32215 (2017).
 A look at the density functional theory zoo with the advanced GMTKN55 database 
 for general main group thermochemistry, kinetics and noncovalent interactions.
 https://doi.org/10.1039/C7CP04913G

 O. Schuett, P. Messmer, J. Hutter, J. VandeVondele.
 Electronic Structure Calculations on Graphics Processing Units, 173-190 (2016).
 GPU-Accelerated Sparse Matrix-Matrix Multiplication for Linear Scaling Density 
 Functional Theory.
 https://doi.org/10.1002/9781118670712.ch8

 U. Borstnik, J. VandeVondele, V. Weber, J. Hutter.
 Parallel Comput. 40, 47-58 (2014).
 Sparse matrix multiplication: The distributed block-compressed sparse row 
 library.
 https://doi.org/10.1016/j.parco.2014.03.012

 S. Grimme, S. Ehrlich, L. Goerigk.
 J. Comput. Chem. 32, 1456 (2011).
 Effect of the damping function in dispersion corrected density functional 
 theory.
 https://doi.org/10.1002/jcc.21759

 S. Grimme, J. Antony, S. Ehrlich, H. Krieg.
 J. Chem. Phys. 132, 154104 (2010).
 A consistent and accurate ab initio parametrization of density functional 
 dispersion correction (DFT-D) for the 94 elements H-Pu.
 https://doi.org/10.1063/1.3382344

 J. VandeVondele, J. Hutter.
 J. Chem. Phys. 127, 114105 (2007).
 Gaussian basis sets for accurate calculations on molecular systems in gas and 
 condensed phases.
 https://doi.org/10.1063/1.2770708

 M. Krack.
 Theor. Chem. Acc. 114, 145-152 (2005).
 Pseudopotentials for H to Kr optimized for gradient-corrected 
 exchange-correlation functionals.
 https://doi.org/10.1007/s00214-005-0655-y

 M. Frigo, S. G. Johnson.
 Proc. IEEE 93, 216-231 (2005).
 The design and implementation of FFTW3.
 https://doi.org/10.1109/JPROC.2004.840301

 M. Krack, M. Parrinello.
 Phys. Chem. Chem. Phys. 2, 2105-2112 (2000).
 All-electron ab-initio molecular dynamics.
 https://doi.org/10.1039/b001167n

 G. Lippert, J. Hutter, M. Parrinello.
 Theor. Chem. Acc. 103, 124-140 (1999).
 The Gaussian and augmented-plane-wave density functional method for ab initio 
 molecular dynamics simulations.
 https://doi.org/10.1007/s002140050523

 C. Hartwigsen, S. Goedecker, J. Hutter.
 Phys. Rev. B 58, 3641-3662 (1998).
 Relativistic separable dual-space Gaussian pseudopotentials from H to Rn.
 https://doi.org/10.1103/PhysRevB.58.3641

 S. Goedecker, M. Teter, J. Hutter.
 Phys. Rev. B 54, 1703-1710 (1996).
 Separable dual-space Gaussian pseudopotentials.
 https://doi.org/10.1103/PhysRevB.54.1703

 C.-L. Fu, K.-M. Ho.
 Phys. Rev. B 28, 5480-5486 (1983).
 First-principles calculation of the equilibrium ground-state properties of 
 transition metals: Applications to Nb and Mo.
 https://doi.org/10.1103/PhysRevB.28.5480

 T. G. Worlton, J. L. Warren.
 Comput. Phys. Commun. 3, 88-117 (1972).
 Group-theoretical analysis of lattice vibrations.
 https://doi.org/10.1016/0010-4655(72)90058-6


 -------------------------------------------------------------------------------
 -                                                                             -
 -                                T I M I N G                                  -
 -                                                                             -
 -------------------------------------------------------------------------------
 SUBROUTINE                       CALLS  ASD         SELF TIME        TOTAL TIME
                                MAXIMUM       AVERAGE  MAXIMUM  AVERAGE  MAXIMUM
 CP2K                                 1  1.0    0.015    0.015 1777.595 1777.595
 qs_energies                          1  2.0    0.001    0.001 1777.293 1777.293
 scf_env_do_scf                       1  3.0    0.000    0.000 1774.948 1774.948
 scf_env_do_scf_inner_loop           31  4.0    0.012    0.012 1774.948 1774.948
 qs_ks_update_qs_env                 31  5.0    0.001    0.001 1695.374 1695.374
 rebuild_ks_matrix                   31  6.0    0.000    0.000 1694.377 1694.377
 qs_ks_build_kohn_sham_matrix        31  7.0    0.019    0.019 1694.377 1694.377
 calculate_vxc_atom                  31  8.0  491.652  491.652 1669.647 1669.647
 skala_atom_torch_backward           93  9.0  708.371  708.371  708.371  708.371
 skala_atom_torch_forward            93  9.0    0.136    0.136  461.958  461.958
 torch_model_forward_mol_tensor      93 10.0  461.822  461.822  461.822  461.822
 qs_scf_new_mos_kp                   31  5.0    0.001    0.001   61.854   61.854
 do_general_diag_kp                  31  6.0    0.065    0.065   61.853   61.853
 kpoint_density_transform            31  7.0    0.028    0.028   42.222   42.222
 -------------------------------------------------------------------------------

 The number of warnings for this run is : 2
 
 -------------------------------------------------------------------------------
  **** **** ******  **  PROGRAM ENDED AT                 2026-09-01 00:56:35.710
 ***** ** ***  *** **   PROGRAM RAN ON                                     terok
 **    ****   ******    PROGRAM RAN BY                                  kuehne88
 ***** **    ** ** **   PROGRAM PROCESS ID                                457434
  **** **  *******  **  PROGRAM STOPPED IN /home/kuehne88/work/native-skala-tero
                                           k/goldzak12/runs/production/hybrid-di
                                           rect/Si/v10
