 DBCSR| CPU Multiplication driver                                           BLAS (U)
 DBCSR| Multrec recursion limit                                              512 (U)
 DBCSR| Multiplication stack size                                           1000 (D)
 DBCSR| Maximum elements for images                                    UNLIMITED (U)
 DBCSR| Multiplicative factor virtual images                                   1 (U)
 DBCSR| Use multiplication densification                                       T (D)
 DBCSR| Multiplication size stacks                                             3 (U)
 DBCSR| Use memory pool for CPU allocation                                     F (U)
 DBCSR| Number of 3D layers                                               SINGLE (U)
 DBCSR| Use MPI memory allocation                                              F (U)
 DBCSR| Use RMA algorithm                                                      F (U)
 DBCSR| Use Communication thread                                               T (U)
 DBCSR| Communication thread load                                             45 (D)
 DBCSR| MPI: My process id                                                     0
 DBCSR| MPI: Number of processes                                               1
 DBCSR| OMP: Current number of threads                                        12
 DBCSR| OMP: Max number of threads                                            12
 DBCSR| Split modifier for TAS multiplication algorithm                  1.0E+00 (U)


  **** **** ******  **  PROGRAM STARTED AT               2026-08-25 04:10:52.299
 ***** ** ***  *** **   PROGRAM STARTED ON                                 terok
 **    ****   ******    PROGRAM STARTED BY                              kuehne88
 ***** **    ** ** **   PROGRAM PROCESS ID                               2867762
  **** **  *******  **  PROGRAM STARTED IN /home/kuehne88/work/native-skala-tero
                                           k/diet-production-p25/gapwxc-gth-one-
                                           center/c057e61d2d234c2afc4d54f39aa6a5
                                           6272f50994

 CP2K| version string:                 CP2K version 2026.2 (Development Version)
 CP2K| source code revision number:                                   c1bff3eeb8
 CP2K| cp2kflags: omp fftw3 gauxc gauxc_mpi gauxc_onedft gauxc_host parallel sca
 CP2K|            lapack mpi_f08 openblas libtorch libtorch_cuda
 CP2K| is freely available from                            https://www.cp2k.org/
 CP2K| Program compiled at                                   2026-08-24 23:53:18
 CP2K| Program compiled on                                                 terok
 CP2K| Program compiled for                                               x86_64
 CP2K| Data directory path      /home/kuehne88/work/native-skala-terok/cp2k/data
 CP2K| Input file name                                             input.cpu.inp

 GLOBAL| Force Environment number                                              1
 GLOBAL| Basis set file name                             BASIS_MOLOPT_UZH_2026.2
 GLOBAL| Potential file name                                POTENTIAL_UZH_2026.2
 GLOBAL| MM Potential file name                                     MM_POTENTIAL
 GLOBAL| Coordinate file name                                      __STD_INPUT__
 GLOBAL| Method name                                                        CP2K
 GLOBAL| Project name                                c057e61d2d23_gapwxc_gth_paw
 GLOBAL| Run type                                                         ENERGY
 GLOBAL| FFT library                                                       FFTW3
 GLOBAL| Diagonalization library                                       ScaLAPACK
 GLOBAL| Cholesky decomposition library                                ScaLAPACK
 GLOBAL| DGEMM library                                                      BLAS
 GLOBAL| Direct generalized diagonalization requested                          F
 GLOBAL| Orthonormality check for eigenvectors                          DISABLED
 GLOBAL| Matrix multiplication library                                 ScaLAPACK
 GLOBAL| All-to-all communication in single precision                          F
 GLOBAL| FFTs using library dependent lengths                                  F
 GLOBAL| Grid backend                                                       AUTO
 GLOBAL| Global print level                                               MEDIUM
 GLOBAL| MPI I/O enabled                                                       T
 GLOBAL| Total number of message passing processes                             1
 GLOBAL| Number of distributed systems (nodes)                                 1
 GLOBAL| Number of threads for this process                                   12
 GLOBAL| This output is from process                                           0
 GLOBAL| OpenMP stack size per thread (OMP_STACKSIZE)                       512M
 GLOBAL| CPU model name                                       AMD EPYC Processor

 MEMORY| system memory details [Kb]
 MEMORY|                        rank 0           min           max       average
 MEMORY| MemTotal            528104844     528104844     528104844     528104844
 MEMORY| MemFree             403155344     403155344     403155344     403155344
 MEMORY| Buffers                   672           672           672           672
 MEMORY| Cached              109959316     109959316     109959316     109959316
 MEMORY| Slab                  6870404       6870404       6870404       6870404
 MEMORY| SReclaimable          4890176       4890176       4890176       4890176
 MEMORY| MemLikelyFree       518005508     518005508     518005508     518005508


 *** Fundamental physical constants (SI units) ***

 *** Literature: B. J. Mohr and B. N. Taylor,
 ***             CODATA recommended values of the fundamental physical
 ***             constants: 2006, Web Version 5.1
 ***             http://physics.nist.gov/constants

 Speed of light in vacuum [m/s]                             2.99792458000000E+08
 Magnetic constant or permeability of vacuum [N/A**2]       1.25663706143592E-06
 Electric constant or permittivity of vacuum [F/m]          8.85418781762039E-12
 Planck constant (h) [J*s]                                  6.62606896000000E-34
 Planck constant (h-bar) [J*s]                              1.05457162825177E-34
 Elementary charge [C]                                      1.60217648700000E-19
 Electron mass [kg]                                         9.10938215000000E-31
 Electron g factor [ ]                                     -2.00231930436220E+00
 Proton mass [kg]                                           1.67262163700000E-27
 Fine-structure constant                                    7.29735253760000E-03
 Rydberg constant [1/m]                                     1.09737315685270E+07
 Avogadro constant [1/mol]                                  6.02214179000000E+23
 Boltzmann constant [J/K]                                   1.38065040000000E-23
 Atomic mass unit [kg]                                      1.66053878200000E-27
 Bohr radius [m]                                            5.29177208590000E-11

 *** Conversion factors ***

 [u] -> [a.u.]                                              1.82288848426455E+03
 [Angstrom] -> [Bohr] = [a.u.]                              1.88972613288564E+00
 [a.u.] = [Bohr] -> [Angstrom]                              5.29177208590000E-01
 [a.u.] -> [s]                                              2.41888432650478E-17
 [a.u.] -> [fs]                                             2.41888432650478E-02
 [a.u.] -> [J]                                              4.35974393937059E-18
 [a.u.] -> [N]                                              8.23872205491840E-08
 [a.u.] -> [K]                                              3.15774647902944E+05
 [a.u.] -> [kJ/mol]                                         2.62549961709828E+03
 [a.u.] -> [kcal/mol]                                       6.27509468713739E+02
 [a.u.] -> [Pa]                                             2.94210107994716E+13
 [a.u.] -> [bar]                                            2.94210107994716E+08
 [a.u.] -> [atm]                                            2.90362800883016E+08
 [a.u.] -> [eV]                                             2.72113838565563E+01
 [a.u.] -> [Hz]                                             6.57968392072181E+15
 [a.u.] -> [1/cm] (wave numbers)                            2.19474631370540E+05
 [a.u./Bohr**2] -> [1/cm]                                   5.14048714338585E+03
 

 CELL| Volume [angstrom^3]:                                         17550.000000
 CELL| Vector a [angstrom]:      27.000     0.000     0.000   |a| =    27.000000
 CELL| Vector b [angstrom]:       0.000    25.000     0.000   |b| =    25.000000
 CELL| Vector c [angstrom]:       0.000     0.000    26.000   |c| =    26.000000
 CELL| Angle (b,c), alpha [degree]:                                    90.000000
 CELL| Angle (a,c), beta  [degree]:                                    90.000000
 CELL| Angle (a,b), gamma [degree]:                                    90.000000
 CELL| Numerically orthorhombic:                                             YES
 CELL| Periodicity                                                          NONE

 CELL_REF| Volume [angstrom^3]:                                     17550.000000
 CELL_REF| Vector a [angstrom    27.000     0.000     0.000   |a| =    27.000000
 CELL_REF| Vector b [angstrom     0.000    25.000     0.000   |b| =    25.000000
 CELL_REF| Vector c [angstrom     0.000     0.000    26.000   |c| =    26.000000
 CELL_REF| Angle (b,c), alpha [degree]:                                90.000000
 CELL_REF| Angle (a,c), beta  [degree]:                                90.000000
 CELL_REF| Angle (a,b), gamma [degree]:                                90.000000
 CELL_REF| Numerically orthorhombic:                                         YES
 CELL_REF| Periodicity                                                      NONE

 GENERATE|  Preliminary Number of Bonds generated:                             0
 GENERATE|  Achieved consistency in connectivity generation.

 *******************************************************************************
 *******************************************************************************
 **                                                                           **
 **     #####                         ##              ##                      **
 **    ##   ##            ##          ##              ##                      **
 **   ##     ##                       ##            ######                    **
 **   ##     ##  ##   ##  ##   #####  ##  ##   ####   ##    #####    #####    **
 **   ##     ##  ##   ##  ##  ##      ## ##   ##      ##   ##   ##  ##   ##   **
 **   ##  ## ##  ##   ##  ##  ##      ####     ###    ##   ######   ######    **
 **    ##  ###   ##   ##  ##  ##      ## ##      ##   ##   ##       ##        **
 **     #######   #####   ##   #####  ##  ##  ####    ##    #####   ##        **
 **           ##                                                    ##        **
 **                                                                           **
 **                                                ... make the atoms dance   **
 **                                                                           **
 **            Copyright (C) by CP2K developers group (2000-2026)             **
 **                      J. Chem. Phys. 152, 194103 (2020)                    **
 **                                                                           **
 *******************************************************************************

 DFT| Spin restricted Kohn-Sham (RKS) calculation                            RKS
 DFT| Multiplicity                                                             1
 DFT| Number of spin states                                                    1
 DFT| Charge                                                                   0
 DFT| Self-interaction correction (SIC)                                       NO
 DFT| Cutoffs: density                                              1.000000E-10
 DFT|          gradient                                             1.000000E-10
 DFT|          tau                                                  1.000000E-10
 DFT|          cutoff_smoothing_range                               0.000000E+00
 DFT| XC density smoothing                                                  NONE
 DFT| XC derivatives                                                          PW

 FUNCTIONAL| GAUXC:
 FUNCTIONAL| Functional computed by GauXC Skala model SKALA                     

 vdW POTENTIAL|                                                   Pair Potential
 vdW POTENTIAL|          DFT-D3 (Version 3.1)
 vdW POTENTIAL|          Potential Form: S. Grimme et al, JCP 132: 154104 (2010)
 vdW POTENTIAL|          BJ Damping: S. Grimme et al, JCC 32: 1456 (2011)
 vdW POTENTIAL|          Cutoff Radius [Bohr]:                             37.79
 vdW POTENTIAL|          s6 Scaling Factor:                               1.0000
 vdW POTENTIAL|          a1 Damping Factor:                               0.3981
 vdW POTENTIAL|          s8 Scaling Factor:                               1.9889
 vdW POTENTIAL|          a2 Damping Factor:                               4.4211
 vdW POTENTIAL|          Cutoff for CN calculation:                   0.1000E-05

 QS| Method:                                                             GAPW_XC
 QS| Density plane wave grid type                        NON-SPHERICAL FULLSPACE
 QS| Number of grid levels:                                                    5
 QS| Density cutoff [a.u.]:                                                200.0
 QS| Multi grid cutoff [a.u.]: 1) grid level                               200.0
 QS|                           2) grid level                                66.7
 QS|                           3) grid level                                22.2
 QS|                           4) grid level                                 7.4
 QS|                           5) grid level                                 2.5
 QS| Grid level progression factor:                                          3.0
 QS| Relative density cutoff [a.u.]:                                        30.0
 QS| Interaction thresholds: eps_pgf_orb:                                1.0E-06
 QS|                         eps_filter_matrix:                          0.0E+00
 QS|                         eps_core_charge:                            1.0E-14
 QS|                         eps_rho_gspace:                             1.0E-12
 QS|                         eps_rho_rspace:                             1.0E-12
 QS|                         eps_gvg_rspace:                             1.0E-06
 QS|                         eps_ppl:                                    1.0E-02
 QS|                         eps_ppnl:                                   1.0E-08
 QS| GAPW_XC|      One center basis extended with primitives (small:s)
 QS| GAPW_XC|                eps_fit:                                    1.0E-04
 QS| GAPW_XC|                eps_iso:                                    1.0E-12
 QS| GAPW_XC|                eps_svd:                                    1.0E-08
 QS| GAPW_XC|atom-r-grid: quadrature:                 GC_LOG                        
 QS| GAPW_XC|   atom-s-grid:  max l :                                          6


 ATOMIC KIND INFORMATION

  1. Atomic kind: O                                     Number of atoms:       1

     Orbital Basis Set                                   TZV2P-MOLOPT-PBE-GTH-q6

       Number of orbital shell sets:                                           1
       Number of orbital shells:                                               9
       Number of primitive Cartesian functions:                                5
       Number of Cartesian basis functions:                                   34
       Number of spherical basis functions:                                   29
       Norm type:                                                              2

       Normalised Cartesian orbitals:

                        Set   Shell   Orbital            Exponent    Coefficient

                          1       1    2s               10.277042      -0.485504
                                                         3.564053      -0.220015
                                                         1.313636       0.373321
                                                         0.488903       0.264765
                                                         0.155332       0.020043

                          1       2    3s               10.277042       0.224066
                                                         3.564053       0.080746
                                                         1.313636      -0.123482
                                                         0.488903      -0.035459
                                                         0.155332       0.195554

                          1       3    4s               10.277042      -3.846583
                                                         3.564053      -0.604002
                                                         1.313636       0.878850
                                                         0.488903      -0.388670
                                                         0.155332       0.020403

                          1       4    3px              10.277042      -1.528218
                                                         3.564053      -1.277699
                                                         1.313636      -0.654740
                                                         0.488903      -0.229926
                                                         0.155332      -0.043447
                          1       4    3py              10.277042      -1.528218
                                                         3.564053      -1.277699
                                                         1.313636      -0.654740
                                                         0.488903      -0.229926
                                                         0.155332      -0.043447
                          1       4    3pz              10.277042      -1.528218
                                                         3.564053      -1.277699
                                                         1.313636      -0.654740
                                                         0.488903      -0.229926
                                                         0.155332      -0.043447

                          1       5    4px              10.277042       2.036465
                                                         3.564053       1.678955
                                                         1.313636       0.821025
                                                         0.488903       0.173956
                                                         0.155332      -0.133459
                          1       5    4py              10.277042       2.036465
                                                         3.564053       1.678955
                                                         1.313636       0.821025
                                                         0.488903       0.173956
                                                         0.155332      -0.133459
                          1       5    4pz              10.277042       2.036465
                                                         3.564053       1.678955
                                                         1.313636       0.821025
                                                         0.488903       0.173956
                                                         0.155332      -0.133459

                          1       6    5px              10.277042       4.160760
                                                         3.564053       3.839534
                                                         1.313636       1.365137
                                                         0.488903      -0.557232
                                                         0.155332       0.019989
                          1       6    5py              10.277042       4.160760
                                                         3.564053       3.839534
                                                         1.313636       1.365137
                                                         0.488903      -0.557232
                                                         0.155332       0.019989
                          1       6    5pz              10.277042       4.160760
                                                         3.564053       3.839534
                                                         1.313636       1.365137
                                                         0.488903      -0.557232
                                                         0.155332       0.019989

                          1       7    4dx2             10.277042      -5.653729
                                                         3.564053       2.384130
                                                         1.313636       0.763128
                                                         0.488903       0.368121
                                                         0.155332      -0.007951
                          1       7    4dxy             10.277042      -9.792547
                                                         3.564053       4.129435
                                                         1.313636       1.321776
                                                         0.488903       0.637605
                                                         0.155332      -0.013772
                          1       7    4dxz             10.277042      -9.792547
                                                         3.564053       4.129435
                                                         1.313636       1.321776
                                                         0.488903       0.637605
                                                         0.155332      -0.013772
                          1       7    4dy2             10.277042      -5.653729
                                                         3.564053       2.384130
                                                         1.313636       0.763128
                                                         0.488903       0.368121
                                                         0.155332      -0.007951
                          1       7    4dyz             10.277042      -9.792547
                                                         3.564053       4.129435
                                                         1.313636       1.321776
                                                         0.488903       0.637605
                                                         0.155332      -0.013772
                          1       7    4dz2             10.277042      -5.653729
                                                         3.564053       2.384130
                                                         1.313636       0.763128
                                                         0.488903       0.368121
                                                         0.155332      -0.007951

                          1       8    5dx2             10.277042      -1.240143
                                                         3.564053       0.370203
                                                         1.313636       0.144297
                                                         0.488903       0.056503
                                                         0.155332       0.057456
                          1       8    5dxy             10.277042      -2.147990
                                                         3.564053       0.641211
                                                         1.313636       0.249929
                                                         0.488903       0.097865
                                                         0.155332       0.099516
                          1       8    5dxz             10.277042      -2.147990
                                                         3.564053       0.641211
                                                         1.313636       0.249929
                                                         0.488903       0.097865
                                                         0.155332       0.099516
                          1       8    5dy2             10.277042      -1.240143
                                                         3.564053       0.370203
                                                         1.313636       0.144297
                                                         0.488903       0.056503
                                                         0.155332       0.057456
                          1       8    5dyz             10.277042      -2.147990
                                                         3.564053       0.641211
                                                         1.313636       0.249929
                                                         0.488903       0.097865
                                                         0.155332       0.099516
                          1       8    5dz2             10.277042      -1.240143
                                                         3.564053       0.370203
                                                         1.313636       0.144297
                                                         0.488903       0.056503
                                                         0.155332       0.057456

                          1       9    5fx3             10.277042      -6.690350
                                                         3.564053       0.340627
                                                         1.313636       0.043047
                                                         0.488903       0.291962
                                                         0.155332      -0.000154
                          1       9    5fx2y            10.277042     -14.960077
                                                         3.564053       0.761664
                                                         1.313636       0.096256
                                                         0.488903       0.652848
                                                         0.155332      -0.000345
                          1       9    5fx2z            10.277042     -14.960077
                                                         3.564053       0.761664
                                                         1.313636       0.096256
                                                         0.488903       0.652848
                                                         0.155332      -0.000345
                          1       9    5fxy2            10.277042     -14.960077
                                                         3.564053       0.761664
                                                         1.313636       0.096256
                                                         0.488903       0.652848
                                                         0.155332      -0.000345
                          1       9    5fxyz            10.277042     -25.911613
                                                         3.564053       1.319241
                                                         1.313636       0.166721
                                                         0.488903       1.130766
                                                         0.155332      -0.000597
                          1       9    5fxz2            10.277042     -14.960077
                                                         3.564053       0.761664
                                                         1.313636       0.096256
                                                         0.488903       0.652848
                                                         0.155332      -0.000345
                          1       9    5fy3             10.277042      -6.690350
                                                         3.564053       0.340627
                                                         1.313636       0.043047
                                                         0.488903       0.291962
                                                         0.155332      -0.000154
                          1       9    5fy2z            10.277042     -14.960077
                                                         3.564053       0.761664
                                                         1.313636       0.096256
                                                         0.488903       0.652848
                                                         0.155332      -0.000345
                          1       9    5fyz2            10.277042     -14.960077
                                                         3.564053       0.761664
                                                         1.313636       0.096256
                                                         0.488903       0.652848
                                                         0.155332      -0.000345
                          1       9    5fz3             10.277042      -6.690350
                                                         3.564053       0.340627
                                                         1.313636       0.043047
                                                         0.488903       0.291962
                                                         0.155332      -0.000154

       Atomic covalent radius [Angstrom]:                                  0.730

       Atomic van der Waals radius [Angstrom]:                             1.520

     The atoms of this atomic kind are PAW atoms (GAPW):
       Hard Gaussian function radius:                                      1.400
       Rho0 radius:                                                        1.400
       Maximum GTO radius used for PAW projector construction:            24.566

     GAPW Soft Basis Set                            TZV2P-MOLOPT-PBE-GTH-q6_soft

       Number of orbital shell sets:                                           1
       Number of orbital shells:                                               9
       Number of primitive Cartesian functions:                                4
       Number of Cartesian basis functions:                                   34
       Number of spherical basis functions:                                   29
       Norm type:                                                              2

       Normalised Cartesian orbitals:

                        Set   Shell   Orbital            Exponent    Coefficient

                          1       1    2s                3.564053      -0.220015
                                                         1.313636       0.373321
                                                         0.488903       0.264765
                                                         0.155332       0.020043

                          1       2    3s                3.564053       0.080746
                                                         1.313636      -0.123482
                                                         0.488903      -0.035459
                                                         0.155332       0.195554

                          1       3    4s                3.564053      -0.604002
                                                         1.313636       0.878850
                                                         0.488903      -0.388670
                                                         0.155332       0.020403

                          1       4    3px               3.564053      -1.277699
                                                         1.313636      -0.654740
                                                         0.488903      -0.229926
                                                         0.155332      -0.043447
                          1       4    3py               3.564053      -1.277699
                                                         1.313636      -0.654740
                                                         0.488903      -0.229926
                                                         0.155332      -0.043447
                          1       4    3pz               3.564053      -1.277699
                                                         1.313636      -0.654740
                                                         0.488903      -0.229926
                                                         0.155332      -0.043447

                          1       5    4px               3.564053       1.678955
                                                         1.313636       0.821025
                                                         0.488903       0.173956
                                                         0.155332      -0.133459
                          1       5    4py               3.564053       1.678955
                                                         1.313636       0.821025
                                                         0.488903       0.173956
                                                         0.155332      -0.133459
                          1       5    4pz               3.564053       1.678955
                                                         1.313636       0.821025
                                                         0.488903       0.173956
                                                         0.155332      -0.133459

                          1       6    5px               3.564053       3.839534
                                                         1.313636       1.365137
                                                         0.488903      -0.557232
                                                         0.155332       0.019989
                          1       6    5py               3.564053       3.839534
                                                         1.313636       1.365137
                                                         0.488903      -0.557232
                                                         0.155332       0.019989
                          1       6    5pz               3.564053       3.839534
                                                         1.313636       1.365137
                                                         0.488903      -0.557232
                                                         0.155332       0.019989

                          1       7    4dx2              3.564053       2.384130
                                                         1.313636       0.763128
                                                         0.488903       0.368121
                                                         0.155332      -0.007951
                          1       7    4dxy              3.564053       4.129435
                                                         1.313636       1.321776
                                                         0.488903       0.637605
                                                         0.155332      -0.013772
                          1       7    4dxz              3.564053       4.129435
                                                         1.313636       1.321776
                                                         0.488903       0.637605
                                                         0.155332      -0.013772
                          1       7    4dy2              3.564053       2.384130
                                                         1.313636       0.763128
                                                         0.488903       0.368121
                                                         0.155332      -0.007951
                          1       7    4dyz              3.564053       4.129435
                                                         1.313636       1.321776
                                                         0.488903       0.637605
                                                         0.155332      -0.013772
                          1       7    4dz2              3.564053       2.384130
                                                         1.313636       0.763128
                                                         0.488903       0.368121
                                                         0.155332      -0.007951

                          1       8    5dx2              3.564053       0.370203
                                                         1.313636       0.144297
                                                         0.488903       0.056503
                                                         0.155332       0.057456
                          1       8    5dxy              3.564053       0.641211
                                                         1.313636       0.249929
                                                         0.488903       0.097865
                                                         0.155332       0.099516
                          1       8    5dxz              3.564053       0.641211
                                                         1.313636       0.249929
                                                         0.488903       0.097865
                                                         0.155332       0.099516
                          1       8    5dy2              3.564053       0.370203
                                                         1.313636       0.144297
                                                         0.488903       0.056503
                                                         0.155332       0.057456
                          1       8    5dyz              3.564053       0.641211
                                                         1.313636       0.249929
                                                         0.488903       0.097865
                                                         0.155332       0.099516
                          1       8    5dz2              3.564053       0.370203
                                                         1.313636       0.144297
                                                         0.488903       0.056503
                                                         0.155332       0.057456

                          1       9    5fx3              3.564053       0.340627
                                                         1.313636       0.043047
                                                         0.488903       0.291962
                                                         0.155332      -0.000154
                          1       9    5fx2y             3.564053       0.761664
                                                         1.313636       0.096256
                                                         0.488903       0.652848
                                                         0.155332      -0.000345
                          1       9    5fx2z             3.564053       0.761664
                                                         1.313636       0.096256
                                                         0.488903       0.652848
                                                         0.155332      -0.000345
                          1       9    5fxy2             3.564053       0.761664
                                                         1.313636       0.096256
                                                         0.488903       0.652848
                                                         0.155332      -0.000345
                          1       9    5fxyz             3.564053       1.319241
                                                         1.313636       0.166721
                                                         0.488903       1.130766
                                                         0.155332      -0.000597
                          1       9    5fxz2             3.564053       0.761664
                                                         1.313636       0.096256
                                                         0.488903       0.652848
                                                         0.155332      -0.000345
                          1       9    5fy3              3.564053       0.340627
                                                         1.313636       0.043047
                                                         0.488903       0.291962
                                                         0.155332      -0.000154
                          1       9    5fy2z             3.564053       0.761664
                                                         1.313636       0.096256
                                                         0.488903       0.652848
                                                         0.155332      -0.000345
                          1       9    5fyz2             3.564053       0.761664
                                                         1.313636       0.096256
                                                         0.488903       0.652848
                                                         0.155332      -0.000345
                          1       9    5fz3              3.564053       0.340627
                                                         1.313636       0.043047
                                                         0.488903       0.291962
                                                         0.155332      -0.000154

     GTH Potential information for                                    GTH-PBE-q6

       Description:                       Goedecker-Teter-Hutter pseudopotential
                                           Goedecker et al., PRB 54, 1703 (1996)
                                          Hartwigsen et al., PRB 58, 3641 (1998)
                                                      Krack, TCA 114, 145 (2005)

       Gaussian exponent of the core charge distribution:               8.366479
       Electronic configuration (s p d ...):                       2   4   0   0

       Parameters of the local part of the GTH pseudopotential:

                          rloc        C1          C2          C3          C4
                        0.244463  -16.675482    2.489086

       Parameters of the non-local part of the GTH pseudopotential:

                   l      r(l)      h(i,j,l)

                   0    0.220971   18.334469

  2. Atomic kind: H                                     Number of atoms:       2

     Orbital Basis Set                                   TZV2P-MOLOPT-PBE-GTH-q1

       Number of orbital shell sets:                                           1
       Number of orbital shells:                                               6
       Number of primitive Cartesian functions:                                5
       Number of Cartesian basis functions:                                   15
       Number of spherical basis functions:                                   14
       Norm type:                                                              2

       Normalised Cartesian orbitals:

                        Set   Shell   Orbital            Exponent    Coefficient

                          1       1    2s                9.586642       0.069481
                                                         2.202360       0.112147
                                                         0.604094       0.130550
                                                         0.146498       0.088477
                                                         0.139526       0.035929

                          1       2    3s                9.586642      -0.087313
                                                         2.202360      -0.117928
                                                         0.604094      -0.099372
                                                         0.146498      -0.105375
                                                         0.139526       0.287433

                          1       3    4s                9.586642       0.882480
                                                         2.202360       0.096105
                                                         0.604094      -0.739894
                                                         0.146498       0.120904
                                                         0.139526       0.013904

                          1       4    3px               9.586642      -2.186125
                                                         2.202360       1.112625
                                                         0.604094       0.330981
                                                         0.146498       0.087385
                                                         0.139526      -0.016905
                          1       4    3py               9.586642      -2.186125
                                                         2.202360       1.112625
                                                         0.604094       0.330981
                                                         0.146498       0.087385
                                                         0.139526      -0.016905
                          1       4    3pz               9.586642      -2.186125
                                                         2.202360       1.112625
                                                         0.604094       0.330981
                                                         0.146498       0.087385
                                                         0.139526      -0.016905

                          1       5    4px               9.586642       1.866908
                                                         2.202360       0.174551
                                                         0.604094       0.060190
                                                         0.146498       0.014182
                                                         0.139526       0.100545
                          1       5    4py               9.586642       1.866908
                                                         2.202360       0.174551
                                                         0.604094       0.060190
                                                         0.146498       0.014182
                                                         0.139526       0.100545
                          1       5    4pz               9.586642       1.866908
                                                         2.202360       0.174551
                                                         0.604094       0.060190
                                                         0.146498       0.014182
                                                         0.139526       0.100545

                          1       6    4dx2              9.586642       0.111501
                                                         2.202360      -0.020603
                                                         0.604094      -0.012612
                                                         0.146498      -0.000171
                                                         0.139526       0.052995
                          1       6    4dxy              9.586642       0.193125
                                                         2.202360      -0.035686
                                                         0.604094      -0.021844
                                                         0.146498      -0.000296
                                                         0.139526       0.091790
                          1       6    4dxz              9.586642       0.193125
                                                         2.202360      -0.035686
                                                         0.604094      -0.021844
                                                         0.146498      -0.000296
                                                         0.139526       0.091790
                          1       6    4dy2              9.586642       0.111501
                                                         2.202360      -0.020603
                                                         0.604094      -0.012612
                                                         0.146498      -0.000171
                                                         0.139526       0.052995
                          1       6    4dyz              9.586642       0.193125
                                                         2.202360      -0.035686
                                                         0.604094      -0.021844
                                                         0.146498      -0.000296
                                                         0.139526       0.091790
                          1       6    4dz2              9.586642       0.111501
                                                         2.202360      -0.020603
                                                         0.604094      -0.012612
                                                         0.146498      -0.000171
                                                         0.139526       0.052995

       Atomic covalent radius [Angstrom]:                                  0.320

       Atomic van der Waals radius [Angstrom]:                             1.090

     The atoms of this atomic kind are PAW atoms (GAPW):
       Hard Gaussian function radius:                                      1.000
       Rho0 radius:                                                        1.000
       Maximum GTO radius used for PAW projector construction:            24.566

     GAPW Soft Basis Set                            TZV2P-MOLOPT-PBE-GTH-q1_soft

       Number of orbital shell sets:                                           1
       Number of orbital shells:                                               6
       Number of primitive Cartesian functions:                                4
       Number of Cartesian basis functions:                                   15
       Number of spherical basis functions:                                   14
       Norm type:                                                              2

       Normalised Cartesian orbitals:

                        Set   Shell   Orbital            Exponent    Coefficient

                          1       1    2s                2.202360       0.112147
                                                         0.604094       0.130550
                                                         0.146498       0.088477
                                                         0.139526       0.035929

                          1       2    3s                2.202360      -0.117928
                                                         0.604094      -0.099372
                                                         0.146498      -0.105375
                                                         0.139526       0.287433

                          1       3    4s                2.202360       0.096105
                                                         0.604094      -0.739894
                                                         0.146498       0.120904
                                                         0.139526       0.013904

                          1       4    3px               2.202360       1.112625
                                                         0.604094       0.330981
                                                         0.146498       0.087385
                                                         0.139526      -0.016905
                          1       4    3py               2.202360       1.112625
                                                         0.604094       0.330981
                                                         0.146498       0.087385
                                                         0.139526      -0.016905
                          1       4    3pz               2.202360       1.112625
                                                         0.604094       0.330981
                                                         0.146498       0.087385
                                                         0.139526      -0.016905

                          1       5    4px               2.202360       0.174551
                                                         0.604094       0.060190
                                                         0.146498       0.014182
                                                         0.139526       0.100545
                          1       5    4py               2.202360       0.174551
                                                         0.604094       0.060190
                                                         0.146498       0.014182
                                                         0.139526       0.100545
                          1       5    4pz               2.202360       0.174551
                                                         0.604094       0.060190
                                                         0.146498       0.014182
                                                         0.139526       0.100545

                          1       6    4dx2              2.202360      -0.020603
                                                         0.604094      -0.012612
                                                         0.146498      -0.000171
                                                         0.139526       0.052995
                          1       6    4dxy              2.202360      -0.035686
                                                         0.604094      -0.021844
                                                         0.146498      -0.000296
                                                         0.139526       0.091790
                          1       6    4dxz              2.202360      -0.035686
                                                         0.604094      -0.021844
                                                         0.146498      -0.000296
                                                         0.139526       0.091790
                          1       6    4dy2              2.202360      -0.020603
                                                         0.604094      -0.012612
                                                         0.146498      -0.000171
                                                         0.139526       0.052995
                          1       6    4dyz              2.202360      -0.035686
                                                         0.604094      -0.021844
                                                         0.146498      -0.000296
                                                         0.139526       0.091790
                          1       6    4dz2              2.202360      -0.020603
                                                         0.604094      -0.012612
                                                         0.146498      -0.000171
                                                         0.139526       0.052995

     GTH Potential information for                                    GTH-PBE-q1

       Description:                       Goedecker-Teter-Hutter pseudopotential
                                           Goedecker et al., PRB 54, 1703 (1996)
                                          Hartwigsen et al., PRB 58, 3641 (1998)
                                                      Krack, TCA 114, 145 (2005)

       Gaussian exponent of the core charge distribution:              12.426182
       Electronic configuration (s p d ...):                       1   0   0   0

       Parameters of the local part of the GTH pseudopotential:

                          rloc        C1          C2          C3          C4
                        0.200593   -4.178068    0.724409


 MOLECULE KIND INFORMATION


 All atoms are their own molecule, skipping detailed information


 TOTAL NUMBERS AND MAXIMUM NUMBERS

  Total number of            - Atomic kinds:                                   2
                             - Atoms:                                          3
                             - Shell sets:                                     3
                             - Shells:                                        21
                             - Primitive Cartesian functions:                 15
                             - Cartesian basis functions:                     64
                             - Spherical basis functions:                     57

  Maximum angular momentum of- Orbital basis functions:                        3
                             - Local part of the GTH pseudopotential:          2
                             - Non-local part of the GTH pseudopotential:      0


 MODULE QUICKSTEP: ATOMIC COORDINATES IN ANGSTROM

   Atom Kind Element         X             Y             Z       Z(eff)     Mass
      1    1 O     8     13.500000     12.500000     12.706235   6.0000  15.9994
      2    2 H     1     12.738910     12.500000     13.293765   1.0000   1.0079
      3    2 H     1     14.261090     12.500000     13.293765   1.0000   1.0079



 SCF PARAMETERS         Density guess:                                    ATOMIC
                        --------------------------------------------------------
                        max_scf:                                             200
                        max_scf_history:                                       0
                        max_diis:                                              4
                        --------------------------------------------------------
                        eps_scf:                                        1.00E-07
                        eps_scf_history:                                0.00E+00
                        eps_diis:                                       0.00E+00
                        eps_eigval:                                     1.00E-05
                        --------------------------------------------------------
                        level_shift [a.u.]:                             0.000000
                        --------------------------------------------------------
                        Outer loop SCF in use 
                        No variables optimised in outer loop
                        eps_scf                                         1.00E-07
                        max_scf                                               20
                        No outer loop optimization
                        step_size                                       5.00E-01

 PW_GRID| Information for grid number                                          1
 PW_GRID| Cutoff [a.u.]                                                    200.0
 PW_GRID| spherical cutoff:                                                   NO
 PW_GRID|   Bounds   1           -180     179                Points:         360
 PW_GRID|   Bounds   2           -160     159                Points:         320
 PW_GRID|   Bounds   3           -160     159                Points:         320
 PW_GRID| Volume element (a.u.^3)  0.3213E-02     Volume (a.u.^3)    118433.2719
 PW_GRID| Grid span                                                    FULLSPACE

 PW_GRID| Information for grid number                                          2
 PW_GRID| Number of the reference grid                                         1
 PW_GRID| Cutoff [a.u.]                                                     66.7
 PW_GRID| spherical cutoff:                                                   NO
 PW_GRID|   Bounds   1            -96      95                Points:         192
 PW_GRID|   Bounds   2            -90      89                Points:         180
 PW_GRID|   Bounds   3            -96      95                Points:         192
 PW_GRID| Volume element (a.u.^3)  0.1785E-01     Volume (a.u.^3)    118433.2719
 PW_GRID| Grid span                                                    FULLSPACE

 PW_GRID| Information for grid number                                          3
 PW_GRID| Number of the reference grid                                         1
 PW_GRID| Cutoff [a.u.]                                                     22.2
 PW_GRID| spherical cutoff:                                                   NO
 PW_GRID|   Bounds   1            -60      59                Points:         120
 PW_GRID|   Bounds   2            -54      53                Points:         108
 PW_GRID|   Bounds   3            -54      53                Points:         108
 PW_GRID| Volume element (a.u.^3)  0.8461E-01     Volume (a.u.^3)    118433.2719
 PW_GRID| Grid span                                                    FULLSPACE

 PW_GRID| Information for grid number                                          4
 PW_GRID| Number of the reference grid                                         1
 PW_GRID| Cutoff [a.u.]                                                      7.4
 PW_GRID| spherical cutoff:                                                   NO
 PW_GRID|   Bounds   1            -32      31                Points:          64
 PW_GRID|   Bounds   2            -30      29                Points:          60
 PW_GRID|   Bounds   3            -32      31                Points:          64
 PW_GRID| Volume element (a.u.^3)  0.4819         Volume (a.u.^3)    118433.2719
 PW_GRID| Grid span                                                    FULLSPACE

 PW_GRID| Information for grid number                                          5
 PW_GRID| Number of the reference grid                                         1
 PW_GRID| Cutoff [a.u.]                                                      2.5
 PW_GRID| spherical cutoff:                                                   NO
 PW_GRID|   Bounds   1            -20      19                Points:          40
 PW_GRID|   Bounds   2            -18      17                Points:          36
 PW_GRID|   Bounds   3            -18      17                Points:          36
 PW_GRID| Volume element (a.u.^3)   2.285         Volume (a.u.^3)    118433.2719
 PW_GRID| Grid span                                                    FULLSPACE

 POISSON| Solver                                                        ANALYTIC
 POISSON| Periodicity                                                       NONE

 RS_GRID| Information for grid number                                          1
 RS_GRID|   Bounds   1           -180     179                Points:         360
 RS_GRID|   Bounds   2           -160     159                Points:         320
 RS_GRID|   Bounds   3           -160     159                Points:         320

 RS_GRID| Information for grid number                                          2
 RS_GRID|   Bounds   1            -96      95                Points:         192
 RS_GRID|   Bounds   2            -90      89                Points:         180
 RS_GRID|   Bounds   3            -96      95                Points:         192

 RS_GRID| Information for grid number                                          3
 RS_GRID|   Bounds   1            -60      59                Points:         120
 RS_GRID|   Bounds   2            -54      53                Points:         108
 RS_GRID|   Bounds   3            -54      53                Points:         108

 RS_GRID| Information for grid number                                          4
 RS_GRID|   Bounds   1            -32      31                Points:          64
 RS_GRID|   Bounds   2            -30      29                Points:          60
 RS_GRID|   Bounds   3            -32      31                Points:          64

 RS_GRID| Information for grid number                                          5
 RS_GRID|   Bounds   1            -20      19                Points:          40
 RS_GRID|   Bounds   2            -18      17                Points:          36
 RS_GRID|   Bounds   3            -18      17                Points:          36

 Extrapolation method: initial_guess

 Atomic guess: The first density matrix is obtained in terms of atomic orbitals
               and electronic configurations assigned to each atomic kind

 Guess for atomic kind: O

 Electronic structure
    Total number of core electrons                                          2.00
    Total number of valence electrons                                       6.00
    Total number of electrons                                               8.00
    Multiplicity                                                   not specified
    S   [  2.00] 2.00
    P      4.00


 *******************************************************************************
                  Iteration          Convergence                     Energy [au]
 *******************************************************************************
                          1        0.796005                     -15.566061392878
                          2        0.774658                     -15.568438641124
                          3        0.351111E-01                 -15.654930076648
                          4        0.189172E-02                 -15.655143267357
                          5        0.220385E-04                 -15.655143728195
                          6        0.421750E-06                 -15.655143728266

 Energy components [Hartree]           Total Energy ::          -15.655143728266
                                        Band Energy ::           -3.002138986161
                                     Kinetic Energy ::           11.764067744793
                                   Potential Energy ::          -27.419211473059
                                      Virial (-V/T) ::            2.330759399545
                                        Core Energy ::          -26.135412074763
                                          XC Energy ::           -3.153998435018
                                     Coulomb Energy ::           13.634266781516
                       Total Pseudopotential Energy ::          -37.934831757086
                       Local Pseudopotential Energy ::          -39.243587898829
                    Nonlocal Pseudopotential Energy ::            1.308756141743
                                        Confinement ::            0.353519375302

 Orbital energies  State     L     Occupation   Energy[a.u.]          Energy[eV]

                       1     0          2.000      -0.864691          -23.529445

                       1     1          4.000      -0.318189           -8.658367


 Total Electron Density at R=0:                                         0.000131

 Guess for atomic kind: H

 Electronic structure
    Total number of core electrons                                          0.00
    Total number of valence electrons                                       1.00
    Total number of electrons                                               1.00
    Multiplicity                                                   not specified
    S      1.00


 *******************************************************************************
                  Iteration          Convergence                     Energy [au]
 *******************************************************************************
                          1        0.471942E-02                  -0.424095106469
                          2        0.464819E-03                  -0.424113671871
                          3        0.190364E-04                  -0.424114007136
                          4        0.633677E-08                  -0.424114007691

 Energy components [Hartree]           Total Energy ::           -0.424114007691
                                        Band Energy ::           -0.198799540676
                                     Kinetic Energy ::            0.462903625467
                                   Potential Energy ::           -0.887017633158
                                      Virial (-V/T) ::            1.916203685515
                                        Core Energy ::           -0.479182004469
                                          XC Energy ::           -0.244447840446
                                     Coulomb Energy ::            0.299515837225
                       Total Pseudopotential Energy ::           -0.960851778720
                       Local Pseudopotential Energy ::           -0.960851778720
                    Nonlocal Pseudopotential Energy ::            0.000000000000
                                        Confinement ::            0.187661487833

 Orbital energies  State     L     Occupation   Energy[a.u.]          Energy[eV]

                       1     0          1.000      -0.198800           -5.409611


 Total Electron Density at R=0:                                         0.230125
 Re-scaling the density matrix to get the right number of electrons
                  # Electrons              Trace(P)               Scaling factor
                            8                 8.000                        1.000

 Number of electrons:                                                          8
 Number of occupied orbitals:                                                  4
 Number of molecular orbitals:                                                 4

 Number of orbital functions:                                                 57
 Number of independent orbital functions:                                     57


 SCF WAVEFUNCTION OPTIMIZATION

  ----------------------------------- OT ---------------------------------------
  Minimizer      : DIIS                : direct inversion
                                         in the iterative subspace
                                         using   7 DIIS vectors
                                         safer DIIS on
  Preconditioner : FULL_ALL            : diagonalization, state selective
  Precond_solver : DEFAULT
  stepsize       :    0.10000000                  energy_gap     :    0.00100000
  eps_taylor     :   0.10000E-15                  max_taylor     :             4
  ----------------------------------- OT ---------------------------------------

  Step     Update method      Time    Convergence         Total energy    Change
  ------------------------------------------------------------------------------
 SKALA_GPW| Atom-composite cross support/maxima   1.926008776013E+00   2.782192077805E-01   1.269733968946E+00   6.513957902455E+00
 SKALA_GPW| Active atom-composite XC energy  -3.9698494099826780E+00
 SKALA_GPW| Active atom-composite electrons   7.9999976272075202E+00
 SKALA_GPW| Active atom-composite density range  -7.5541808743969210E-10   9.2528311896448323E-01
 SKALA_GPW| Active atom-composite tau range  -1.2165745052426098E-08   1.7075051840079407E+01
 SKALA_GPW| Active atom-composite tau integral   1.3546080023964480E+01
 SKALA_GPW| Active atom-composite max gradient   3.5462068442861381E+00
     1 OT DIIS     0.10E+00   44.2     0.27341659       -15.9482101663 -1.59E+01
 SKALA_GPW| Atom-composite cross support/maxima   1.926008776013E+00   1.893924931864E-01   1.284225575097E+00   6.021522163191E+00
 SKALA_GPW| Active atom-composite XC energy  -4.4901395241783337E+00
 SKALA_GPW| Active atom-composite electrons   7.9999972241621675E+00
 SKALA_GPW| Active atom-composite density range  -5.2406389650585814E-10   7.5239901617417548E-01
 SKALA_GPW| Active atom-composite tau range  -1.1118100294338752E-08   2.1178740470612222E+01
 SKALA_GPW| Active atom-composite tau integral   1.5611881657458801E+01
 SKALA_GPW| Active atom-composite max gradient   3.0244242302033961E+00
     2 OT DIIS     0.10E+00   50.1     0.16043718       -16.9636828320 -1.02E+00
 SKALA_GPW| Atom-composite cross support/maxima   1.926008776013E+00   9.690185312112E-02   9.942894116012E-01   4.334143923889E+00
 SKALA_GPW| Active atom-composite XC energy  -4.0822037823039476E+00
 SKALA_GPW| Active atom-composite electrons   7.9999981562626852E+00
 SKALA_GPW| Active atom-composite density range  -4.2164977767678559E-10   6.1408130734586186E-01
 SKALA_GPW| Active atom-composite tau range  -7.6350581172908977E-09   1.5524376401688423E+01
 SKALA_GPW| Active atom-composite tau integral   1.2852211692400827E+01
 SKALA_GPW| Active atom-composite max gradient   2.4488676582259608E+00
     3 OT DIIS     0.10E+00   50.6     0.09038098       -17.1489404278 -1.85E-01
 SKALA_GPW| Atom-composite cross support/maxima   1.926008776013E+00   9.243366710408E-02   1.133357432097E+00   4.564642254707E+00
 SKALA_GPW| Active atom-composite XC energy  -4.2627990745158346E+00
 SKALA_GPW| Active atom-composite electrons   7.9999978997455692E+00
 SKALA_GPW| Active atom-composite density range  -3.7941842721028800E-10   6.4507147101731444E-01
 SKALA_GPW| Active atom-composite tau range  -7.9431520330844262E-09   1.7052247387962382E+01
 SKALA_GPW| Active atom-composite tau integral   1.3800819634526576E+01
 SKALA_GPW| Active atom-composite max gradient   2.6804164743055741E+00
     4 OT DIIS     0.10E+00   53.0     0.03304452       -17.2102909390 -6.14E-02
 SKALA_GPW| Atom-composite cross support/maxima   1.926008776013E+00   9.433658440386E-02   1.097969189349E+00   4.542740856005E+00
 SKALA_GPW| Active atom-composite XC energy  -4.2393569234153397E+00
 SKALA_GPW| Active atom-composite electrons   7.9999979337001372E+00
 SKALA_GPW| Active atom-composite density range  -3.6031188009732304E-10   6.2333954356809018E-01
 SKALA_GPW| Active atom-composite tau range  -7.5576543435328278E-09   1.6673399067791909E+01
 SKALA_GPW| Active atom-composite tau integral   1.3628910719561055E+01
 SKALA_GPW| Active atom-composite max gradient   2.5730717095573006E+00
     5 OT DIIS     0.10E+00   58.5     0.01917934       -17.2238669317 -1.36E-02
 SKALA_GPW| Atom-composite cross support/maxima   1.926008776013E+00   8.307799400523E-02   1.084915788532E+00   4.466508711692E+00
 SKALA_GPW| Active atom-composite XC energy  -4.2356077494649842E+00
 SKALA_GPW| Active atom-composite electrons   7.9999979668429688E+00
 SKALA_GPW| Active atom-composite density range  -3.6229941624242803E-10   6.1185674980708837E-01
 SKALA_GPW| Active atom-composite tau range  -7.5915112195526463E-09   1.6335483928804372E+01
 SKALA_GPW| Active atom-composite tau integral   1.3550160918536843E+01
 SKALA_GPW| Active atom-composite max gradient   2.5336831820258001E+00
     6 OT DIIS     0.10E+00   61.8     0.01353037       -17.2309636565 -7.10E-03
 SKALA_GPW| Atom-composite cross support/maxima   1.926008776013E+00   8.450798728193E-02   1.089348617163E+00   4.531291401188E+00
 SKALA_GPW| Active atom-composite XC energy  -4.2485180584684610E+00
 SKALA_GPW| Active atom-composite electrons   7.9999979181779413E+00
 SKALA_GPW| Active atom-composite density range  -3.6005371257959288E-10   6.1063962728157350E-01
 SKALA_GPW| Active atom-composite tau range  -7.6810148014758383E-09   1.6571424590338054E+01
 SKALA_GPW| Active atom-composite tau integral   1.3647490560489485E+01
 SKALA_GPW| Active atom-composite max gradient   2.5456517837901411E+00
     7 OT DIIS     0.10E+00   57.4     0.00501958       -17.2323066659 -1.34E-03
 SKALA_GPW| Atom-composite cross support/maxima   1.926008776013E+00   8.238530221344E-02   1.086579196275E+00   4.521521050964E+00
 SKALA_GPW| Active atom-composite XC energy  -4.2476650374974030E+00
 SKALA_GPW| Active atom-composite electrons   7.9999979165773558E+00
 SKALA_GPW| Active atom-composite density range  -3.6088140165409951E-10   6.0986840125208119E-01
 SKALA_GPW| Active atom-composite tau range  -7.7042943332778038E-09   1.6540161117853749E+01
 SKALA_GPW| Active atom-composite tau integral   1.3639547070089941E+01
 SKALA_GPW| Active atom-composite max gradient   2.5379933110094792E+00
     8 OT DIIS     0.10E+00   53.0     0.00218296       -17.2326409109 -3.34E-04
 SKALA_GPW| Atom-composite cross support/maxima   1.926008776013E+00   8.143620534572E-02   1.084387111716E+00   4.514516509505E+00
 SKALA_GPW| Active atom-composite XC energy  -4.2462466504472767E+00
 SKALA_GPW| Active atom-composite electrons   7.9999979159283807E+00
 SKALA_GPW| Active atom-composite density range  -3.6193037625119523E-10   6.0922607714096833E-01
 SKALA_GPW| Active atom-composite tau range  -7.7216619910983548E-09   1.6523354209266788E+01
 SKALA_GPW| Active atom-composite tau integral   1.3631885026553840E+01
 SKALA_GPW| Active atom-composite max gradient   2.5329854489448209E+00
     9 OT DIIS     0.10E+00   52.3     0.00046948       -17.2327192171 -7.83E-05
 SKALA_GPW| Atom-composite cross support/maxima   1.926008776013E+00   8.129439933803E-02   1.084172454258E+00   4.514651683547E+00
 SKALA_GPW| Active atom-composite XC energy  -4.2460461322568532E+00
 SKALA_GPW| Active atom-composite electrons   7.9999979152562304E+00
 SKALA_GPW| Active atom-composite density range  -3.6262802070683538E-10   6.0925037770971902E-01
 SKALA_GPW| Active atom-composite tau range  -7.7277385380522165E-09   1.6524582226047858E+01
 SKALA_GPW| Active atom-composite tau integral   1.3631515110041818E+01
 SKALA_GPW| Active atom-composite max gradient   2.5328698502207310E+00
    10 OT DIIS     0.10E+00   53.0     0.00020952       -17.2327250648 -5.85E-06
 SKALA_GPW| Atom-composite cross support/maxima   1.926008776013E+00   8.129103338151E-02   1.084209110626E+00   4.514387200890E+00
 SKALA_GPW| Active atom-composite XC energy  -4.2460640131056699E+00
 SKALA_GPW| Active atom-composite electrons   7.9999979152890832E+00
 SKALA_GPW| Active atom-composite density range  -3.6315782797915316E-10   6.0926091308616037E-01
 SKALA_GPW| Active atom-composite tau range  -7.7311922269142187E-09   1.6525521358223209E+01
 SKALA_GPW| Active atom-composite tau integral   1.3631833355454479E+01
 SKALA_GPW| Active atom-composite max gradient   2.5329217940902478E+00
    11 OT DIIS     0.10E+00   50.3     0.00008012       -17.2327263553 -1.29E-06
 SKALA_GPW| Atom-composite cross support/maxima   1.926008776013E+00   8.125414580887E-02   1.084205291125E+00   4.514130701022E+00
 SKALA_GPW| Active atom-composite XC energy  -4.2460022902543209E+00
 SKALA_GPW| Active atom-composite electrons   7.9999979155649683E+00
 SKALA_GPW| Active atom-composite density range  -3.6335995750878000E-10   6.0925300482053635E-01
 SKALA_GPW| Active atom-composite tau range  -7.7315860109691740E-09   1.6524868171881458E+01
 SKALA_GPW| Active atom-composite tau integral   1.3631461616425652E+01
 SKALA_GPW| Active atom-composite max gradient   2.5329264449787674E+00
    12 OT DIIS     0.10E+00   50.4     0.00003395       -17.2327265390 -1.84E-07
 SKALA_GPW| Atom-composite cross support/maxima   1.926008776013E+00   8.126795802115E-02   1.084254151245E+00   4.514241819348E+00
 SKALA_GPW| Active atom-composite XC energy  -4.2460489747197983E+00
 SKALA_GPW| Active atom-composite electrons   7.9999979155106411E+00
 SKALA_GPW| Active atom-composite density range  -3.6339400957098179E-10   6.0927091118789445E-01
 SKALA_GPW| Active atom-composite tau range  -7.7318767660726195E-09   1.6525366075267257E+01
 SKALA_GPW| Active atom-composite tau integral   1.3631744122521459E+01
 SKALA_GPW| Active atom-composite max gradient   2.5330217038474174E+00
    13 OT DIIS     0.10E+00   53.2     0.00001812       -17.2327265642 -2.52E-08
 SKALA_GPW| Atom-composite cross support/maxima   1.926008776013E+00   8.126236352887E-02   1.084235655095E+00   4.514125670882E+00
 SKALA_GPW| Active atom-composite XC energy  -4.2460205915804456E+00
 SKALA_GPW| Active atom-composite electrons   7.9999979155675005E+00
 SKALA_GPW| Active atom-composite density range  -3.6340441613356095E-10   6.0926381153738618E-01
 SKALA_GPW| Active atom-composite tau range  -7.7315850784594272E-09   1.6525125902466272E+01
 SKALA_GPW| Active atom-composite tau integral   1.3631585298536203E+01
 SKALA_GPW| Active atom-composite max gradient   2.5330091208038605E+00
    14 OT DIIS     0.10E+00   51.4     0.00000748       -17.2327265678 -3.57E-09
 SKALA_GPW| Atom-composite cross support/maxima   1.926008776013E+00   8.126532724931E-02   1.084241493187E+00   4.514112839070E+00
 SKALA_GPW| Active atom-composite XC energy  -4.2460244735094914E+00
 SKALA_GPW| Active atom-composite electrons   7.9999979155525249E+00
 SKALA_GPW| Active atom-composite density range  -3.6340636496324074E-10   6.0926780136044867E-01
 SKALA_GPW| Active atom-composite tau range  -7.7315953252798681E-09   1.6525179402218534E+01
 SKALA_GPW| Active atom-composite tau integral   1.3631613676179310E+01
 SKALA_GPW| Active atom-composite max gradient   2.5330266644067270E+00
    15 OT DIIS     0.10E+00   54.2     0.00000298       -17.2327265698 -2.03E-09
 SKALA_GPW| Atom-composite cross support/maxima   1.926008776013E+00   8.126592527424E-02   1.084238837625E+00   4.514107643223E+00
 SKALA_GPW| Active atom-composite XC energy  -4.2460236295593434E+00
 SKALA_GPW| Active atom-composite electrons   7.9999979155471816E+00
 SKALA_GPW| Active atom-composite density range  -3.6340554932174412E-10   6.0926711710590065E-01
 SKALA_GPW| Active atom-composite tau range  -7.7315603982003295E-09   1.6525179436844450E+01
 SKALA_GPW| Active atom-composite tau integral   1.3631611888038295E+01
 SKALA_GPW| Active atom-composite max gradient   2.5330246121676288E+00
    16 OT DIIS     0.10E+00   53.7     0.00000140       -17.2327265694  4.33E-10
 SKALA_GPW| Atom-composite cross support/maxima   1.926008776013E+00   8.126609780637E-02   1.084238570366E+00   4.514105733250E+00
 SKALA_GPW| Active atom-composite XC energy  -4.2460238027399964E+00
 SKALA_GPW| Active atom-composite electrons   7.9999979155443608E+00
 SKALA_GPW| Active atom-composite density range  -3.6340432316242705E-10   6.0926711552369173E-01
 SKALA_GPW| Active atom-composite tau range  -7.7315478023087992E-09   1.6525181916348767E+01
 SKALA_GPW| Active atom-composite tau integral   1.3631613792257472E+01
 SKALA_GPW| Active atom-composite max gradient   2.5330243254993019E+00
    17 OT DIIS     0.10E+00   54.3     0.00000061       -17.2327265715 -2.13E-09
 SKALA_GPW| Atom-composite cross support/maxima   1.926008776013E+00   8.126588808218E-02   1.084237975558E+00   4.514105248895E+00
 SKALA_GPW| Active atom-composite XC energy  -4.2460239185232105E+00
 SKALA_GPW| Active atom-composite electrons   7.9999979155435312E+00
 SKALA_GPW| Active atom-composite density range  -3.6340320231415578E-10   6.0926694188801467E-01
 SKALA_GPW| Active atom-composite tau range  -7.7315358281935217E-09   1.6525186213592157E+01
 SKALA_GPW| Active atom-composite tau integral   1.3631615145854273E+01
 SKALA_GPW| Active atom-composite max gradient   2.5330238539925301E+00
    18 OT DIIS     0.10E+00   51.6     0.00000035       -17.2327265698  1.73E-09
 SKALA_GPW| Atom-composite cross support/maxima   1.926008776013E+00   8.126590431408E-02   1.084237695763E+00   4.514104173506E+00
 SKALA_GPW| Active atom-composite XC energy  -4.2460236464404169E+00
 SKALA_GPW| Active atom-composite electrons   7.9999979155439975E+00
 SKALA_GPW| Active atom-composite density range  -3.6340262264338685E-10   6.0926681394939008E-01
 SKALA_GPW| Active atom-composite tau range  -7.7315280116634396E-09   1.6525184212220278E+01
 SKALA_GPW| Active atom-composite tau integral   1.3631613717353490E+01
 SKALA_GPW| Active atom-composite max gradient   2.5330232159975283E+00
    19 OT DIIS     0.10E+00   58.7     0.00000019       -17.2327265676  2.23E-09
 SKALA_GPW| Atom-composite cross support/maxima   1.926008776013E+00   8.126580081442E-02   1.084237595200E+00   4.514102972587E+00
 SKALA_GPW| Active atom-composite XC energy  -4.2460235500532395E+00
 SKALA_GPW| Active atom-composite electrons   7.9999979155442196E+00
 SKALA_GPW| Active atom-composite density range  -3.6340210610501127E-10   6.0926683312665908E-01
 SKALA_GPW| Active atom-composite tau range  -7.7315242935465188E-09   1.6525183933489668E+01
 SKALA_GPW| Active atom-composite tau integral   1.3631613219492655E+01
 SKALA_GPW| Active atom-composite max gradient   2.5330233011595178E+00
    20 OT DIIS     0.10E+00   50.8     0.00000009       -17.2327265690 -1.41E-09

  *** SCF run converged in    20 steps ***


  Electronic density on regular grids:         -8.0000000001       -0.0000000001
  Core density on regular grids:                8.0000000000       -0.0000000000
  Total charge density on r-space grids:       -0.0000000001
  Total charge density g-space grids:          -0.0000000001

  Overlap energy of the core charge distribution:               0.00000006046960
  Self energy of the core charge distribution:                -44.35427365113802
  Core Hamiltonian energy:                                     12.88149050141225
  Hartree energy:                                              18.48665412615237
  Exchange-correlation energy:                                  0.00000000000000
  Dispersion energy:                                           -0.00057405582556

  GAPW_XC| Exc from hard and soft atomic rho1:                 -4.24602355005324

  Total energy:                                               -17.23272656898262

  outer SCF iter =    1 RMS gradient =   0.87E-07 energy =        -17.2327265690
  outer SCF loop converged in   1 iterations or   20 steps


 !-----------------------------------------------------------------------------!
                     Mulliken Population Analysis

 #  Atom  Element  Kind  Atomic population                           Net charge
       1     O        1          6.313901                             -0.313901
       2     H        2          0.843049                              0.156951
       3     H        2          0.843049                              0.156951
 # Total charge                              8.000000                 -0.000000

 !-----------------------------------------------------------------------------!

 !-----------------------------------------------------------------------------!
                           Hirshfeld Charges

  #Atom  Element  Kind  Ref Charge     Population                    Net charge
      1       O      1       6.000          7.124                        -1.124
      2       H      2       1.000          0.437                         0.563
      3       H      2       1.000          0.437                         0.563

  Total Charge                                                            0.002
 !-----------------------------------------------------------------------------!

 ENERGY| Total FORCE_EVAL ( QS ) energy [hartree]            -17.232726568982617

 -------------------------------------------------------------------------------
 -                                                                             -
 -                                DBCSR STATISTICS                             -
 -                                                                             -
 -------------------------------------------------------------------------------
 COUNTER                                    TOTAL       BLAS       SMM       ACC
 flops     4 x     4 x     4                22272     100.0%      0.0%      0.0%     
 flops    29 x    14 x     4                68208     100.0%      0.0%      0.0%     
 flops    14 x    29 x     4                68208     100.0%      0.0%      0.0%     
 flops    14 x     4 x     4                90496     100.0%      0.0%      0.0%     
 flops    29 x     4 x     4                93728     100.0%      0.0%      0.0%     
 flops    14 x    14 x     4                98784     100.0%      0.0%      0.0%     
 flops    29 x    29 x     4               141288     100.0%      0.0%      0.0%     
 flops     4 x     4 x    57               147744     100.0%      0.0%      0.0%     
 flops    14 x     4 x    14               307328     100.0%      0.0%      0.0%     
 flops    29 x     4 x    14               318304     100.0%      0.0%      0.0%     
 flops    14 x     4 x    29               318304     100.0%      0.0%      0.0%     
 flops    29 x     4 x    29               329672     100.0%      0.0%      0.0%     
 flops    14 x     4 x    57               536256     100.0%      0.0%      0.0%     
 flops    29 x     4 x    57               555408     100.0%      0.0%      0.0%     
 flops inhomo. stacks                           0       0.0%      0.0%      0.0%
 flops total                         3.096000E+06     100.0%      0.0%      0.0%
 flops max/rank                      3.096000E+06     100.0%      0.0%      0.0%
 matmuls inhomo. stacks                         0       0.0%      0.0%      0.0%
 matmuls total                               1251     100.0%      0.0%      0.0%
 number of processed stacks                  1083     100.0%      0.0%      0.0%
 average stack size                                     1.2       0.0       0.0
 marketing flops                     3.267168E+06
 -------------------------------------------------------------------------------
 # multiplications                            469
 max memory usage/rank              34.895335E+09
 # max total images/rank                        1
 # max 3D layers                                1
 # MPI messages exchanged                       0
 -------------------------------------------------------------------------------
 -                                                                             -
 -                      DBCSR MESSAGE PASSING PERFORMANCE                      -
 -                                                                             -
 -------------------------------------------------------------------------------
 ROUTINE             CALLS      AVE VOLUME [Bytes]
 MP_Bcast               15                     12.
 MP_Allreduce         2293                      8.
 MP_Alltoall          1748                    469.
 MP_ISend             1872                     52.
 MP_IRecv             1872                     52.
 -------------------------------------------------------------------------------

 -------------------------------------------------------------------------------
 -                                                                             -
 -                                GRID STATISTICS                              -
 -                                                                             -
 -------------------------------------------------------------------------------
 LP    KERNEL             BACKEND                              COUNT     PERCENT
 4     collocate ortho    CPU                                   2562      18.31%
 4     integrate ortho    CPU                                   2440      17.44%
 6     collocate ortho    CPU                                   1869      13.36%
 6     integrate ortho    CPU                                   1780      12.72%
 5     collocate ortho    CPU                                   1722      12.31%
 5     integrate ortho    CPU                                   1640      11.72%
 7     collocate ortho    CPU                                    672       4.80%
 7     integrate ortho    CPU                                    640       4.57%
 8     collocate ortho    CPU                                    336       2.40%
 8     integrate ortho    CPU                                    320       2.29%
 0     collocate general  CPU                                      9       0.06%
 0     integrate general  CPU                                      3       0.02%
 -------------------------------------------------------------------------------

 -------------------------------------------------------------------------------
 -                                                                             -
 -                          OFFLOAD MEMPOOL STATISTICS                         -
 -                                                                             -
 -------------------------------------------------------------------------------
 Memory consumption                Number of allocations  Used [MiB]  Size [MiB]
 Host                                                  9         345    89756187
 -------------------------------------------------------------------------------

 MEMORY| Estimated peak process memory [MiB]                               20800

 -------------------------------------------------------------------------------
 ----                             MULTIGRID INFO                            ----
 -------------------------------------------------------------------------------
 count for grid        1:          18664          cutoff [a.u.]          200.00
 count for grid        2:           5760          cutoff [a.u.]           66.67
 count for grid        3:           4216          cutoff [a.u.]           22.22
 count for grid        4:            105          cutoff [a.u.]            7.41
 count for grid        5:              0          cutoff [a.u.]            2.47
 total gridlevel count  :          28745

 -------------------------------------------------------------------------------
 -                                                                             -
 -                         MESSAGE PASSING PERFORMANCE                         -
 -                                                                             -
 -------------------------------------------------------------------------------

 ROUTINE             CALLS      AVE VOLUME [Bytes]
 MP_Group               45
 MP_Bcast              351                  33188.
 MP_Allreduce         2110               28064556.
 MP_Sync                29
 MP_comm_split          24
 -------------------------------------------------------------------------------


 -------------------------------------------------------------------------------
 -                                                                             -
 -                           R E F E R E N C E S                               -
 -                                                                             -
 -------------------------------------------------------------------------------
 
 CP2K version 2026.2 (Development Version), the CP2K developers group (2026).
 CP2K is freely available from https://www.cp2k.org/ .
 
 M. Iannuzzi, J. Wilhelm, F. Stein, A. Bussy, H. Elgabarty, D. Golze, A. Hehn, 
 M. Graml, S. Marek, B. Sertcan Gökmen, C. Schran, H. Forbert, R. Z. 
 Khaliullin, A. Kozhevnikov, M. Taillefumier, R. Meli, V. V. Rybkin, M. Brehm, 
 R. Schade, O. Schütt, J. V. Pototschnig, H. Mirhosseini, A. Knüpfer, D. Marx, 
 M. Krack, J. Hutter, T. D. Kühne.
 J. Phys. Chem. B 130, 1237-1310 (2026).
 The CP2K Program Package Made Simple.
 https://doi.org/10.1021/acs.jpcb.5c05851

 L. Wittmann, I. Gordiy, M. Friede, B. Helmich-Paris, S. Grimme, A. Hansen, M. 
 Bursch.
 Phys. Chem. Chem. Phys. 26, 21379-21394 (2024).
 Extension of the D3 and D4 London dispersion corrections to the full actinides 
 series.
 https://doi.org/10.1039/d4cp01514b

 T. D. Kühne, M. Iannuzzi, M. Del Ben, V. V. Rybkin, P. Seewald, F. Stein, T. 
 Laino, R. Z. Khaliullin, O. Schütt, F. Schiffmann, D. Golze, J. Wilhelm, S. 
 Chulkov, M. H. Bani-Hashemian, V. Weber, U. Borstnik, M. Taillefumier, A. S. 
 Jakobovits, A. Lazzaro, H. Pabst, T. Müller, R. Schade, M. Guidon, S. 
 Andermatt, N. Holmberg, G. K. Schenter, A. Hehn, A. Bussy, F. Belleflamme, G. 
 Tabacchi, A. Glöß, M. Lass, I. Bethune, C. J. Mundy, C. Plessl, M. Watkins, 
 J. VandeVondele, M. Krack, J. Hutter.
 J. Chem. Phys. 152, 194103 (2020).
 CP2K: An electronic structure and molecular dynamics software package - 
 Quickstep: Efficient and accurate electronic structure calculations.
 https://doi.org/10.1063/5.0007045

 L. Goerigk, A. Hansen, C. Bauer, S. Ehrlich, A. Najibi, S. Grimme.
 Phys. Chem. Chem. Phys. 19, 32184-32215 (2017).
 A look at the density functional theory zoo with the advanced GMTKN55 database 
 for general main group thermochemistry, kinetics and noncovalent interactions.
 https://doi.org/10.1039/C7CP04913G

 O. Schuett, P. Messmer, J. Hutter, J. VandeVondele.
 Electronic Structure Calculations on Graphics Processing Units, 173-190 (2016).
 GPU-Accelerated Sparse Matrix-Matrix Multiplication for Linear Scaling Density 
 Functional Theory.
 https://doi.org/10.1002/9781118670712.ch8

 U. Borstnik, J. VandeVondele, V. Weber, J. Hutter.
 Parallel Comput. 40, 47-58 (2014).
 Sparse matrix multiplication: The distributed block-compressed sparse row 
 library.
 https://doi.org/10.1016/j.parco.2014.03.012

 S. Grimme, S. Ehrlich, L. Goerigk.
 J. Comput. Chem. 32, 1456 (2011).
 Effect of the damping function in dispersion corrected density functional 
 theory.
 https://doi.org/10.1002/jcc.21759

 S. Grimme, J. Antony, S. Ehrlich, H. Krieg.
 J. Chem. Phys. 132, 154104 (2010).
 A consistent and accurate ab initio parametrization of density functional 
 dispersion correction (DFT-D) for the 94 elements H-Pu.
 https://doi.org/10.1063/1.3382344

 J. VandeVondele, J. Hutter.
 J. Chem. Phys. 127, 114105 (2007).
 Gaussian basis sets for accurate calculations on molecular systems in gas and 
 condensed phases.
 https://doi.org/10.1063/1.2770708

 M. Krack.
 Theor. Chem. Acc. 114, 145-152 (2005).
 Pseudopotentials for H to Kr optimized for gradient-corrected 
 exchange-correlation functionals.
 https://doi.org/10.1007/s00214-005-0655-y

 M. Frigo, S. G. Johnson.
 Proc. IEEE 93, 216-231 (2005).
 The design and implementation of FFTW3.
 https://doi.org/10.1109/JPROC.2004.840301

 J. VandeVondele, J. Hutter.
 J. Chem. Phys. 118, 4365-4369 (2003).
 An efficient orbital transformation method for electronic structure 
 calculations.
 https://doi.org/10.1063/1.1543154

 C. Hartwigsen, S. Goedecker, J. Hutter.
 Phys. Rev. B 58, 3641-3662 (1998).
 Relativistic separable dual-space Gaussian pseudopotentials from H to Rn.
 https://doi.org/10.1103/PhysRevB.58.3641

 S. Goedecker, M. Teter, J. Hutter.
 Phys. Rev. B 54, 1703-1710 (1996).
 Separable dual-space Gaussian pseudopotentials.
 https://doi.org/10.1103/PhysRevB.54.1703


 -------------------------------------------------------------------------------
 -                                                                             -
 -                                T I M I N G                                  -
 -                                                                             -
 -------------------------------------------------------------------------------
 SUBROUTINE                       CALLS  ASD         SELF TIME        TOTAL TIME
                                MAXIMUM       AVERAGE  MAXIMUM  AVERAGE  MAXIMUM
 CP2K                                 1  1.0    0.068    0.068 1092.034 1092.034
 qs_energies                          1  2.0    0.000    0.000 1086.241 1086.241
 scf_env_do_scf                       1  3.0    0.000    0.000 1072.040 1072.040
 scf_env_do_scf_inner_loop           20  4.0    0.004    0.004 1027.885 1027.885
 qs_ks_update_qs_env                 21  5.0    0.000    0.000  893.688  893.688
 rebuild_ks_matrix                   20  6.0    0.000    0.000  893.685  893.685
 qs_ks_build_kohn_sham_matrix        20  7.0    0.008    0.008  893.684  893.684
 calculate_vxc_atom                  20  8.0  379.232  379.232  766.106  766.106
 fft_wrap_pw1pw2                    839  9.5    0.029    0.029  367.261  367.261
 fft_wrap_pw1pw2_200                347 10.5   32.534   32.534  337.705  337.705
 fft3d_s                            840 11.5  203.203  203.203  203.243  203.243
 qs_rho_update_rho_low               21  5.0    0.002    0.002  183.252  183.252
 calculate_rho_elec                  63  6.0    6.436    6.436  183.169  183.169
 density_rs2pw                       63  7.0    0.008    0.008  152.308  152.308
 xc_pw_derive                       120  9.5    0.003    0.003  124.196  124.196
 sum_up_and_integrate                20  8.0    0.002    0.002   88.282   88.282
 integrate_v_rspace                  60  9.0    0.078    0.078   87.274   87.274
 xc_pw_divergence                    20  9.0    0.001    0.001   86.656   86.656
 potential_pw2rs                     60 10.0    1.007    1.007   86.441   86.441
 skala_atom_torch_backward           20  9.0   75.686   75.686   75.686   75.686
 pw_gather_s                        436 10.8   68.195   68.195   68.195   68.195
 skala_atom_torch_forward            20  9.0    0.007    0.007   58.813   58.813
 torch_model_forward_mol_tensor      20 10.0   58.806   58.806   58.806   58.806
 calc_tau_atom                      180  9.0   50.223   50.223   50.223   50.223
 pw_scatter_s                       403 12.2   46.622   46.622   46.622   46.622
 init_scf_loop                        1  4.0    0.000    0.000   44.154   44.154
 dgaVtaudgb                         120  9.0   27.380   27.380   27.380   27.380
 gaVxcgb_GC                         120  9.0   25.957   25.957   25.957   25.957
 fft_wrap_pw1pw2_70                 123 10.5    2.337    2.337   24.907   24.907
 grid_collocate_task_list            63  7.0   24.425   24.425   24.425   24.425
 -------------------------------------------------------------------------------

 The number of warnings for this run is : 0
 
 -------------------------------------------------------------------------------
  **** **** ******  **  PROGRAM ENDED AT                 2026-08-25 04:29:05.910
 ***** ** ***  *** **   PROGRAM RAN ON                                     terok
 **    ****   ******    PROGRAM RAN BY                                  kuehne88
 ***** **    ** ** **   PROGRAM PROCESS ID                               2867762
  **** **  *******  **  PROGRAM STOPPED IN /home/kuehne88/work/native-skala-tero
                                           k/diet-production-p25/gapwxc-gth-one-
                                           center/c057e61d2d234c2afc4d54f39aa6a5
                                           6272f50994
