 DBCSR| CPU Multiplication driver                                           BLAS (U)
 DBCSR| Multrec recursion limit                                              512 (U)
 DBCSR| Multiplication stack size                                           1000 (D)
 DBCSR| Maximum elements for images                                    UNLIMITED (U)
 DBCSR| Multiplicative factor virtual images                                   1 (U)
 DBCSR| Use multiplication densification                                       T (D)
 DBCSR| Multiplication size stacks                                             3 (U)
 DBCSR| Use memory pool for CPU allocation                                     F (U)
 DBCSR| Number of 3D layers                                               SINGLE (U)
 DBCSR| Use MPI memory allocation                                              F (U)
 DBCSR| Use RMA algorithm                                                      F (U)
 DBCSR| Use Communication thread                                               T (U)
 DBCSR| Communication thread load                                             15 (D)
 DBCSR| MPI: My process id                                                     0
 DBCSR| MPI: Number of processes                                               1
 DBCSR| OMP: Current number of threads                                        20
 DBCSR| OMP: Max number of threads                                            20
 DBCSR| Split modifier for TAS multiplication algorithm                  1.0E+00 (U)


  **** **** ******  **  PROGRAM STARTED AT               2026-09-01 00:03:24.140
 ***** ** ***  *** **   PROGRAM STARTED ON                                 terok
 **    ****   ******    PROGRAM STARTED BY                              kuehne88
 ***** **    ** ** **   PROGRAM PROCESS ID                                456644
  **** **  *******  **  PROGRAM STARTED IN /home/kuehne88/work/native-skala-tero
                                           k/goldzak12/runs/production/hybrid-di
                                           rect/Si/v08

 CP2K| version string:                 CP2K version 2026.2 (Development Version)
 CP2K| source code revision number:                                   c1bff3eeb8
 CP2K| cp2kflags: omp fftw3 gauxc gauxc_mpi gauxc_onedft gauxc_host parallel sca
 CP2K|            lapack mpi_f08 openblas libtorch libtorch_cuda
 CP2K| is freely available from                            https://www.cp2k.org/
 CP2K| Program compiled at                                   2026-08-24 23:53:18
 CP2K| Program compiled on                                                 terok
 CP2K| Program compiled for                                               x86_64
 CP2K| Data directory path    /home/kuehne88/work/native-skala-terok/install-gau
 CP2K| Input file name                                          actual-input.inp

 GLOBAL| Force Environment number                                              1
 GLOBAL| Basis set file name                             BASIS_MOLOPT_UZH_2026.2
 GLOBAL| Potential file name                                POTENTIAL_UZH_2026.2
 GLOBAL| MM Potential file name                                     MM_POTENTIAL
 GLOBAL| Coordinate file name                                      __STD_INPUT__
 GLOBAL| Method name                                                        CP2K
 GLOBAL| Project name                    G12_Si_hybrid-direct_v1p0555555556_k444
 GLOBAL| Run type                                                         ENERGY
 GLOBAL| FFT library                                                       FFTW3
 GLOBAL| Diagonalization library                                       ScaLAPACK
 GLOBAL| Cholesky decomposition library                                ScaLAPACK
 GLOBAL| DGEMM library                                                      BLAS
 GLOBAL| Direct generalized diagonalization requested                          F
 GLOBAL| Orthonormality check for eigenvectors                          DISABLED
 GLOBAL| Matrix multiplication library                                 ScaLAPACK
 GLOBAL| All-to-all communication in single precision                          F
 GLOBAL| FFTs using library dependent lengths                                  F
 GLOBAL| Grid backend                                                       AUTO
 GLOBAL| Global print level                                               MEDIUM
 GLOBAL| MPI I/O enabled                                                       T
 GLOBAL| Total number of message passing processes                             1
 GLOBAL| Number of distributed systems (nodes)                                 1
 GLOBAL| Number of threads for this process                                   20
 GLOBAL| This output is from process                                           0
 GLOBAL| OpenMP stack size per thread (OMP_STACKSIZE)                       512M
 GLOBAL| CPU model name                                       AMD EPYC Processor

 MEMORY| system memory details [Kb]
 MEMORY|                        rank 0           min           max       average
 MEMORY| MemTotal            528104844     528104844     528104844     528104844
 MEMORY| MemFree             319493888     319493888     319493888     319493888
 MEMORY| Buffers                   664           664           664           664
 MEMORY| Cached              144350416     144350416     144350416     144350416
 MEMORY| Slab                 26797480      26797480      26797480      26797480
 MEMORY| SReclaimable         22325896      22325896      22325896      22325896
 MEMORY| MemLikelyFree       486170864     486170864     486170864     486170864


 *** Fundamental physical constants (SI units) ***

 *** Literature: B. J. Mohr and B. N. Taylor,
 ***             CODATA recommended values of the fundamental physical
 ***             constants: 2006, Web Version 5.1
 ***             http://physics.nist.gov/constants

 Speed of light in vacuum [m/s]                             2.99792458000000E+08
 Magnetic constant or permeability of vacuum [N/A**2]       1.25663706143592E-06
 Electric constant or permittivity of vacuum [F/m]          8.85418781762039E-12
 Planck constant (h) [J*s]                                  6.62606896000000E-34
 Planck constant (h-bar) [J*s]                              1.05457162825177E-34
 Elementary charge [C]                                      1.60217648700000E-19
 Electron mass [kg]                                         9.10938215000000E-31
 Electron g factor [ ]                                     -2.00231930436220E+00
 Proton mass [kg]                                           1.67262163700000E-27
 Fine-structure constant                                    7.29735253760000E-03
 Rydberg constant [1/m]                                     1.09737315685270E+07
 Avogadro constant [1/mol]                                  6.02214179000000E+23
 Boltzmann constant [J/K]                                   1.38065040000000E-23
 Atomic mass unit [kg]                                      1.66053878200000E-27
 Bohr radius [m]                                            5.29177208590000E-11

 *** Conversion factors ***

 [u] -> [a.u.]                                              1.82288848426455E+03
 [Angstrom] -> [Bohr] = [a.u.]                              1.88972613288564E+00
 [a.u.] = [Bohr] -> [Angstrom]                              5.29177208590000E-01
 [a.u.] -> [s]                                              2.41888432650478E-17
 [a.u.] -> [fs]                                             2.41888432650478E-02
 [a.u.] -> [J]                                              4.35974393937059E-18
 [a.u.] -> [N]                                              8.23872205491840E-08
 [a.u.] -> [K]                                              3.15774647902944E+05
 [a.u.] -> [kJ/mol]                                         2.62549961709828E+03
 [a.u.] -> [kcal/mol]                                       6.27509468713739E+02
 [a.u.] -> [Pa]                                             2.94210107994716E+13
 [a.u.] -> [bar]                                            2.94210107994716E+08
 [a.u.] -> [atm]                                            2.90362800883016E+08
 [a.u.] -> [eV]                                             2.72113838565563E+01
 [a.u.] -> [Hz]                                             6.57968392072181E+15
 [a.u.] -> [1/cm] (wave numbers)                            2.19474631370540E+05
 [a.u./Bohr**2] -> [1/cm]                                   5.14048714338585E+03
 

 CELL| Volume [angstrom^3]:                                           168.158691
 CELL| Vector a [angstrom]:       5.520     0.000     0.000   |a| =     5.519585
 CELL| Vector b [angstrom]:       0.000     5.520     0.000   |b| =     5.519585
 CELL| Vector c [angstrom]:       0.000     0.000     5.520   |c| =     5.519585
 CELL| Angle (b,c), alpha [degree]:                                    90.000000
 CELL| Angle (a,c), beta  [degree]:                                    90.000000
 CELL| Angle (a,b), gamma [degree]:                                    90.000000
 CELL| Numerically orthorhombic:                                             YES
 CELL| Periodicity                                                           XYZ

 CELL_REF| Volume [angstrom^3]:                                       168.158691
 CELL_REF| Vector a [angstrom     5.520     0.000     0.000   |a| =     5.519585
 CELL_REF| Vector b [angstrom     0.000     5.520     0.000   |b| =     5.519585
 CELL_REF| Vector c [angstrom     0.000     0.000     5.520   |c| =     5.519585
 CELL_REF| Angle (b,c), alpha [degree]:                                90.000000
 CELL_REF| Angle (a,c), beta  [degree]:                                90.000000
 CELL_REF| Angle (a,b), gamma [degree]:                                90.000000
 CELL_REF| Numerically orthorhombic:                                         YES
 CELL_REF| Periodicity                                                       XYZ

 GENERATE|  Preliminary Number of Bonds generated:                             0
 GENERATE|  Achieved consistency in connectivity generation.

 *** WARNING in cryssym.F:203 :: Symmetry library SPGLIB not available ***


 *******************************************************************************
 *******************************************************************************
 **                                                                           **
 **     #####                         ##              ##                      **
 **    ##   ##            ##          ##              ##                      **
 **   ##     ##                       ##            ######                    **
 **   ##     ##  ##   ##  ##   #####  ##  ##   ####   ##    #####    #####    **
 **   ##     ##  ##   ##  ##  ##      ## ##   ##      ##   ##   ##  ##   ##   **
 **   ##  ## ##  ##   ##  ##  ##      ####     ###    ##   ######   ######    **
 **    ##  ###   ##   ##  ##  ##      ## ##      ##   ##   ##       ##        **
 **     #######   #####   ##   #####  ##  ##  ####    ##    #####   ##        **
 **           ##                                                    ##        **
 **                                                                           **
 **                                                ... make the atoms dance   **
 **                                                                           **
 **            Copyright (C) by CP2K developers group (2000-2026)             **
 **                      J. Chem. Phys. 152, 194103 (2020)                    **
 **                                                                           **
 *******************************************************************************

 DFT| Spin restricted Kohn-Sham (RKS) calculation                            RKS
 DFT| Multiplicity                                                             1
 DFT| Number of spin states                                                    1
 DFT| Charge                                                                   0
 DFT| Self-interaction correction (SIC)                                       NO
 DFT| Cutoffs: density                                              1.000000E-10
 DFT|          gradient                                             1.000000E-10
 DFT|          tau                                                  1.000000E-10
 DFT|          cutoff_smoothing_range                               0.000000E+00
 DFT| XC density smoothing                                                  NONE
 DFT| XC derivatives                                                          PW

 FUNCTIONAL| GAUXC:
 FUNCTIONAL| Functional computed by GauXC Skala model SKALA                     

 vdW POTENTIAL|                                                   Pair Potential
 vdW POTENTIAL|          DFT-D3 (Version 3.1)
 vdW POTENTIAL|          Potential Form: S. Grimme et al, JCP 132: 154104 (2010)
 vdW POTENTIAL|          BJ Damping: S. Grimme et al, JCC 32: 1456 (2011)
 vdW POTENTIAL|          Cutoff Radius [Bohr]:                             37.79
 vdW POTENTIAL|          s6 Scaling Factor:                               1.0000
 vdW POTENTIAL|          a1 Damping Factor:                               0.3981
 vdW POTENTIAL|          s8 Scaling Factor:                               1.9889
 vdW POTENTIAL|          a2 Damping Factor:                               4.4211
 vdW POTENTIAL|          Cutoff for CN calculation:                   0.1000E-05

 QS| Method:                                                                GAPW
 QS| Density plane wave grid type                        NON-SPHERICAL FULLSPACE
 QS| Number of grid levels:                                                    5
 QS| Density cutoff [a.u.]:                                                400.0
 QS| Multi grid cutoff [a.u.]: 1) grid level                               400.0
 QS|                           2) grid level                               133.3
 QS|                           3) grid level                                44.4
 QS|                           4) grid level                                14.8
 QS|                           5) grid level                                 4.9
 QS| Grid level progression factor:                                          3.0
 QS| Relative density cutoff [a.u.]:                                        30.0
 QS| Interaction thresholds: eps_pgf_orb:                                1.0E-06
 QS|                         eps_filter_matrix:                          0.0E+00
 QS|                         eps_core_charge:                            1.0E-14
 QS|                         eps_rho_gspace:                             1.0E-12
 QS|                         eps_rho_rspace:                             1.0E-12
 QS|                         eps_gvg_rspace:                             1.0E-06
 QS|                         eps_ppl:                                    1.0E-02
 QS|                         eps_ppnl:                                   1.0E-08
 QS| GAPW|      XC integration using accurate scheme: Ref. exponent     6.000000
 QS| GAPW|      One center basis extended with primitives (small:s)
 QS| GAPW|                   eps_fit:                                    1.0E-04
 QS| GAPW|                   eps_iso:                                    1.0E-12
 QS| GAPW|                   eps_svd:                                    1.0E-08
 QS| GAPW|                   eps_cpc:                                    1.0E-12
 QS| GAPW|   atom-r-grid: quadrature:                                     GC_LOG
 QS| GAPW|      atom-s-grid:  max l :                                          6
 QS| GAPW|      max_l_rho0 :                                                   4
 QS| GAPW|      At least one kind is NOT PAW, i.e. it has only soft AO 
 QS| GAPW|      The NOT PAW atoms are treated fully GPW


 ATOMIC KIND INFORMATION

  1. Atomic kind: Si                                    Number of atoms:       8

     Orbital Basis Set                                   TZV2P-MOLOPT-PBE-GTH-q4

       Number of orbital shell sets:                                           1
       Number of orbital shells:                                               9
       Number of primitive Cartesian functions:                                4
       Number of Cartesian basis functions:                                   34
       Number of spherical basis functions:                                   29
       Norm type:                                                              2

       Normalised Cartesian orbitals:

                        Set   Shell   Orbital            Exponent    Coefficient

                          1       1    2s                1.225726       0.396008
                                                         0.420991      -0.156102
                                                         0.169524      -0.164194
                                                         0.047522       0.001359

                          1       2    3s                1.225726      -0.314955
                                                         0.420991       0.115254
                                                         0.169524      -0.070030
                                                         0.047522      -0.053096

                          1       3    4s                1.225726      -0.770932
                                                         0.420991       0.139640
                                                         0.169524      -0.125600
                                                         0.047522       0.070994

                          1       4    3px               1.225726       0.193725
                                                         0.420991      -0.297086
                                                         0.169524      -0.078660
                                                         0.047522       0.000093
                          1       4    3py               1.225726       0.193725
                                                         0.420991      -0.297086
                                                         0.169524      -0.078660
                                                         0.047522       0.000093
                          1       4    3pz               1.225726       0.193725
                                                         0.420991      -0.297086
                                                         0.169524      -0.078660
                                                         0.047522       0.000093

                          1       5    4px               1.225726       0.165208
                                                         0.420991      -0.261223
                                                         0.169524       0.105025
                                                         0.047522       0.021509
                          1       5    4py               1.225726       0.165208
                                                         0.420991      -0.261223
                                                         0.169524       0.105025
                                                         0.047522       0.021509
                          1       5    4pz               1.225726       0.165208
                                                         0.420991      -0.261223
                                                         0.169524       0.105025
                                                         0.047522       0.021509

                          1       6    5px               1.225726      -1.548058
                                                         0.420991       0.146763
                                                         0.169524      -0.083355
                                                         0.047522       0.028085
                          1       6    5py               1.225726      -1.548058
                                                         0.420991       0.146763
                                                         0.169524      -0.083355
                                                         0.047522       0.028085
                          1       6    5pz               1.225726      -1.548058
                                                         0.420991       0.146763
                                                         0.169524      -0.083355
                                                         0.047522       0.028085

                          1       7    4dx2              1.225726       0.452920
                                                         0.420991       0.207665
                                                         0.169524       0.027528
                                                         0.047522       0.000294
                          1       7    4dxy              1.225726       0.784480
                                                         0.420991       0.359686
                                                         0.169524       0.047680
                                                         0.047522       0.000509
                          1       7    4dxz              1.225726       0.784480
                                                         0.420991       0.359686
                                                         0.169524       0.047680
                                                         0.047522       0.000509
                          1       7    4dy2              1.225726       0.452920
                                                         0.420991       0.207665
                                                         0.169524       0.027528
                                                         0.047522       0.000294
                          1       7    4dyz              1.225726       0.784480
                                                         0.420991       0.359686
                                                         0.169524       0.047680
                                                         0.047522       0.000509
                          1       7    4dz2              1.225726       0.452920
                                                         0.420991       0.207665
                                                         0.169524       0.027528
                                                         0.047522       0.000294

                          1       8    5dx2              1.225726      -2.995584
                                                         0.420991       0.255705
                                                         0.169524      -0.031782
                                                         0.047522       0.000380
                          1       8    5dxy              1.225726      -5.188503
                                                         0.420991       0.442894
                                                         0.169524      -0.055048
                                                         0.047522       0.000659
                          1       8    5dxz              1.225726      -5.188503
                                                         0.420991       0.442894
                                                         0.169524      -0.055048
                                                         0.047522       0.000659
                          1       8    5dy2              1.225726      -2.995584
                                                         0.420991       0.255705
                                                         0.169524      -0.031782
                                                         0.047522       0.000380
                          1       8    5dyz              1.225726      -5.188503
                                                         0.420991       0.442894
                                                         0.169524      -0.055048
                                                         0.047522       0.000659
                          1       8    5dz2              1.225726      -2.995584
                                                         0.420991       0.255705
                                                         0.169524      -0.031782
                                                         0.047522       0.000380

                          1       9    5fx3              1.225726       0.367804
                                                         0.420991       0.134089
                                                         0.169524       0.010284
                                                         0.047522      -0.000037
                          1       9    5fx2y             1.225726       0.822434
                                                         0.420991       0.299833
                                                         0.169524       0.022995
                                                         0.047522      -0.000084
                          1       9    5fx2z             1.225726       0.822434
                                                         0.420991       0.299833
                                                         0.169524       0.022995
                                                         0.047522      -0.000084
                          1       9    5fxy2             1.225726       0.822434
                                                         0.420991       0.299833
                                                         0.169524       0.022995
                                                         0.047522      -0.000084
                          1       9    5fxyz             1.225726       1.424498
                                                         0.420991       0.519326
                                                         0.169524       0.039829
                                                         0.047522      -0.000145
                          1       9    5fxz2             1.225726       0.822434
                                                         0.420991       0.299833
                                                         0.169524       0.022995
                                                         0.047522      -0.000084
                          1       9    5fy3              1.225726       0.367804
                                                         0.420991       0.134089
                                                         0.169524       0.010284
                                                         0.047522      -0.000037
                          1       9    5fy2z             1.225726       0.822434
                                                         0.420991       0.299833
                                                         0.169524       0.022995
                                                         0.047522      -0.000084
                          1       9    5fyz2             1.225726       0.822434
                                                         0.420991       0.299833
                                                         0.169524       0.022995
                                                         0.047522      -0.000084
                          1       9    5fz3              1.225726       0.367804
                                                         0.420991       0.134089
                                                         0.169524       0.010284
                                                         0.047522      -0.000037

       Atomic covalent radius [Angstrom]:                                  1.110

       Atomic van der Waals radius [Angstrom]:                             2.100

     GTH Potential information for                                    GTH-PBE-q4

       Description:                       Goedecker-Teter-Hutter pseudopotential
                                           Goedecker et al., PRB 54, 1703 (1996)
                                          Hartwigsen et al., PRB 58, 3641 (1998)
                                                      Krack, TCA 114, 145 (2005)

       Gaussian exponent of the core charge distribution:               2.582849
       Electronic configuration (s p d ...):                       2   2   0   0

       Parameters of the local part of the GTH pseudopotential:

                          rloc        C1          C2          C3          C4
                        0.439983   -6.269270

       Parameters of the non-local part of the GTH pseudopotential:

                   l      r(l)      h(i,j,l)

                   0    0.435635    8.951852   -2.706271
                                   -2.706271    3.493787
                   1    0.497958    2.431277


 MOLECULE KIND INFORMATION


 All atoms are their own molecule, skipping detailed information


 TOTAL NUMBERS AND MAXIMUM NUMBERS

  Total number of            - Atomic kinds:                                   1
                             - Atoms:                                          8
                             - Shell sets:                                     8
                             - Shells:                                        72
                             - Primitive Cartesian functions:                 32
                             - Cartesian basis functions:                    272
                             - Spherical basis functions:                    232

  Maximum angular momentum of- Orbital basis functions:                        3
                             - Local part of the GTH pseudopotential:          0
                             - Non-local part of the GTH pseudopotential:      2


 MODULE QUICKSTEP: ATOMIC COORDINATES IN ANGSTROM

   Atom Kind Element         X             Y             Z       Z(eff)     Mass
      1    1 Si   14      0.000000      0.000000      0.000000   4.0000  28.0855
      2    1 Si   14      0.000000      2.759793      2.759793   4.0000  28.0855
      3    1 Si   14      2.759793      0.000000      2.759793   4.0000  28.0855
      4    1 Si   14      2.759793      2.759793      0.000000   4.0000  28.0855
      5    1 Si   14      1.379896      1.379896      1.379896   4.0000  28.0855
      6    1 Si   14      1.379896      4.139689      4.139689   4.0000  28.0855
      7    1 Si   14      4.139689      1.379896      4.139689   4.0000  28.0855
      8    1 Si   14      4.139689      4.139689      1.379896   4.0000  28.0855



 SCF PARAMETERS         Density guess:                                    ATOMIC
                        --------------------------------------------------------
                        max_scf:                                             200
                        max_scf_history:                                       0
                        max_diis:                                              4
                        --------------------------------------------------------
                        eps_scf:                                        5.00E-06
                        eps_scf_history:                                0.00E+00
                        eps_diis:                                       1.00E-01
                        eps_eigval:                                     1.00E-05
                        --------------------------------------------------------
                        level_shift [a.u.]:                             0.000000
                        --------------------------------------------------------
                        Mixing method:                           DIRECT_P_MIXING
                        --------------------------------------------------------
                        Outer loop SCF in use 
                        No variables optimised in outer loop
                        eps_scf                                         5.00E-06
                        max_scf                                                5
                        No outer loop optimization
                        step_size                                       5.00E-01

 PW_GRID| Information for grid number                                          1
 PW_GRID| Cutoff [a.u.]                                                    400.0
 PW_GRID| spherical cutoff:                                                   NO
 PW_GRID|   Bounds   1            -48      47                Points:          96
 PW_GRID|   Bounds   2            -48      47                Points:          96
 PW_GRID|   Bounds   3            -48      47                Points:          96
 PW_GRID| Volume element (a.u.^3)  0.1283E-02     Volume (a.u.^3)      1134.7911
 PW_GRID| Grid span                                                    FULLSPACE

 PW_GRID| Information for grid number                                          2
 PW_GRID| Number of the reference grid                                         1
 PW_GRID| Cutoff [a.u.]                                                    133.3
 PW_GRID| spherical cutoff:                                                   NO
 PW_GRID|   Bounds   1            -30      29                Points:          60
 PW_GRID|   Bounds   2            -30      29                Points:          60
 PW_GRID|   Bounds   3            -30      29                Points:          60
 PW_GRID| Volume element (a.u.^3)  0.5254E-02     Volume (a.u.^3)      1134.7911
 PW_GRID| Grid span                                                    FULLSPACE

 PW_GRID| Information for grid number                                          3
 PW_GRID| Number of the reference grid                                         1
 PW_GRID| Cutoff [a.u.]                                                     44.4
 PW_GRID| spherical cutoff:                                                   NO
 PW_GRID|   Bounds   1            -16      15                Points:          32
 PW_GRID|   Bounds   2            -16      15                Points:          32
 PW_GRID|   Bounds   3            -16      15                Points:          32
 PW_GRID| Volume element (a.u.^3)  0.3463E-01     Volume (a.u.^3)      1134.7911
 PW_GRID| Grid span                                                    FULLSPACE

 PW_GRID| Information for grid number                                          4
 PW_GRID| Number of the reference grid                                         1
 PW_GRID| Cutoff [a.u.]                                                     14.8
 PW_GRID| spherical cutoff:                                                   NO
 PW_GRID|   Bounds   1            -10       9                Points:          20
 PW_GRID|   Bounds   2            -10       9                Points:          20
 PW_GRID|   Bounds   3            -10       9                Points:          20
 PW_GRID| Volume element (a.u.^3)  0.1418         Volume (a.u.^3)      1134.7911
 PW_GRID| Grid span                                                    FULLSPACE

 PW_GRID| Information for grid number                                          5
 PW_GRID| Number of the reference grid                                         1
 PW_GRID| Cutoff [a.u.]                                                      4.9
 PW_GRID| spherical cutoff:                                                   NO
 PW_GRID|   Bounds   1             -6       5                Points:          12
 PW_GRID|   Bounds   2             -6       5                Points:          12
 PW_GRID|   Bounds   3             -6       5                Points:          12
 PW_GRID| Volume element (a.u.^3)  0.6567         Volume (a.u.^3)      1134.7911
 PW_GRID| Grid span                                                    FULLSPACE

 POISSON| Solver                                                        PERIODIC
 POISSON| Periodicity                                                        XYZ

 RS_GRID| Information for grid number                                          1
 RS_GRID|   Bounds   1            -48      47                Points:          96
 RS_GRID|   Bounds   2            -48      47                Points:          96
 RS_GRID|   Bounds   3            -48      47                Points:          96

 RS_GRID| Information for grid number                                          2
 RS_GRID|   Bounds   1            -30      29                Points:          60
 RS_GRID|   Bounds   2            -30      29                Points:          60
 RS_GRID|   Bounds   3            -30      29                Points:          60

 RS_GRID| Information for grid number                                          3
 RS_GRID|   Bounds   1            -16      15                Points:          32
 RS_GRID|   Bounds   2            -16      15                Points:          32
 RS_GRID|   Bounds   3            -16      15                Points:          32

 RS_GRID| Information for grid number                                          4
 RS_GRID|   Bounds   1            -10       9                Points:          20
 RS_GRID|   Bounds   2            -10       9                Points:          20
 RS_GRID|   Bounds   3            -10       9                Points:          20

 RS_GRID| Information for grid number                                          5
 RS_GRID|   Bounds   1             -6       5                Points:          12
 RS_GRID|   Bounds   2             -6       5                Points:          12
 RS_GRID|   Bounds   3             -6       5                Points:          12

 *******************************************************************************
                                    Kpoints
 *******************************************************************************
 BRILLOUIN| K-point scheme                                        Monkhorst-Pack
 BRILLOUIN| K-Point grid                                             4    4    4
 BRILLOUIN| Gamma-centered k-point mesh                                     ON
 BRILLOUIN| K-point symmetry accuracy                               0.100000E-07
 BRILLOUIN| K-Point point group symmetrization                                ON
 BRILLOUIN| Symmetry backend                                               K290
 BRILLOUIN| Symmetry reduction method                                      K290
 BRILLOUIN| Wavefunction type                                            COMPLEX
 BRILLOUIN| List of Kpoints [2 Pi/Bohr]                                       10
 BRILLOUIN| Number           Weight            X              Y              Z
 BRILLOUIN|     1           0.12500       -0.25000       -0.25000       -0.25000
 BRILLOUIN|     2           0.18750       -0.25000       -0.25000        0.00000
 BRILLOUIN|     3           0.18750       -0.25000       -0.25000        0.50000
 BRILLOUIN|     4           0.09375       -0.25000        0.00000        0.00000
 BRILLOUIN|     5           0.18750       -0.25000        0.00000        0.50000
 BRILLOUIN|     6           0.09375       -0.25000        0.50000        0.50000
 BRILLOUIN|     7           0.01562        0.00000        0.00000        0.00000
 BRILLOUIN|     8           0.04688        0.00000        0.00000        0.50000
 BRILLOUIN|     9           0.04688        0.00000        0.50000        0.50000
 BRILLOUIN|    10           0.01562        0.50000        0.50000        0.50000
 *******************************************************************************

 Extrapolation method: initial_guess

 Atomic guess: The first density matrix is obtained in terms of atomic orbitals
               and electronic configurations assigned to each atomic kind

 Guess for atomic kind: Si

 Electronic structure
    Total number of core electrons                                         10.00
    Total number of valence electrons                                       4.00
    Total number of electrons                                              14.00
    Multiplicity                                                   not specified
    S   [  2.00  2.00] 2.00
    P   [  6.00] 2.00


 *******************************************************************************
                  Iteration          Convergence                     Energy [au]
 *******************************************************************************
                          1        0.543323E-01                  -3.660143219958
                          2        0.234047E-01                  -3.663009798780
                          3        0.226205E-03                  -3.663777572878
                          4        0.558056E-06                  -3.663777636937

 Energy components [Hartree]           Total Energy ::           -3.663777636937
                                        Band Energy ::           -0.984334993298
                                     Kinetic Energy ::            1.376908294426
                                   Potential Energy ::           -5.040685931362
                                      Virial (-V/T) ::            3.660872660706
                                        Core Energy ::           -5.661357165131
                                          XC Energy ::           -0.978185127227
                                     Coulomb Energy ::            2.975764655422
                       Total Pseudopotential Energy ::           -7.083968923771
                       Local Pseudopotential Energy ::           -7.928832139320
                    Nonlocal Pseudopotential Energy ::            0.844863215548
                                        Confinement ::            0.457034642149

 Orbital energies  State     L     Occupation   Energy[a.u.]          Energy[eV]

                       1     0          2.000      -0.369997          -10.068127

                       1     1          2.000      -0.122171           -3.324432


 Total Electron Density at R=0:                                         0.000005
 Re-scaling the density matrix to get the right number of electrons
                  # Electrons              Trace(P)               Scaling factor
                           32                32.000                        1.000

 Number of electrons:                                                         32
 Number of occupied orbitals:                                                 16
 Number of molecular orbitals:                                                16

 Number of orbital functions:                                                232
 Number of independent orbital functions:                                    232


 SCF WAVEFUNCTION OPTIMIZATION

  Step     Update method      Time    Convergence         Total energy    Change
  ------------------------------------------------------------------------------

 *** WARNING in qs_ks_methods.F:773 :: Native SKALA grid evaluation with   ***
 *** k-points is using the CPU TorchScript path. Use a mutually compatible ***
 *** BLAS, ScaLAPACK, OpenMP, and LibTorch runtime stack, or select        ***
 *** NATIVE_GRID_USE_CUDA T.                                               ***

 SKALA_GPW| Atom-composite cross support/maxima   0.000000000000E+00   0.000000000000E+00   0.000000000000E+00   0.000000000000E+00
 SKALA_GPW| Active atom-composite XC energy  -9.2182921668556652E+00
 SKALA_GPW| Active atom-composite electrons   3.2045429717988362E+01
 SKALA_GPW| Active atom-composite density range   1.6640903463524248E-03   3.2626974270937838E-02
 SKALA_GPW| Active atom-composite tau range   7.9827230223522279E-04   2.8543986562212194E-02
 SKALA_GPW| Active atom-composite tau integral   1.1031608817850236E+01
 SKALA_GPW| Active atom-composite max gradient   4.0579002121761014E-02
     1 P_Mix/Diag. 0.10E+00   71.5     0.32450660       -31.9169582130 -3.19E+01
 SKALA_GPW| Atom-composite cross support/maxima   0.000000000000E+00   0.000000000000E+00   0.000000000000E+00   0.000000000000E+00
 SKALA_GPW| Active atom-composite XC energy  -9.2455907205401129E+00
 SKALA_GPW| Active atom-composite electrons   3.2044331749141257E+01
 SKALA_GPW| Active atom-composite density range   1.5170834712383812E-03   3.3506418263402248E-02
 SKALA_GPW| Active atom-composite tau range   7.8233723262524711E-04   2.8983311914535324E-02
 SKALA_GPW| Active atom-composite tau integral   1.1218609541720026E+01
 SKALA_GPW| Active atom-composite max gradient   4.0659231931160965E-02
     2 P_Mix/Diag. 0.10E+00   53.8     0.31517427       -31.8776294167  3.93E-02
 SKALA_GPW| Atom-composite cross support/maxima   0.000000000000E+00   0.000000000000E+00   0.000000000000E+00   0.000000000000E+00
 SKALA_GPW| Active atom-composite XC energy  -9.2758975966186998E+00
 SKALA_GPW| Active atom-composite electrons   3.2043335867823622E+01
 SKALA_GPW| Active atom-composite density range   1.3848067017953622E-03   3.4385385140243557E-02
 SKALA_GPW| Active atom-composite tau range   7.6714313959913647E-04   2.9398639693506409E-02
 SKALA_GPW| Active atom-composite tau integral   1.1390369272928506E+01
 SKALA_GPW| Active atom-composite max gradient   4.0706688072635534E-02
     3 P_Mix/Diag. 0.10E+00   51.0     0.30341417       -31.8459383212  3.17E-02
 SKALA_GPW| Atom-composite cross support/maxima   0.000000000000E+00   0.000000000000E+00   0.000000000000E+00   0.000000000000E+00
 SKALA_GPW| Active atom-composite XC energy  -9.3080416750639579E+00
 SKALA_GPW| Active atom-composite electrons   3.2042438376817778E+01
 SKALA_GPW| Active atom-composite density range   1.2661398524937153E-03   3.5308534466243484E-02
 SKALA_GPW| Active atom-composite tau range   7.5289684655419878E-04   2.9807485049725323E-02
 SKALA_GPW| Active atom-composite tau integral   1.1547960397135423E+01
 SKALA_GPW| Active atom-composite max gradient   4.0711176472897889E-02
     4 P_Mix/Diag. 0.10E+00   54.2     0.28965986       -31.8202752892  2.57E-02
 SKALA_GPW| Atom-composite cross support/maxima   0.000000000000E+00   0.000000000000E+00   0.000000000000E+00   0.000000000000E+00
 SKALA_GPW| Active atom-composite XC energy  -9.3409965915904305E+00
 SKALA_GPW| Active atom-composite electrons   3.2041636499657315E+01
 SKALA_GPW| Active atom-composite density range   1.1605794321478248E-03   3.6193795698855023E-02
 SKALA_GPW| Active atom-composite tau range   7.3987014559410719E-04   3.0186633705371734E-02
 SKALA_GPW| Active atom-composite tau integral   1.1691855415587748E+01
 SKALA_GPW| Active atom-composite max gradient   4.0682490374024188E-02
     5 P_Mix/Diag. 0.10E+00   53.6     0.27601251       -31.7994773305  2.08E-02
 SKALA_GPW| Atom-composite cross support/maxima   0.000000000000E+00   0.000000000000E+00   0.000000000000E+00   0.000000000000E+00
 SKALA_GPW| Active atom-composite XC energy  -9.3736718025180377E+00
 SKALA_GPW| Active atom-composite electrons   3.2040928533365502E+01
 SKALA_GPW| Active atom-composite density range   1.0680442718725884E-03   3.7031656090385327E-02
 SKALA_GPW| Active atom-composite tau range   7.2826097819557098E-04   3.0545435980819071E-02
 SKALA_GPW| Active atom-composite tau integral   1.1822725404278190E+01
 SKALA_GPW| Active atom-composite max gradient   4.0628372608248406E-02
     6 P_Mix/Diag. 0.10E+00   52.9     0.26294433       -31.7824584116  1.70E-02
 SKALA_GPW| Atom-composite cross support/maxima   0.000000000000E+00   0.000000000000E+00   0.000000000000E+00   0.000000000000E+00
 SKALA_GPW| Active atom-composite XC energy  -9.4040351584433459E+00
 SKALA_GPW| Active atom-composite electrons   3.2040319104289821E+01
 SKALA_GPW| Active atom-composite density range   9.8695410701266518E-04   3.7792719836274337E-02
 SKALA_GPW| Active atom-composite tau range   7.1849752812868349E-04   3.0869133740718879E-02
 SKALA_GPW| Active atom-composite tau integral   1.1939080420964221E+01
 SKALA_GPW| Active atom-composite max gradient   4.0551192730328735E-02
     7 P_Mix/Diag. 0.10E+00   52.6     0.24946997       -31.7677444523  1.47E-02
 SKALA_GPW| Atom-composite cross support/maxima   0.000000000000E+00   0.000000000000E+00   0.000000000000E+00   0.000000000000E+00
 SKALA_GPW| Active atom-composite XC energy  -9.4305217746912806E+00
 SKALA_GPW| Active atom-composite electrons   3.2039810123454622E+01
 SKALA_GPW| Active atom-composite density range   9.1449313788556218E-04   3.8466026983109074E-02
 SKALA_GPW| Active atom-composite tau range   7.1091341442929543E-04   3.1133638470280715E-02
 SKALA_GPW| Active atom-composite tau integral   1.2039077125567616E+01
 SKALA_GPW| Active atom-composite max gradient   4.0453337314785592E-02
     8 P_Mix/Diag. 0.10E+00   51.9     0.23498740       -31.7543922574  1.34E-02
 SKALA_GPW| Atom-composite cross support/maxima   0.000000000000E+00   0.000000000000E+00   0.000000000000E+00   0.000000000000E+00
 SKALA_GPW| Active atom-composite XC energy  -9.4529791537842129E+00
 SKALA_GPW| Active atom-composite electrons   3.2039390933076568E+01
 SKALA_GPW| Active atom-composite density range   8.4858880276821361E-04   3.9068449623729511E-02
 SKALA_GPW| Active atom-composite tau range   7.0535847388147844E-04   3.1334705057401602E-02
 SKALA_GPW| Active atom-composite tau integral   1.2123486083186924E+01
 SKALA_GPW| Active atom-composite max gradient   4.0340441150855291E-02
     9 P_Mix/Diag. 0.10E+00   56.5     0.21950155       -31.7420948409  1.23E-02
 SKALA_GPW| Atom-composite cross support/maxima   0.000000000000E+00   0.000000000000E+00   0.000000000000E+00   0.000000000000E+00
 SKALA_GPW| Active atom-composite XC energy  -9.4718536004811380E+00
 SKALA_GPW| Active atom-composite electrons   3.2039045614133748E+01
 SKALA_GPW| Active atom-composite density range   7.8802162042302521E-04   3.9580558980243555E-02
 SKALA_GPW| Active atom-composite tau range   7.0145348014489335E-04   3.1480313310066663E-02
 SKALA_GPW| Active atom-composite tau integral   1.2194433381123282E+01
 SKALA_GPW| Active atom-composite max gradient   4.0229490405803259E-02
    10 P_Mix/Diag. 0.10E+00   52.3     0.20354085       -31.7307179875  1.14E-02
 SKALA_GPW| Atom-composite cross support/maxima   0.000000000000E+00   0.000000000000E+00   0.000000000000E+00   0.000000000000E+00
 SKALA_GPW| Active atom-composite XC energy  -9.4875307912279343E+00
 SKALA_GPW| Active atom-composite electrons   3.2038760166682202E+01
 SKALA_GPW| Active atom-composite density range   7.3164734247892595E-04   4.0013263830453831E-02
 SKALA_GPW| Active atom-composite tau range   6.9886821171476893E-04   3.1594917457067245E-02
 SKALA_GPW| Active atom-composite tau integral   1.2253713302788871E+01
 SKALA_GPW| Active atom-composite max gradient   4.0130866068024219E-02
    11 P_Mix/Diag. 0.10E+00   53.9     0.18787287       -31.7201133754  1.06E-02
 SKALA_GPW| Atom-composite cross support/maxima   0.000000000000E+00   0.000000000000E+00   0.000000000000E+00   0.000000000000E+00
 SKALA_GPW| Active atom-composite XC energy  -9.5003400784913907E+00
 SKALA_GPW| Active atom-composite electrons   3.2038523643206887E+01
 SKALA_GPW| Active atom-composite density range   6.7830413263908962E-04   4.0375029772884326E-02
 SKALA_GPW| Active atom-composite tau range   6.9735600239754342E-04   3.1660700916887184E-02
 SKALA_GPW| Active atom-composite tau integral   1.2302603896727188E+01
 SKALA_GPW| Active atom-composite max gradient   4.0027761312540905E-02
    12 P_Mix/Diag. 0.10E+00   55.7     0.17301563       -31.7101817122  9.93E-03
 SKALA_GPW| Atom-composite cross support/maxima   0.000000000000E+00   0.000000000000E+00   0.000000000000E+00   0.000000000000E+00
 SKALA_GPW| Active atom-composite XC energy  -9.5106705316488576E+00
 SKALA_GPW| Active atom-composite electrons   3.2038327111948441E+01
 SKALA_GPW| Active atom-composite density range   6.2721695786174293E-04   4.0684226133234587E-02
 SKALA_GPW| Active atom-composite tau range   6.9670216452434564E-04   3.1681331970946663E-02
 SKALA_GPW| Active atom-composite tau integral   1.2342304236806461E+01
 SKALA_GPW| Active atom-composite max gradient   3.9921044434675174E-02
    13 P_Mix/Diag. 0.10E+00   51.1     0.15916126       -31.7008974158  9.28E-03
 SKALA_GPW| Atom-composite cross support/maxima   0.000000000000E+00   0.000000000000E+00   0.000000000000E+00   0.000000000000E+00
 SKALA_GPW| Active atom-composite XC energy  -9.5189304341927343E+00
 SKALA_GPW| Active atom-composite electrons   3.2038163147704701E+01
 SKALA_GPW| Active atom-composite density range   5.7811512320698327E-04   4.0939513015721747E-02
 SKALA_GPW| Active atom-composite tau range   6.9671446520006052E-04   3.1662952002915544E-02
 SKALA_GPW| Active atom-composite tau integral   1.2374043706403203E+01
 SKALA_GPW| Active atom-composite max gradient   3.9811310010593771E-02
    14 P_Mix/Diag. 0.10E+00   51.5     0.14636832       -31.6922576790  8.64E-03
 SKALA_GPW| Atom-composite cross support/maxima   0.000000000000E+00   0.000000000000E+00   0.000000000000E+00   0.000000000000E+00
 SKALA_GPW| Active atom-composite XC energy  -9.5254573654974521E+00
 SKALA_GPW| Active atom-composite electrons   3.2038026139376989E+01
 SKALA_GPW| Active atom-composite density range   5.3089598157571912E-04   4.1151949728703847E-02
 SKALA_GPW| Active atom-composite tau range   6.9724798244545638E-04   3.1610715624150569E-02
 SKALA_GPW| Active atom-composite tau integral   1.2398825009862870E+01
 SKALA_GPW| Active atom-composite max gradient   3.9698594760847514E-02
    15 P_Mix/Diag. 0.10E+00   53.5     0.13456171       -31.6842533519  8.00E-03
 SKALA_GPW| Atom-composite cross support/maxima   0.000000000000E+00   0.000000000000E+00   0.000000000000E+00   0.000000000000E+00
 SKALA_GPW| Active atom-composite XC energy  -9.5305528171141010E+00
 SKALA_GPW| Active atom-composite electrons   3.2037911714716778E+01
 SKALA_GPW| Active atom-composite density range   4.8563658382846296E-04   4.1324353124765116E-02
 SKALA_GPW| Active atom-composite tau range   6.9818791187596196E-04   3.1529287302763519E-02
 SKALA_GPW| Active atom-composite tau integral   1.2417519358027093E+01
 SKALA_GPW| Active atom-composite max gradient   3.9582880907171360E-02
    16 P_Mix/Diag. 0.10E+00   51.7     0.12357686       -31.6768824067  7.37E-03
 SKALA_GPW| Atom-composite cross support/maxima   0.000000000000E+00   0.000000000000E+00   0.000000000000E+00   0.000000000000E+00
 SKALA_GPW| Active atom-composite XC energy  -9.5345212846401139E+00
 SKALA_GPW| Active atom-composite electrons   3.2037816011074014E+01
 SKALA_GPW| Active atom-composite density range   4.4268817301378386E-04   4.1462424020467216E-02
 SKALA_GPW| Active atom-composite tau range   6.9942249676492455E-04   3.1424999214145280E-02
 SKALA_GPW| Active atom-composite tau integral   1.2431110603586426E+01
 SKALA_GPW| Active atom-composite max gradient   3.9465127301660956E-02
    17 P_Mix/Diag. 0.10E+00   51.5     0.11329095       -31.6701464257  6.74E-03
 SKALA_GPW| Atom-composite cross support/maxima   0.000000000000E+00   0.000000000000E+00   0.000000000000E+00   0.000000000000E+00
 SKALA_GPW| Active atom-composite XC energy  -9.5376459112281413E+00
 SKALA_GPW| Active atom-composite electrons   3.2037735553480921E+01
 SKALA_GPW| Active atom-composite density range   4.0247997083088847E-04   4.1578251648864174E-02
 SKALA_GPW| Active atom-composite tau range   7.0084289300920372E-04   3.1305683426041425E-02
 SKALA_GPW| Active atom-composite tau integral   1.2440693376350247E+01
 SKALA_GPW| Active atom-composite max gradient   3.9347371920091696E-02
    18 P_Mix/Diag. 0.10E+00   53.6     0.10365698       -31.6640337365  6.11E-03
 SKALA_GPW| Atom-composite cross support/maxima   0.000000000000E+00   0.000000000000E+00   0.000000000000E+00   0.000000000000E+00
 SKALA_GPW| Active atom-composite XC energy  -9.5401543194238450E+00
 SKALA_GPW| Active atom-composite electrons   3.2037667409247469E+01
 SKALA_GPW| Active atom-composite density range   3.6530412835540746E-04   4.1674867525187412E-02
 SKALA_GPW| Active atom-composite tau range   7.0235616925546967E-04   3.1178944455735789E-02
 SKALA_GPW| Active atom-composite tau integral   1.2447305093590087E+01
 SKALA_GPW| Active atom-composite max gradient   3.9232018427942682E-02
    19 P_Mix/Diag. 0.10E+00   60.6     0.09928835       -31.6585137682  5.52E-03
 SKALA_GPW| Atom-composite cross support/maxima   0.000000000000E+00   0.000000000000E+00   0.000000000000E+00   0.000000000000E+00
 SKALA_GPW| Active atom-composite XC energy  -9.5422114697070199E+00
 SKALA_GPW| Active atom-composite electrons   3.2037609240724564E+01
 SKALA_GPW| Active atom-composite density range   3.3124811128661021E-04   4.1754653152826067E-02
 SKALA_GPW| Active atom-composite tau range   7.0389238558614419E-04   3.1050880745349348E-02
 SKALA_GPW| Active atom-composite tau integral   1.2451798874217442E+01
 SKALA_GPW| Active atom-composite max gradient   3.9121147670198565E-02
    20 DIIS/Diag.  0.21E-02   50.8     0.10381080       -31.6535430391  4.97E-03
 SKALA_GPW| Atom-composite cross support/maxima   0.000000000000E+00   0.000000000000E+00   0.000000000000E+00   0.000000000000E+00
 SKALA_GPW| Active atom-composite XC energy  -9.5576052448800013E+00
 SKALA_GPW| Active atom-composite electrons   3.2037156466745330E+01
 SKALA_GPW| Active atom-composite density range   1.5860354342212026E-05   4.2376712202533348E-02
 SKALA_GPW| Active atom-composite tau range   7.2157954385430260E-04   2.9614232258043646E-02
 SKALA_GPW| Active atom-composite tau integral   1.2462538205594521E+01
 SKALA_GPW| Active atom-composite max gradient   3.7970568967249346E-02
    21 P_Mix/Diag. 0.10E+00   56.0     0.00734294       -31.6092297780  4.43E-02
 SKALA_GPW| Atom-composite cross support/maxima   0.000000000000E+00   0.000000000000E+00   0.000000000000E+00   0.000000000000E+00
 SKALA_GPW| Active atom-composite XC energy  -9.5573628471306620E+00
 SKALA_GPW| Active atom-composite electrons   3.2037162445043336E+01
 SKALA_GPW| Active atom-composite density range   1.5563519323484064E-05   4.2371061850758972E-02
 SKALA_GPW| Active atom-composite tau range   7.2191120932326173E-04   2.9598381207541286E-02
 SKALA_GPW| Active atom-composite tau integral   1.2460752024484124E+01
 SKALA_GPW| Active atom-composite max gradient   3.7960077123053833E-02
    22 DIIS/Diag.  0.15E-03   51.6     0.00172802       -31.6092347631 -4.99E-06
 SKALA_GPW| Atom-composite cross support/maxima   0.000000000000E+00   0.000000000000E+00   0.000000000000E+00   0.000000000000E+00
 SKALA_GPW| Active atom-composite XC energy  -9.5566778259264336E+00
 SKALA_GPW| Active atom-composite electrons   3.2037183788961954E+01
 SKALA_GPW| Active atom-composite density range   1.4755146537399619E-05   4.2360992500951489E-02
 SKALA_GPW| Active atom-composite tau range   7.2310447999985792E-04   2.9557258272300668E-02
 SKALA_GPW| Active atom-composite tau integral   1.2455718624216839E+01
 SKALA_GPW| Active atom-composite max gradient   3.7928496432515391E-02
    23 DIIS/Diag.  0.31E-03   54.8     0.00066965       -31.6092625740 -2.78E-05
 SKALA_GPW| Atom-composite cross support/maxima   0.000000000000E+00   0.000000000000E+00   0.000000000000E+00   0.000000000000E+00
 SKALA_GPW| Active atom-composite XC energy  -9.5564776762834995E+00
 SKALA_GPW| Active atom-composite electrons   3.2037191408066768E+01
 SKALA_GPW| Active atom-composite density range   1.4600736694725953E-05   4.2360046880053452E-02
 SKALA_GPW| Active atom-composite tau range   7.2352049732670864E-04   2.9546134230281500E-02
 SKALA_GPW| Active atom-composite tau integral   1.2454258474663227E+01
 SKALA_GPW| Active atom-composite max gradient   3.7918415142106247E-02
    24 DIIS/Diag.  0.18E-03   57.1     0.00297284       -31.6092669044 -4.33E-06
 SKALA_GPW| Atom-composite cross support/maxima   0.000000000000E+00   0.000000000000E+00   0.000000000000E+00   0.000000000000E+00
 SKALA_GPW| Active atom-composite XC energy  -9.5555588108601874E+00
 SKALA_GPW| Active atom-composite electrons   3.2037211066505670E+01
 SKALA_GPW| Active atom-composite density range   1.3421916795319717E-05   4.2335978348618158E-02
 SKALA_GPW| Active atom-composite tau range   7.2461743248828823E-04   2.9484777785792286E-02
 SKALA_GPW| Active atom-composite tau integral   1.2447552762616994E+01
 SKALA_GPW| Active atom-composite max gradient   3.7880529659531592E-02
    25 DIIS/Diag.  0.65E-02   53.5     0.00020049       -31.6092540408  1.29E-05
 SKALA_GPW| Atom-composite cross support/maxima   0.000000000000E+00   0.000000000000E+00   0.000000000000E+00   0.000000000000E+00
 SKALA_GPW| Active atom-composite XC energy  -9.5555379667936275E+00
 SKALA_GPW| Active atom-composite electrons   3.2037211241609896E+01
 SKALA_GPW| Active atom-composite density range   1.3359425940018377E-05   4.2334723662627555E-02
 SKALA_GPW| Active atom-composite tau range   7.2463367449108367E-04   2.9481308322713142E-02
 SKALA_GPW| Active atom-composite tau integral   1.2447316065751126E+01
 SKALA_GPW| Active atom-composite max gradient   3.7878965037412754E-02
    26 DIIS/Diag.  0.69E-02   54.0     0.00318212       -31.6092532355  8.05E-07
 SKALA_GPW| Atom-composite cross support/maxima   0.000000000000E+00   0.000000000000E+00   0.000000000000E+00   0.000000000000E+00
 SKALA_GPW| Active atom-composite XC energy  -9.5564032786573652E+00
 SKALA_GPW| Active atom-composite electrons   3.2037199789741514E+01
 SKALA_GPW| Active atom-composite density range   1.4438869672725583E-05   4.2366096445583319E-02
 SKALA_GPW| Active atom-composite tau range   7.2406246378326346E-04   2.9534452878138478E-02
 SKALA_GPW| Active atom-composite tau integral   1.2452883960759108E+01
 SKALA_GPW| Active atom-composite max gradient   3.7905888232182244E-02
    27 DIIS/Diag.  0.82E-04   51.1     0.00019404       -31.6092703907 -1.72E-05
 SKALA_GPW| Atom-composite cross support/maxima   0.000000000000E+00   0.000000000000E+00   0.000000000000E+00   0.000000000000E+00
 SKALA_GPW| Active atom-composite XC energy  -9.5564432335847727E+00
 SKALA_GPW| Active atom-composite electrons   3.2037198888486337E+01
 SKALA_GPW| Active atom-composite density range   1.4362979994280598E-05   4.2366972236523040E-02
 SKALA_GPW| Active atom-composite tau range   7.2406496620250002E-04   2.9533621300219838E-02
 SKALA_GPW| Active atom-composite tau integral   1.2452751715778920E+01
 SKALA_GPW| Active atom-composite max gradient   3.7905240896475255E-02
    28 DIIS/Diag.  0.21E-04   52.6     0.00007273       -31.6092706706 -2.80E-07
 SKALA_GPW| Atom-composite cross support/maxima   0.000000000000E+00   0.000000000000E+00   0.000000000000E+00   0.000000000000E+00
 SKALA_GPW| Active atom-composite XC energy  -9.5564493098806604E+00
 SKALA_GPW| Active atom-composite electrons   3.2037199001843554E+01
 SKALA_GPW| Active atom-composite density range   1.4337612042268520E-05   4.2367036525080178E-02
 SKALA_GPW| Active atom-composite tau range   7.2406398478168528E-04   2.9531425633314744E-02
 SKALA_GPW| Active atom-composite tau integral   1.2452681058480401E+01
 SKALA_GPW| Active atom-composite max gradient   3.7904304424260002E-02
    29 DIIS/Diag.  0.21E-05   56.0     0.00002523       -31.6092707577 -8.71E-08
 SKALA_GPW| Atom-composite cross support/maxima   0.000000000000E+00   0.000000000000E+00   0.000000000000E+00   0.000000000000E+00
 SKALA_GPW| Active atom-composite XC energy  -9.5564445697625064E+00
 SKALA_GPW| Active atom-composite electrons   3.2037199145314560E+01
 SKALA_GPW| Active atom-composite density range   1.4340146241002764E-05   4.2367085232527073E-02
 SKALA_GPW| Active atom-composite tau range   7.2407754636008039E-04   2.9532356304313230E-02
 SKALA_GPW| Active atom-composite tau integral   1.2452667558653669E+01
 SKALA_GPW| Active atom-composite max gradient   3.7904448935019375E-02
    30 DIIS/Diag.  0.20E-05   61.4     0.00001064       -31.6092707559  1.79E-09
 SKALA_GPW| Atom-composite cross support/maxima   0.000000000000E+00   0.000000000000E+00   0.000000000000E+00   0.000000000000E+00
 SKALA_GPW| Active atom-composite XC energy  -9.5564457996805316E+00
 SKALA_GPW| Active atom-composite electrons   3.2037199191595647E+01
 SKALA_GPW| Active atom-composite density range   1.4343290415901278E-05   4.2367062409524432E-02
 SKALA_GPW| Active atom-composite tau range   7.2407218666132147E-04   2.9531969341000296E-02
 SKALA_GPW| Active atom-composite tau integral   1.2452678542955855E+01
 SKALA_GPW| Active atom-composite max gradient   3.7904443400676287E-02
    31 DIIS/Diag.  0.97E-07   57.4     0.00000892       -31.6092707615 -5.54E-09
 SKALA_GPW| Atom-composite cross support/maxima   0.000000000000E+00   0.000000000000E+00   0.000000000000E+00   0.000000000000E+00
 SKALA_GPW| Active atom-composite XC energy  -9.5564449351342251E+00
 SKALA_GPW| Active atom-composite electrons   3.2037199194353910E+01
 SKALA_GPW| Active atom-composite density range   1.4339453558878675E-05   4.2367044789740710E-02
 SKALA_GPW| Active atom-composite tau range   7.2407376105335498E-04   2.9531868727622951E-02
 SKALA_GPW| Active atom-composite tau integral   1.2452666718078111E+01
 SKALA_GPW| Active atom-composite max gradient   3.7904359413870173E-02
    32 DIIS/Diag.  0.82E-08   55.5     0.00000313       -31.6092707727 -1.13E-08

  *** SCF run converged in    32 steps ***


  Electronic density on regular grids:        -32.0000000000        0.0000000000
  Core density on regular grids:               31.9999999999       -0.0000000001
  Hard and soft densities (Lebedev):           -0.0000000000       -0.0000000000
  Total Rho_soft + Rho1_hard - Rho1_soft      -32.0000000000
  Total charge density (r-space):              -0.0000000001
  Total Rho_soft + Rho0_soft (g-space):        -0.0000000001

  Overlap energy of the core charge distribution:               0.00000000002216
  Self energy of the core charge distribution:                -82.06718048728062
  Core Hamiltonian energy:                                     17.21979756581228
  Hartree energy:                                              42.96003181230791
  Exchange-correlation energy:                                  0.00000000000000
  Dispersion energy:                                           -0.16547472846296

  GAPW| Exc from hard and soft atomic rho1:                    -9.55644493513423
  GAPW| local Eh = 1 center integrals:                          0.00000000000000

  Total energy:                                               -31.60927077273545

  outer SCF iter =    1 RMS gradient =   0.00E+00 energy =        -31.6092707727
  outer SCF loop converged in   1 iterations or   32 steps


 !-----------------------------------------------------------------------------!
                     Mulliken Population Analysis

 #  Atom  Element  Kind  Atomic population                           Net charge
       1     Si       1          4.002912                             -0.002912
       2     Si       1          3.999030                              0.000970
       3     Si       1          3.999030                              0.000970
       4     Si       1          3.999029                              0.000971
       5     Si       1          4.001827                             -0.001827
       6     Si       1          3.999633                              0.000367
       7     Si       1          3.999388                              0.000612
       8     Si       1          3.999151                              0.000849
 # Total charge                             32.000000                  0.000000

 !-----------------------------------------------------------------------------!

 !-----------------------------------------------------------------------------!
                           Hirshfeld Charges

  #Atom  Element  Kind  Ref Charge     Population                    Net charge
      1       Si     1       4.000          4.001                        -0.001
      2       Si     1       4.000          4.000                         0.000
      3       Si     1       4.000          4.000                         0.000
      4       Si     1       4.000          4.000                         0.000
      5       Si     1       4.000          4.000                        -0.000
      6       Si     1       4.000          4.000                         0.000
      7       Si     1       4.000          4.000                         0.000
      8       Si     1       4.000          4.000                         0.000

  Total Charge                                                           -0.000
 !-----------------------------------------------------------------------------!

 ENERGY| Total FORCE_EVAL ( QS ) energy [hartree]            -31.609270772735453

 -------------------------------------------------------------------------------
 -                                                                             -
 -                                DBCSR STATISTICS                             -
 -                                                                             -
 -------------------------------------------------------------------------------
 COUNTER                                    TOTAL       BLAS       SMM       ACC
 flops inhomo. stacks                           0       0.0%      0.0%      0.0%
 flops total                         0.000000E+00       0.0%      0.0%      0.0%
 flops max/rank                      0.000000E+00       0.0%      0.0%      0.0%
 matmuls inhomo. stacks                         0       0.0%      0.0%      0.0%
 matmuls total                                  0       0.0%      0.0%      0.0%
 number of processed stacks                     0       0.0%      0.0%      0.0%
 average stack size                                     0.0       0.0       0.0
 marketing flops                     0.000000E+00
 -------------------------------------------------------------------------------
 -                                                                             -
 -                      DBCSR MESSAGE PASSING PERFORMANCE                      -
 -                                                                             -
 -------------------------------------------------------------------------------
 ROUTINE             CALLS      AVE VOLUME [Bytes]
 MP_Bcast                1                     12.
 MP_Allreduce           19                     21.
 MP_Alltoall         32796                 279184.
 -------------------------------------------------------------------------------

 -------------------------------------------------------------------------------
 -                                                                             -
 -                                GRID STATISTICS                              -
 -                                                                             -
 -------------------------------------------------------------------------------
 LP    KERNEL             BACKEND                              COUNT     PERCENT
 6     collocate ortho    CPU                                 699600      25.38%
 8     collocate ortho    CPU                                 699600      25.38%
 6     integrate ortho    CPU                                 678400      24.62%
 8     integrate ortho    CPU                                 678400      24.62%
 0     collocate general  CPU                                     16       0.00%
 0     integrate general  CPU                                      8       0.00%
 -------------------------------------------------------------------------------

 -------------------------------------------------------------------------------
 -                                                                             -
 -                          OFFLOAD MEMPOOL STATISTICS                         -
 -                                                                             -
 -------------------------------------------------------------------------------
 Memory consumption                Number of allocations  Used [MiB]  Size [MiB]
 Host                                                  8          82    89508228
 -------------------------------------------------------------------------------

 MEMORY| Estimated peak process memory [MiB]                                2326

 -------------------------------------------------------------------------------
 ----                             MULTIGRID INFO                            ----
 -------------------------------------------------------------------------------
 count for grid        1:              3          cutoff [a.u.]          400.00
 count for grid        2:           1623          cutoff [a.u.]          133.33
 count for grid        3:           7784          cutoff [a.u.]           44.44
 count for grid        4:          12827          cutoff [a.u.]           14.81
 count for grid        5:           5626          cutoff [a.u.]            4.94
 total gridlevel count  :          27863

 -------------------------------------------------------------------------------
 -                                                                             -
 -                         MESSAGE PASSING PERFORMANCE                         -
 -                                                                             -
 -------------------------------------------------------------------------------

 ROUTINE             CALLS      AVE VOLUME [Bytes]
 MP_Group                5
 MP_Bcast            11675                    203.
 MP_Allreduce        28064                  80716.
 MP_Sync                 5
 MP_Wait              9700
 MP_ISend            13580                  61519.
 MP_IRecv            13580                  61519.
 -------------------------------------------------------------------------------


 -------------------------------------------------------------------------------
 -                                                                             -
 -                           R E F E R E N C E S                               -
 -                                                                             -
 -------------------------------------------------------------------------------
 
 CP2K version 2026.2 (Development Version), the CP2K developers group (2026).
 CP2K is freely available from https://www.cp2k.org/ .
 
 M. Iannuzzi, J. Wilhelm, F. Stein, A. Bussy, H. Elgabarty, D. Golze, A. Hehn, 
 M. Graml, S. Marek, B. Sertcan Gökmen, C. Schran, H. Forbert, R. Z. 
 Khaliullin, A. Kozhevnikov, M. Taillefumier, R. Meli, V. V. Rybkin, M. Brehm, 
 R. Schade, O. Schütt, J. V. Pototschnig, H. Mirhosseini, A. Knüpfer, D. Marx, 
 M. Krack, J. Hutter, T. D. Kühne.
 J. Phys. Chem. B 130, 1237-1310 (2026).
 The CP2K Program Package Made Simple.
 https://doi.org/10.1021/acs.jpcb.5c05851

 L. Wittmann, I. Gordiy, M. Friede, B. Helmich-Paris, S. Grimme, A. Hansen, M. 
 Bursch.
 Phys. Chem. Chem. Phys. 26, 21379-21394 (2024).
 Extension of the D3 and D4 London dispersion corrections to the full actinides 
 series.
 https://doi.org/10.1039/d4cp01514b

 T. D. Kühne, M. Iannuzzi, M. Del Ben, V. V. Rybkin, P. Seewald, F. Stein, T. 
 Laino, R. Z. Khaliullin, O. Schütt, F. Schiffmann, D. Golze, J. Wilhelm, S. 
 Chulkov, M. H. Bani-Hashemian, V. Weber, U. Borstnik, M. Taillefumier, A. S. 
 Jakobovits, A. Lazzaro, H. Pabst, T. Müller, R. Schade, M. Guidon, S. 
 Andermatt, N. Holmberg, G. K. Schenter, A. Hehn, A. Bussy, F. Belleflamme, G. 
 Tabacchi, A. Glöß, M. Lass, I. Bethune, C. J. Mundy, C. Plessl, M. Watkins, 
 J. VandeVondele, M. Krack, J. Hutter.
 J. Chem. Phys. 152, 194103 (2020).
 CP2K: An electronic structure and molecular dynamics software package - 
 Quickstep: Efficient and accurate electronic structure calculations.
 https://doi.org/10.1063/5.0007045

 L. Goerigk, A. Hansen, C. Bauer, S. Ehrlich, A. Najibi, S. Grimme.
 Phys. Chem. Chem. Phys. 19, 32184-32215 (2017).
 A look at the density functional theory zoo with the advanced GMTKN55 database 
 for general main group thermochemistry, kinetics and noncovalent interactions.
 https://doi.org/10.1039/C7CP04913G

 O. Schuett, P. Messmer, J. Hutter, J. VandeVondele.
 Electronic Structure Calculations on Graphics Processing Units, 173-190 (2016).
 GPU-Accelerated Sparse Matrix-Matrix Multiplication for Linear Scaling Density 
 Functional Theory.
 https://doi.org/10.1002/9781118670712.ch8

 U. Borstnik, J. VandeVondele, V. Weber, J. Hutter.
 Parallel Comput. 40, 47-58 (2014).
 Sparse matrix multiplication: The distributed block-compressed sparse row 
 library.
 https://doi.org/10.1016/j.parco.2014.03.012

 S. Grimme, S. Ehrlich, L. Goerigk.
 J. Comput. Chem. 32, 1456 (2011).
 Effect of the damping function in dispersion corrected density functional 
 theory.
 https://doi.org/10.1002/jcc.21759

 S. Grimme, J. Antony, S. Ehrlich, H. Krieg.
 J. Chem. Phys. 132, 154104 (2010).
 A consistent and accurate ab initio parametrization of density functional 
 dispersion correction (DFT-D) for the 94 elements H-Pu.
 https://doi.org/10.1063/1.3382344

 J. VandeVondele, J. Hutter.
 J. Chem. Phys. 127, 114105 (2007).
 Gaussian basis sets for accurate calculations on molecular systems in gas and 
 condensed phases.
 https://doi.org/10.1063/1.2770708

 M. Krack.
 Theor. Chem. Acc. 114, 145-152 (2005).
 Pseudopotentials for H to Kr optimized for gradient-corrected 
 exchange-correlation functionals.
 https://doi.org/10.1007/s00214-005-0655-y

 M. Frigo, S. G. Johnson.
 Proc. IEEE 93, 216-231 (2005).
 The design and implementation of FFTW3.
 https://doi.org/10.1109/JPROC.2004.840301

 M. Krack, M. Parrinello.
 Phys. Chem. Chem. Phys. 2, 2105-2112 (2000).
 All-electron ab-initio molecular dynamics.
 https://doi.org/10.1039/b001167n

 G. Lippert, J. Hutter, M. Parrinello.
 Theor. Chem. Acc. 103, 124-140 (1999).
 The Gaussian and augmented-plane-wave density functional method for ab initio 
 molecular dynamics simulations.
 https://doi.org/10.1007/s002140050523

 C. Hartwigsen, S. Goedecker, J. Hutter.
 Phys. Rev. B 58, 3641-3662 (1998).
 Relativistic separable dual-space Gaussian pseudopotentials from H to Rn.
 https://doi.org/10.1103/PhysRevB.58.3641

 S. Goedecker, M. Teter, J. Hutter.
 Phys. Rev. B 54, 1703-1710 (1996).
 Separable dual-space Gaussian pseudopotentials.
 https://doi.org/10.1103/PhysRevB.54.1703

 C.-L. Fu, K.-M. Ho.
 Phys. Rev. B 28, 5480-5486 (1983).
 First-principles calculation of the equilibrium ground-state properties of 
 transition metals: Applications to Nb and Mo.
 https://doi.org/10.1103/PhysRevB.28.5480

 T. G. Worlton, J. L. Warren.
 Comput. Phys. Commun. 3, 88-117 (1972).
 Group-theoretical analysis of lattice vibrations.
 https://doi.org/10.1016/0010-4655(72)90058-6


 -------------------------------------------------------------------------------
 -                                                                             -
 -                                T I M I N G                                  -
 -                                                                             -
 -------------------------------------------------------------------------------
 SUBROUTINE                       CALLS  ASD         SELF TIME        TOTAL TIME
                                MAXIMUM       AVERAGE  MAXIMUM  AVERAGE  MAXIMUM
 CP2K                                 1  1.0    0.011    0.011 1748.560 1748.560
 qs_energies                          1  2.0    0.001    0.001 1748.259 1748.259
 scf_env_do_scf                       1  3.0    0.000    0.000 1746.653 1746.653
 scf_env_do_scf_inner_loop           32  4.0    0.012    0.012 1746.653 1746.653
 qs_ks_update_qs_env                 32  5.0    0.000    0.000 1657.403 1657.403
 rebuild_ks_matrix                   32  6.0    0.000    0.000 1656.377 1656.377
 qs_ks_build_kohn_sham_matrix        32  7.0    0.019    0.019 1656.377 1656.377
 calculate_vxc_atom                  32  8.0  485.979  485.979 1627.588 1627.588
 skala_atom_torch_backward           96  9.0  678.489  678.489  678.489  678.489
 skala_atom_torch_forward            96  9.0    0.028    0.028  456.382  456.382
 torch_model_forward_mol_tensor      96 10.0  456.354  456.354  456.354  456.354
 qs_scf_new_mos_kp                   32  5.0    0.000    0.000   70.556   70.556
 do_general_diag_kp                  32  6.0    0.077    0.077   70.555   70.555
 kpoint_density_transform            32  7.0    0.022    0.022   41.796   41.796
 -------------------------------------------------------------------------------

 The number of warnings for this run is : 2
 
 -------------------------------------------------------------------------------
  **** **** ******  **  PROGRAM ENDED AT                 2026-09-01 00:32:34.278
 ***** ** ***  *** **   PROGRAM RAN ON                                     terok
 **    ****   ******    PROGRAM RAN BY                                  kuehne88
 ***** **    ** ** **   PROGRAM PROCESS ID                                456644
  **** **  *******  **  PROGRAM STOPPED IN /home/kuehne88/work/native-skala-tero
                                           k/goldzak12/runs/production/hybrid-di
                                           rect/Si/v08
