 DBCSR| CPU Multiplication driver                                           BLAS (U)
 DBCSR| Multrec recursion limit                                              512 (U)
 DBCSR| Multiplication stack size                                           1000 (D)
 DBCSR| Maximum elements for images                                    UNLIMITED (U)
 DBCSR| Multiplicative factor virtual images                                   1 (U)
 DBCSR| Use multiplication densification                                       T (D)
 DBCSR| Multiplication size stacks                                             3 (U)
 DBCSR| Use memory pool for CPU allocation                                     F (U)
 DBCSR| OMP: Current number of threads                                        32
 DBCSR| OMP: Max number of threads                                            32
 DBCSR| Split modifier for TAS multiplication algorithm                  1.0E+00 (U)


  **** **** ******  **  PROGRAM STARTED AT               2026-09-12 10:53:01.438
 ***** ** ***  *** **   PROGRAM STARTED ON                                cge061
 **    ****   ******    PROGRAM STARTED BY                              kuehne88
 ***** **    ** ** **   PROGRAM PROCESS ID                                176280
  **** **  *******  **  PROGRAM STARTED IN /bigdata/casus/fwuk/shared/kuehne88-n
                                           ative-skala/ice13-ae-32core-20260912/
                                           runs/gapw-ae/IX

 CP2K| version string:                 CP2K version 2026.2 (Development Version)
 CP2K| source code revision number:                                   37aedacbb3
 CP2K| cp2kflags: omp fftw3 spglib openblas libtorch libtorch_cuda              
 CP2K| is freely available from                            https://www.cp2k.org/
 CP2K| Program compiled at                                   2026-09-08 17:20:25
 CP2K| Program compiled on                                                ctu003
 CP2K| Program compiled for                                               x86_64
 CP2K| Data directory path            /home/kuehne88/cp2k-native-skala/cp2k/data
 CP2K| Input file name                                          actual-input.inp

 GLOBAL| Force Environment number                                              1
 GLOBAL| Basis set file name                             BASIS_MOLOPT_UZH_2026.2
 GLOBAL| Potential file name                                POTENTIAL_UZH_2026.2
 GLOBAL| MM Potential file name                                     MM_POTENTIAL
 GLOBAL| Coordinate file name                                      __STD_INPUT__
 GLOBAL| Method name                                                        CP2K
 GLOBAL| Project name                                           ice13_IX_gapw-ae
 GLOBAL| Run type                                                         ENERGY
 GLOBAL| FFT library                                                       FFTW3
 GLOBAL| Diagonalization library                                       ScaLAPACK
 GLOBAL| Cholesky decomposition library                                ScaLAPACK
 GLOBAL| DGEMM library                                                      BLAS
 GLOBAL| Direct generalized diagonalization requested                          F
 GLOBAL| Orthonormality check for eigenvectors                          DISABLED
 GLOBAL| Matrix multiplication library                                 ScaLAPACK
 GLOBAL| All-to-all communication in single precision                          F
 GLOBAL| Grid backend                                                       AUTO
 GLOBAL| Global print level                                               MEDIUM
 GLOBAL| MPI I/O enabled                                                       T
 GLOBAL| Total number of message passing processes                             1
 GLOBAL| Number of distributed systems (nodes)                                 1
 GLOBAL| Number of threads for this process                                   32
 GLOBAL| This output is from process                                           0
 GLOBAL| OpenMP stack size per thread (OMP_STACKSIZE)                       256M
 GLOBAL| CPU model name                          AMD EPYC 9654 96-Core Processor

 MEMORY| system memory details [Kb]
 MEMORY|                        rank 0           min           max       average
 MEMORY| MemTotal           1584835660    1584835660    1584835660    1584835660
 MEMORY| MemFree            1546634660    1546634660    1546634660    1546634660
 MEMORY| Buffers                     0             0             0             0
 MEMORY| Cached                7179380       7179380       7179380       7179380
 MEMORY| Slab                  1695784       1695784       1695784       1695784
 MEMORY| SReclaimable           398132        398132        398132        398132
 MEMORY| MemLikelyFree      1554212172    1554212172    1554212172    1554212172


 *** Fundamental physical constants (SI units) ***

 *** Literature: B. J. Mohr and B. N. Taylor,
 ***             CODATA recommended values of the fundamental physical
 ***             constants: 2006, Web Version 5.1
 ***             http://physics.nist.gov/constants

 Speed of light in vacuum [m/s]                             2.99792458000000E+08
 Magnetic constant or permeability of vacuum [N/A**2]       1.25663706143592E-06
 Electric constant or permittivity of vacuum [F/m]          8.85418781762039E-12
 Planck constant (h) [J*s]                                  6.62606896000000E-34
 Planck constant (h-bar) [J*s]                              1.05457162825177E-34
 Elementary charge [C]                                      1.60217648700000E-19
 Electron mass [kg]                                         9.10938215000000E-31
 Electron g factor [ ]                                     -2.00231930436220E+00
 Proton mass [kg]                                           1.67262163700000E-27
 Fine-structure constant                                    7.29735253760000E-03
 Rydberg constant [1/m]                                     1.09737315685270E+07
 Avogadro constant [1/mol]                                  6.02214179000000E+23
 Boltzmann constant [J/K]                                   1.38065040000000E-23
 Atomic mass unit [kg]                                      1.66053878200000E-27
 Bohr radius [m]                                            5.29177208590000E-11

 *** Conversion factors ***

 [u] -> [a.u.]                                              1.82288848426455E+03
 [Angstrom] -> [Bohr] = [a.u.]                              1.88972613288564E+00
 [a.u.] = [Bohr] -> [Angstrom]                              5.29177208590000E-01
 [a.u.] -> [s]                                              2.41888432650478E-17
 [a.u.] -> [fs]                                             2.41888432650478E-02
 [a.u.] -> [J]                                              4.35974393937059E-18
 [a.u.] -> [N]                                              8.23872205491840E-08
 [a.u.] -> [K]                                              3.15774647902944E+05
 [a.u.] -> [kJ/mol]                                         2.62549961709828E+03
 [a.u.] -> [kcal/mol]                                       6.27509468713739E+02
 [a.u.] -> [Pa]                                             2.94210107994716E+13
 [a.u.] -> [bar]                                            2.94210107994716E+08
 [a.u.] -> [atm]                                            2.90362800883016E+08
 [a.u.] -> [eV]                                             2.72113838565563E+01
 [a.u.] -> [Hz]                                             6.57968392072181E+15
 [a.u.] -> [1/cm] (wave numbers)                            2.19474631370540E+05
 [a.u./Bohr**2] -> [1/cm]                                   5.14048714338585E+03
 

 CELL| Volume [angstrom^3]:                                           313.401792
 CELL| Vector a [angstrom]:       6.785     0.000     0.000   |a| =     6.784903
 CELL| Vector b [angstrom]:       0.000     6.785     0.000   |b| =     6.784903
 CELL| Vector c [angstrom]:       0.000     0.000     6.808   |c| =     6.807916
 CELL| Angle (b,c), alpha [degree]:                                    90.000000
 CELL| Angle (a,c), beta  [degree]:                                    90.000000
 CELL| Angle (a,b), gamma [degree]:                                    90.000000
 CELL| Numerically orthorhombic:                                             YES
 CELL| Periodicity                                                           XYZ

 CELL_REF| Volume [angstrom^3]:                                       313.401792
 CELL_REF| Vector a [angstrom     6.785     0.000     0.000   |a| =     6.784903
 CELL_REF| Vector b [angstrom     0.000     6.785     0.000   |b| =     6.784903
 CELL_REF| Vector c [angstrom     0.000     0.000     6.808   |c| =     6.807916
 CELL_REF| Angle (b,c), alpha [degree]:                                90.000000
 CELL_REF| Angle (a,c), beta  [degree]:                                90.000000
 CELL_REF| Angle (a,b), gamma [degree]:                                90.000000
 CELL_REF| Numerically orthorhombic:                                         YES
 CELL_REF| Periodicity                                                       XYZ

 GENERATE|  Preliminary Number of Bonds generated:                             0
 GENERATE|  Achieved consistency in connectivity generation.

 *** WARNING in cryssym.F:1785 :: The K290 k-point operations produced ***
 *** overlapping, non-closed mesh orbits; falling back to              ***
 *** inversion/time-reversal symmetry. Use SYMMETRY_BACKEND SPGLIB for ***
 *** full reduction by a closed crystallographic symmetry group.       ***


 *******************************************************************************
 *******************************************************************************
 **                                                                           **
 **     #####                         ##              ##                      **
 **    ##   ##            ##          ##              ##                      **
 **   ##     ##                       ##            ######                    **
 **   ##     ##  ##   ##  ##   #####  ##  ##   ####   ##    #####    #####    **
 **   ##     ##  ##   ##  ##  ##      ## ##   ##      ##   ##   ##  ##   ##   **
 **   ##  ## ##  ##   ##  ##  ##      ####     ###    ##   ######   ######    **
 **    ##  ###   ##   ##  ##  ##      ## ##      ##   ##   ##       ##        **
 **     #######   #####   ##   #####  ##  ##  ####    ##    #####   ##        **
 **           ##                                                    ##        **
 **                                                                           **
 **                                                ... make the atoms dance   **
 **                                                                           **
 **            Copyright (C) by CP2K developers group (2000-2026)             **
 **                      J. Chem. Phys. 152, 194103 (2020)                    **
 **                                                                           **
 *******************************************************************************

 DFT| Spin restricted Kohn-Sham (RKS) calculation                            RKS
 DFT| Multiplicity                                                             1
 DFT| Number of spin states                                                    1
 DFT| Charge                                                                   0
 DFT| Self-interaction correction (SIC)                                       NO
 DFT| Cutoffs: density                                              1.000000E-10
 DFT|          gradient                                             1.000000E-10
 DFT|          tau                                                  1.000000E-10
 DFT|          cutoff_smoothing_range                               0.000000E+00
 DFT| XC density smoothing                                                  NONE
 DFT| XC derivatives                                                          PW

 FUNCTIONAL| GAUXC:
 FUNCTIONAL| Functional computed by GauXC Skala model SKALA                     

 vdW POTENTIAL|                                                   Pair Potential
 vdW POTENTIAL|          DFT-D3 (Version 3.1)
 vdW POTENTIAL|          Potential Form: S. Grimme et al, JCP 132: 154104 (2010)
 vdW POTENTIAL|          BJ Damping: S. Grimme et al, JCC 32: 1456 (2011)
 vdW POTENTIAL|          Cutoff Radius [Bohr]:                             37.79
 vdW POTENTIAL|          s6 Scaling Factor:                               1.0000
 vdW POTENTIAL|          a1 Damping Factor:                               0.3981
 vdW POTENTIAL|          s8 Scaling Factor:                               1.9889
 vdW POTENTIAL|          a2 Damping Factor:                               4.4211
 vdW POTENTIAL|          Cutoff for CN calculation:                   0.1000E-05

 QS| Method:                                                                GAPW
 QS| Density plane wave grid type                        NON-SPHERICAL FULLSPACE
 QS| Number of grid levels:                                                    5
 QS| Density cutoff [a.u.]:                                                400.0
 QS| Multi grid cutoff [a.u.]: 1) grid level                               400.0
 QS|                           2) grid level                               133.3
 QS|                           3) grid level                                44.4
 QS|                           4) grid level                                14.8
 QS|                           5) grid level                                 4.9
 QS| Grid level progression factor:                                          3.0
 QS| Relative density cutoff [a.u.]:                                        30.0
 QS| Interaction thresholds: eps_pgf_orb:                                1.0E-07
 QS|                         eps_filter_matrix:                          0.0E+00
 QS|                         eps_core_charge:                            1.0E-16
 QS|                         eps_rho_gspace:                             1.0E-14
 QS|                         eps_rho_rspace:                             1.0E-14
 QS|                         eps_gvg_rspace:                             1.0E-07
 QS|                         eps_ppl:                                    1.0E-02
 QS|                         eps_ppnl:                                   1.0E-09
 QS| GAPW|      XC integration using accurate scheme: Ref. exponent     6.000000
 QS| GAPW|      One center basis extended with primitives (small:s)
 QS| GAPW|                   eps_fit:                                    1.0E-04
 QS| GAPW|                   eps_iso:                                    1.0E-12
 QS| GAPW|                   eps_svd:                                    1.0E-08
 QS| GAPW|                   eps_cpc:                                    1.0E-14
 QS| GAPW|   atom-r-grid: quadrature:                                     GC_LOG
 QS| GAPW|      atom-s-grid:  max l :                                          6
 QS| GAPW|      max_l_rho0 :                                                   4


 ATOMIC KIND INFORMATION

  1. Atomic kind: H                                     Number of atoms:      24

     Orbital Basis Set                                       TZVPP-MOLOPT-PBE-ae

       Number of orbital shell sets:                                           1
       Number of orbital shells:                                               6
       Number of primitive Cartesian functions:                                5
       Number of Cartesian basis functions:                                   15
       Number of spherical basis functions:                                   14
       Norm type:                                                              2

       Normalised Cartesian orbitals:

                        Set   Shell   Orbital            Exponent    Coefficient

                          1       1    1s               34.177738      -6.423540
                                                         4.947701      -0.270539
                                                         1.065127       0.831136
                                                         0.293823      -0.051765
                                                         0.091371      -0.049397

                          1       2    2s               34.177738       3.211471
                                                         4.947701       0.528758
                                                         1.065127       0.154529
                                                         0.293823       0.227881
                                                         0.091371      -0.041080

                          1       3    3s               34.177738      -1.131577
                                                         4.947701      -0.040048
                                                         1.065127       0.164523
                                                         0.293823       0.077306
                                                         0.091371       0.076395

                          1       4    2px              34.177738     -11.084238
                                                         4.947701       1.341091
                                                         1.065127       1.416453
                                                         0.293823      -0.007684
                                                         0.091371       0.008886
                          1       4    2py              34.177738     -11.084238
                                                         4.947701       1.341091
                                                         1.065127       1.416453
                                                         0.293823      -0.007684
                                                         0.091371       0.008886
                          1       4    2pz              34.177738     -11.084238
                                                         4.947701       1.341091
                                                         1.065127       1.416453
                                                         0.293823      -0.007684
                                                         0.091371       0.008886

                          1       5    3px              34.177738       9.643751
                                                         4.947701      -0.549928
                                                         1.065127       0.106963
                                                         0.293823       0.330130
                                                         0.091371      -0.013062
                          1       5    3py              34.177738       9.643751
                                                         4.947701      -0.549928
                                                         1.065127       0.106963
                                                         0.293823       0.330130
                                                         0.091371      -0.013062
                          1       5    3pz              34.177738       9.643751
                                                         4.947701      -0.549928
                                                         1.065127       0.106963
                                                         0.293823       0.330130
                                                         0.091371      -0.013062

                          1       6    3dx2             34.177738       9.702470
                                                         4.947701      -1.124420
                                                         1.065127       1.617163
                                                         0.293823       0.052231
                                                         0.091371      -0.004737
                          1       6    3dxy             34.177738      16.805171
                                                         4.947701      -1.947552
                                                         1.065127       2.801009
                                                         0.293823       0.090468
                                                         0.091371      -0.008204
                          1       6    3dxz             34.177738      16.805171
                                                         4.947701      -1.947552
                                                         1.065127       2.801009
                                                         0.293823       0.090468
                                                         0.091371      -0.008204
                          1       6    3dy2             34.177738       9.702470
                                                         4.947701      -1.124420
                                                         1.065127       1.617163
                                                         0.293823       0.052231
                                                         0.091371      -0.004737
                          1       6    3dyz             34.177738      16.805171
                                                         4.947701      -1.947552
                                                         1.065127       2.801009
                                                         0.293823       0.090468
                                                         0.091371      -0.008204
                          1       6    3dz2             34.177738       9.702470
                                                         4.947701      -1.124420
                                                         1.065127       1.617163
                                                         0.293823       0.052231
                                                         0.091371      -0.004737

       Atomic covalent radius [Angstrom]:                                  0.320

       Atomic van der Waals radius [Angstrom]:                             1.090

     The atoms of this atomic kind are PAW atoms (GAPW):
       Hard Gaussian function radius:                                      1.000
       Rho0 radius:                                                        1.000
       Maximum GTO radius used for PAW projector construction:            24.566

     GAPW Soft Basis Set                                TZVPP-MOLOPT-PBE-ae_soft

       Number of orbital shell sets:                                           1
       Number of orbital shells:                                               6
       Number of primitive Cartesian functions:                                4
       Number of Cartesian basis functions:                                   15
       Number of spherical basis functions:                                   14
       Norm type:                                                              2

       Normalised Cartesian orbitals:

                        Set   Shell   Orbital            Exponent    Coefficient

                          1       1    1s                4.947701      -0.270539
                                                         1.065127       0.831136
                                                         0.293823      -0.051765
                                                         0.091371      -0.049397

                          1       2    2s                4.947701       0.528758
                                                         1.065127       0.154529
                                                         0.293823       0.227881
                                                         0.091371      -0.041080

                          1       3    3s                4.947701      -0.040048
                                                         1.065127       0.164523
                                                         0.293823       0.077306
                                                         0.091371       0.076395

                          1       4    2px               4.947701       1.341091
                                                         1.065127       1.416453
                                                         0.293823      -0.007684
                                                         0.091371       0.008886
                          1       4    2py               4.947701       1.341091
                                                         1.065127       1.416453
                                                         0.293823      -0.007684
                                                         0.091371       0.008886
                          1       4    2pz               4.947701       1.341091
                                                         1.065127       1.416453
                                                         0.293823      -0.007684
                                                         0.091371       0.008886

                          1       5    3px               4.947701      -0.549928
                                                         1.065127       0.106963
                                                         0.293823       0.330130
                                                         0.091371      -0.013062
                          1       5    3py               4.947701      -0.549928
                                                         1.065127       0.106963
                                                         0.293823       0.330130
                                                         0.091371      -0.013062
                          1       5    3pz               4.947701      -0.549928
                                                         1.065127       0.106963
                                                         0.293823       0.330130
                                                         0.091371      -0.013062

                          1       6    3dx2              4.947701      -1.124420
                                                         1.065127       1.617163
                                                         0.293823       0.052231
                                                         0.091371      -0.004737
                          1       6    3dxy              4.947701      -1.947552
                                                         1.065127       2.801009
                                                         0.293823       0.090468
                                                         0.091371      -0.008204
                          1       6    3dxz              4.947701      -1.947552
                                                         1.065127       2.801009
                                                         0.293823       0.090468
                                                         0.091371      -0.008204
                          1       6    3dy2              4.947701      -1.124420
                                                         1.065127       1.617163
                                                         0.293823       0.052231
                                                         0.091371      -0.004737
                          1       6    3dyz              4.947701      -1.947552
                                                         1.065127       2.801009
                                                         0.293823       0.090468
                                                         0.091371      -0.008204
                          1       6    3dz2              4.947701      -1.124420
                                                         1.065127       1.617163
                                                         0.293823       0.052231
                                                         0.091371      -0.004737

     AE Potential information for                                            ALL

       Description:                                       All-electron potential
                                          Krack, Parrinello, PCCP 2, 2105 (2000)

       Gaussian exponent of the core charge distribution:              12.500000
       Electronic configuration (s p d ...):                           1   0   0

  2. Atomic kind: O                                     Number of atoms:      12

     Orbital Basis Set                                       TZVPP-MOLOPT-PBE-ae

       Number of orbital shell sets:                                           2
       Number of orbital shells:                                              11
       Number of primitive Cartesian functions:                               12
       Number of Cartesian basis functions:                                   36
       Number of spherical basis functions:                                   31
       Norm type:                                                              2

       Normalised Cartesian orbitals:

                        Set   Shell   Orbital            Exponent    Coefficient

                          1       1    1s            27032.341107       0.827485
                                                      4052.439160       2.350354
                                                       922.349653       2.989583
                                                       261.277359       5.859993
                                                        85.309424       4.920023
                                                        31.080802       6.525964

                          2       1    1s               62.914956       1.320675
                                                        12.309450       2.903007
                                                         4.395399       0.718493
                                                         1.335408       0.005818
                                                         0.454433       0.026241
                                                         0.148931       0.008771

                          2       2    2s               62.914956      -0.747743
                                                        12.309450      -0.053902
                                                         4.395399      -0.111917
                                                         1.335408       0.667362
                                                         0.454433       0.073646
                                                         0.148931       0.036066

                          2       3    3s               62.914956       0.182030
                                                        12.309450      -0.509964
                                                         4.395399      -0.066370
                                                         1.335408      -0.296204
                                                         0.454433       0.339134
                                                         0.148931       0.072341

                          2       4    4s               62.914956       1.590188
                                                        12.309450      -0.201401
                                                         4.395399      -0.014958
                                                         1.335408      -0.186757
                                                         0.454433      -0.327789
                                                         0.148931       0.257390

                          2       5    2px              62.914956     -23.794765
                                                        12.309450       3.872733
                                                         4.395399       2.867225
                                                         1.335408       1.487193
                                                         0.454433      -0.015509
                                                         0.148931       0.002211
                          2       5    2py              62.914956     -23.794765
                                                        12.309450       3.872733
                                                         4.395399       2.867225
                                                         1.335408       1.487193
                                                         0.454433      -0.015509
                                                         0.148931       0.002211
                          2       5    2pz              62.914956     -23.794765
                                                        12.309450       3.872733
                                                         4.395399       2.867225
                                                         1.335408       1.487193
                                                         0.454433      -0.015509
                                                         0.148931       0.002211

                          2       6    3px              62.914956      36.698597
                                                        12.309450      -1.837950
                                                         4.395399       0.441215
                                                         1.335408       0.085170
                                                         0.454433       0.481961
                                                         0.148931       0.008518
                          2       6    3py              62.914956      36.698597
                                                        12.309450      -1.837950
                                                         4.395399       0.441215
                                                         1.335408       0.085170
                                                         0.454433       0.481961
                                                         0.148931       0.008518
                          2       6    3pz              62.914956      36.698597
                                                        12.309450      -1.837950
                                                         4.395399       0.441215
                                                         1.335408       0.085170
                                                         0.454433       0.481961
                                                         0.148931       0.008518

                          2       7    4px              62.914956     -10.152534
                                                        12.309450       0.600610
                                                         4.395399      -0.295522
                                                         1.335408      -0.042535
                                                         0.454433      -0.034294
                                                         0.148931       0.138320
                          2       7    4py              62.914956     -10.152534
                                                        12.309450       0.600610
                                                         4.395399      -0.295522
                                                         1.335408      -0.042535
                                                         0.454433      -0.034294
                                                         0.148931       0.138320
                          2       7    4pz              62.914956     -10.152534
                                                        12.309450       0.600610
                                                         4.395399      -0.295522
                                                         1.335408      -0.042535
                                                         0.454433      -0.034294
                                                         0.148931       0.138320

                          2       8    3dx2             62.914956     245.407483
                                                        12.309450      -3.718320
                                                         4.395399      13.187048
                                                         1.335408       1.177796
                                                         0.454433       0.037044
                                                         0.148931       0.011799
                          2       8    3dxy             62.914956     425.058229
                                                        12.309450      -6.440319
                                                         4.395399      22.840637
                                                         1.335408       2.040003
                                                         0.454433       0.064161
                                                         0.148931       0.020436
                          2       8    3dxz             62.914956     425.058229
                                                        12.309450      -6.440319
                                                         4.395399      22.840637
                                                         1.335408       2.040003
                                                         0.454433       0.064161
                                                         0.148931       0.020436
                          2       8    3dy2             62.914956     245.407483
                                                        12.309450      -3.718320
                                                         4.395399      13.187048
                                                         1.335408       1.177796
                                                         0.454433       0.037044
                                                         0.148931       0.011799
                          2       8    3dyz             62.914956     425.058229
                                                        12.309450      -6.440319
                                                         4.395399      22.840637
                                                         1.335408       2.040003
                                                         0.454433       0.064161
                                                         0.148931       0.020436
                          2       8    3dz2             62.914956     245.407483
                                                        12.309450      -3.718320
                                                         4.395399      13.187048
                                                         1.335408       1.177796
                                                         0.454433       0.037044
                                                         0.148931       0.011799

                          2       9    4dx2             62.914956    -198.939864
                                                        12.309450       6.262545
                                                         4.395399      -7.656182
                                                         1.335408       1.062793
                                                         0.454433       0.341143
                                                         0.148931      -0.006399
                          2       9    4dxy             62.914956    -344.573952
                                                        12.309450      10.847045
                                                         4.395399     -13.260897
                                                         1.335408       1.840811
                                                         0.454433       0.590877
                                                         0.148931      -0.011084
                          2       9    4dxz             62.914956    -344.573952
                                                        12.309450      10.847045
                                                         4.395399     -13.260897
                                                         1.335408       1.840811
                                                         0.454433       0.590877
                                                         0.148931      -0.011084
                          2       9    4dy2             62.914956    -198.939864
                                                        12.309450       6.262545
                                                         4.395399      -7.656182
                                                         1.335408       1.062793
                                                         0.454433       0.341143
                                                         0.148931      -0.006399
                          2       9    4dyz             62.914956    -344.573952
                                                        12.309450      10.847045
                                                         4.395399     -13.260897
                                                         1.335408       1.840811
                                                         0.454433       0.590877
                                                         0.148931      -0.011084
                          2       9    4dz2             62.914956    -198.939864
                                                        12.309450       6.262545
                                                         4.395399      -7.656182
                                                         1.335408       1.062793
                                                         0.454433       0.341143
                                                         0.148931      -0.006399

                          2      10    4fx3             62.914956       4.775823
                                                        12.309450      16.622131
                                                         4.395399      -5.031344
                                                         1.335408       2.406605
                                                         0.454433       0.066745
                                                         0.148931       0.001654
                          2      10    4fx2y            62.914956      10.679066
                                                        12.309450      37.168214
                                                         4.395399     -11.250428
                                                         1.335408       5.381333
                                                         0.454433       0.149247
                                                         0.148931       0.003699
                          2      10    4fx2z            62.914956      10.679066
                                                        12.309450      37.168214
                                                         4.395399     -11.250428
                                                         1.335408       5.381333
                                                         0.454433       0.149247
                                                         0.148931       0.003699
                          2      10    4fxy2            62.914956      10.679066
                                                        12.309450      37.168214
                                                         4.395399     -11.250428
                                                         1.335408       5.381333
                                                         0.454433       0.149247
                                                         0.148931       0.003699
                          2      10    4fxyz            62.914956      18.496684
                                                        12.309450      64.377235
                                                         4.395399     -19.486313
                                                         1.335408       9.320743
                                                         0.454433       0.258503
                                                         0.148931       0.006406
                          2      10    4fxz2            62.914956      10.679066
                                                        12.309450      37.168214
                                                         4.395399     -11.250428
                                                         1.335408       5.381333
                                                         0.454433       0.149247
                                                         0.148931       0.003699
                          2      10    4fy3             62.914956       4.775823
                                                        12.309450      16.622131
                                                         4.395399      -5.031344
                                                         1.335408       2.406605
                                                         0.454433       0.066745
                                                         0.148931       0.001654
                          2      10    4fy2z            62.914956      10.679066
                                                        12.309450      37.168214
                                                         4.395399     -11.250428
                                                         1.335408       5.381333
                                                         0.454433       0.149247
                                                         0.148931       0.003699
                          2      10    4fyz2            62.914956      10.679066
                                                        12.309450      37.168214
                                                         4.395399     -11.250428
                                                         1.335408       5.381333
                                                         0.454433       0.149247
                                                         0.148931       0.003699
                          2      10    4fz3             62.914956       4.775823
                                                        12.309450      16.622131
                                                         4.395399      -5.031344
                                                         1.335408       2.406605
                                                         0.454433       0.066745
                                                         0.148931       0.001654

       Atomic covalent radius [Angstrom]:                                  0.730

       Atomic van der Waals radius [Angstrom]:                             1.520

     The atoms of this atomic kind are PAW atoms (GAPW):
       Hard Gaussian function radius:                                      1.400
       Rho0 radius:                                                        1.400
       Maximum GTO radius used for PAW projector construction:            24.566

     GAPW Soft Basis Set                                TZVPP-MOLOPT-PBE-ae_soft

       Number of orbital shell sets:                                           2
       Number of orbital shells:                                              11
       Number of primitive Cartesian functions:                                4
       Number of Cartesian basis functions:                                   36
       Number of spherical basis functions:                                   31
       Norm type:                                                              2

       Normalised Cartesian orbitals:

                        Set   Shell   Orbital            Exponent    Coefficient

                          1       1    1s         

                          2       1    1s                4.395399       0.718493
                                                         1.335408       0.005818
                                                         0.454433       0.026241
                                                         0.148931       0.008771

                          2       2    2s                4.395399      -0.111917
                                                         1.335408       0.667362
                                                         0.454433       0.073646
                                                         0.148931       0.036066

                          2       3    3s                4.395399      -0.066370
                                                         1.335408      -0.296204
                                                         0.454433       0.339134
                                                         0.148931       0.072341

                          2       4    4s                4.395399      -0.014958
                                                         1.335408      -0.186757
                                                         0.454433      -0.327789
                                                         0.148931       0.257390

                          2       5    2px               4.395399       2.867225
                                                         1.335408       1.487193
                                                         0.454433      -0.015509
                                                         0.148931       0.002211
                          2       5    2py               4.395399       2.867225
                                                         1.335408       1.487193
                                                         0.454433      -0.015509
                                                         0.148931       0.002211
                          2       5    2pz               4.395399       2.867225
                                                         1.335408       1.487193
                                                         0.454433      -0.015509
                                                         0.148931       0.002211

                          2       6    3px               4.395399       0.441215
                                                         1.335408       0.085170
                                                         0.454433       0.481961
                                                         0.148931       0.008518
                          2       6    3py               4.395399       0.441215
                                                         1.335408       0.085170
                                                         0.454433       0.481961
                                                         0.148931       0.008518
                          2       6    3pz               4.395399       0.441215
                                                         1.335408       0.085170
                                                         0.454433       0.481961
                                                         0.148931       0.008518

                          2       7    4px               4.395399      -0.295522
                                                         1.335408      -0.042535
                                                         0.454433      -0.034294
                                                         0.148931       0.138320
                          2       7    4py               4.395399      -0.295522
                                                         1.335408      -0.042535
                                                         0.454433      -0.034294
                                                         0.148931       0.138320
                          2       7    4pz               4.395399      -0.295522
                                                         1.335408      -0.042535
                                                         0.454433      -0.034294
                                                         0.148931       0.138320

                          2       8    3dx2              4.395399      13.187048
                                                         1.335408       1.177796
                                                         0.454433       0.037044
                                                         0.148931       0.011799
                          2       8    3dxy              4.395399      22.840637
                                                         1.335408       2.040003
                                                         0.454433       0.064161
                                                         0.148931       0.020436
                          2       8    3dxz              4.395399      22.840637
                                                         1.335408       2.040003
                                                         0.454433       0.064161
                                                         0.148931       0.020436
                          2       8    3dy2              4.395399      13.187048
                                                         1.335408       1.177796
                                                         0.454433       0.037044
                                                         0.148931       0.011799
                          2       8    3dyz              4.395399      22.840637
                                                         1.335408       2.040003
                                                         0.454433       0.064161
                                                         0.148931       0.020436
                          2       8    3dz2              4.395399      13.187048
                                                         1.335408       1.177796
                                                         0.454433       0.037044
                                                         0.148931       0.011799

                          2       9    4dx2              4.395399      -7.656182
                                                         1.335408       1.062793
                                                         0.454433       0.341143
                                                         0.148931      -0.006399
                          2       9    4dxy              4.395399     -13.260897
                                                         1.335408       1.840811
                                                         0.454433       0.590877
                                                         0.148931      -0.011084
                          2       9    4dxz              4.395399     -13.260897
                                                         1.335408       1.840811
                                                         0.454433       0.590877
                                                         0.148931      -0.011084
                          2       9    4dy2              4.395399      -7.656182
                                                         1.335408       1.062793
                                                         0.454433       0.341143
                                                         0.148931      -0.006399
                          2       9    4dyz              4.395399     -13.260897
                                                         1.335408       1.840811
                                                         0.454433       0.590877
                                                         0.148931      -0.011084
                          2       9    4dz2              4.395399      -7.656182
                                                         1.335408       1.062793
                                                         0.454433       0.341143
                                                         0.148931      -0.006399

                          2      10    4fx3              4.395399      -5.031344
                                                         1.335408       2.406605
                                                         0.454433       0.066745
                                                         0.148931       0.001654
                          2      10    4fx2y             4.395399     -11.250428
                                                         1.335408       5.381333
                                                         0.454433       0.149247
                                                         0.148931       0.003699
                          2      10    4fx2z             4.395399     -11.250428
                                                         1.335408       5.381333
                                                         0.454433       0.149247
                                                         0.148931       0.003699
                          2      10    4fxy2             4.395399     -11.250428
                                                         1.335408       5.381333
                                                         0.454433       0.149247
                                                         0.148931       0.003699
                          2      10    4fxyz             4.395399     -19.486313
                                                         1.335408       9.320743
                                                         0.454433       0.258503
                                                         0.148931       0.006406
                          2      10    4fxz2             4.395399     -11.250428
                                                         1.335408       5.381333
                                                         0.454433       0.149247
                                                         0.148931       0.003699
                          2      10    4fy3              4.395399      -5.031344
                                                         1.335408       2.406605
                                                         0.454433       0.066745
                                                         0.148931       0.001654
                          2      10    4fy2z             4.395399     -11.250428
                                                         1.335408       5.381333
                                                         0.454433       0.149247
                                                         0.148931       0.003699
                          2      10    4fyz2             4.395399     -11.250428
                                                         1.335408       5.381333
                                                         0.454433       0.149247
                                                         0.148931       0.003699
                          2      10    4fz3              4.395399      -5.031344
                                                         1.335408       2.406605
                                                         0.454433       0.066745
                                                         0.148931       0.001654

     AE Potential information for                                            ALL

       Description:                                       All-electron potential
                                          Krack, Parrinello, PCCP 2, 2105 (2000)

       Gaussian exponent of the core charge distribution:               8.154466
       Electronic configuration (s p d ...):                           4   4   0


 MOLECULE KIND INFORMATION


 All atoms are their own molecule, skipping detailed information


 TOTAL NUMBERS AND MAXIMUM NUMBERS

  Total number of            - Atomic kinds:                                   2
                             - Atoms:                                         36
                             - Shell sets:                                    48
                             - Shells:                                       276
                             - Primitive Cartesian functions:                264
                             - Cartesian basis functions:                    792
                             - Spherical basis functions:                    708

  Maximum angular momentum of the orbital basis functions:                     3


 MODULE QUICKSTEP: ATOMIC COORDINATES IN ANGSTROM

   Atom Kind Element         X             Y             Z       Z(eff)     Mass
      1    1 H     1      6.738562      2.306928      1.294600   1.0000   1.0079
      2    1 H     1      0.773350      1.115519      1.928887   1.0000   1.0079
      3    1 H     1      2.098367      2.512762      0.723573   1.0000   1.0079
      4    1 H     1      1.085523      3.346111      2.996579   1.0000   1.0079
      5    1 H     1      2.276932      4.165802      3.630866   1.0000   1.0079
      6    1 H     1      0.879690      5.490818      2.425552   1.0000   1.0079
      7    1 H     1      5.699380      3.438792      6.400537   1.0000   1.0079
      8    1 H     1      4.507971      2.619101      0.226908   1.0000   1.0079
      9    1 H     1      5.905213      1.294085      5.829510   1.0000   1.0079
     10    1 H     1      3.438792      5.699380      0.407379   1.0000   1.0079
     11    1 H     1      2.619101      4.507971      6.581008   1.0000   1.0079
     12    1 H     1      1.294085      5.905213      0.978406   1.0000   1.0079
     13    1 H     1      3.346111      1.085523      3.811337   1.0000   1.0079
     14    1 H     1      4.165802      2.276932      3.177050   1.0000   1.0079
     15    1 H     1      5.490818      0.879690      4.382364   1.0000   1.0079
     16    1 H     1      2.512762      2.098367      6.084343   1.0000   1.0079
     17    1 H     1      4.477975      0.046341      2.109358   1.0000   1.0079
     18    1 H     1      5.669384      6.011553      1.475071   1.0000   1.0079
     19    1 H     1      4.272141      4.686536      2.680385   1.0000   1.0079
     20    1 H     1      0.046341      4.477975      4.698558   1.0000   1.0079
     21    1 H     1      6.011553      5.669384      5.332845   1.0000   1.0079
     22    1 H     1      4.686536      4.272141      4.127531   1.0000   1.0079
     23    1 H     1      2.306928      6.738562      5.513316   1.0000   1.0079
     24    1 H     1      1.115519      0.773350      4.879029   1.0000   1.0079
     25    2 O     8      0.774076      2.103523      1.820205   8.0000  15.9994
     26    2 O     8      1.288928      4.166528      3.522184   8.0000  15.9994
     27    2 O     8      5.495975      2.618375      0.118219   8.0000  15.9994
     28    2 O     8      2.618375      5.495975      6.689690   8.0000  15.9994
     29    2 O     8      4.166528      1.288928      3.285732   8.0000  15.9994
     30    2 O     8      4.681380      6.010827      1.583753   8.0000  15.9994
     31    2 O     8      6.010827      4.681380      5.224163   8.0000  15.9994
     32    2 O     8      2.103523      0.774076      4.987711   8.0000  15.9994
     33    2 O     8      2.742838      2.742838      0.000000   8.0000  15.9994
     34    2 O     8      0.649614      6.135289      1.701979   8.0000  15.9994
     35    2 O     8      6.135289      0.649614      5.105937   8.0000  15.9994
     36    2 O     8      4.042065      4.042065      3.403958   8.0000  15.9994



 SCF PARAMETERS         Density guess:                                    ATOMIC
                        --------------------------------------------------------
                        max_scf:                                             300
                        max_scf_history:                                       0
                        max_diis:                                              4
                        --------------------------------------------------------
                        eps_scf:                                        5.00E-07
                        eps_scf_history:                                0.00E+00
                        eps_diis:                                       0.00E+00
                        eps_eigval:                                     1.00E-05
                        --------------------------------------------------------
                        level_shift [a.u.]:                             0.000000
                        --------------------------------------------------------
                        Outer loop SCF in use 
                        No variables optimised in outer loop
                        eps_scf                                         5.00E-07
                        max_scf                                                2
                        No outer loop optimization
                        step_size                                       5.00E-01

 PW_GRID| Information for grid number                                          1
 PW_GRID| Cutoff [a.u.]                                                    400.0
 PW_GRID| spherical cutoff:                                                   NO
 PW_GRID|   Bounds   1            -60      59                Points:         120
 PW_GRID|   Bounds   2            -60      59                Points:         120
 PW_GRID|   Bounds   3            -60      59                Points:         120
 PW_GRID| Volume element (a.u.^3)  0.1224E-02     Volume (a.u.^3)      2114.9401
 PW_GRID| Grid span                                                    FULLSPACE

 PW_GRID| Information for grid number                                          2
 PW_GRID| Number of the reference grid                                         1
 PW_GRID| Cutoff [a.u.]                                                    133.3
 PW_GRID| spherical cutoff:                                                   NO
 PW_GRID|   Bounds   1            -36      35                Points:          72
 PW_GRID|   Bounds   2            -36      35                Points:          72
 PW_GRID|   Bounds   3            -36      35                Points:          72
 PW_GRID| Volume element (a.u.^3)  0.5666E-02     Volume (a.u.^3)      2114.9401
 PW_GRID| Grid span                                                    FULLSPACE

 PW_GRID| Information for grid number                                          3
 PW_GRID| Number of the reference grid                                         1
 PW_GRID| Cutoff [a.u.]                                                     44.4
 PW_GRID| spherical cutoff:                                                   NO
 PW_GRID|   Bounds   1            -20      19                Points:          40
 PW_GRID|   Bounds   2            -20      19                Points:          40
 PW_GRID|   Bounds   3            -20      19                Points:          40
 PW_GRID| Volume element (a.u.^3)  0.3305E-01     Volume (a.u.^3)      2114.9401
 PW_GRID| Grid span                                                    FULLSPACE

 PW_GRID| Information for grid number                                          4
 PW_GRID| Number of the reference grid                                         1
 PW_GRID| Cutoff [a.u.]                                                     14.8
 PW_GRID| spherical cutoff:                                                   NO
 PW_GRID|   Bounds   1            -12      11                Points:          24
 PW_GRID|   Bounds   2            -12      11                Points:          24
 PW_GRID|   Bounds   3            -12      11                Points:          24
 PW_GRID| Volume element (a.u.^3)  0.1530         Volume (a.u.^3)      2114.9401
 PW_GRID| Grid span                                                    FULLSPACE

 PW_GRID| Information for grid number                                          5
 PW_GRID| Number of the reference grid                                         1
 PW_GRID| Cutoff [a.u.]                                                      4.9
 PW_GRID| spherical cutoff:                                                   NO
 PW_GRID|   Bounds   1             -7       7                Points:          15
 PW_GRID|   Bounds   2             -7       7                Points:          15
 PW_GRID|   Bounds   3             -7       7                Points:          15
 PW_GRID| Volume element (a.u.^3)  0.6266         Volume (a.u.^3)      2114.9401
 PW_GRID| Grid span                                                    FULLSPACE

 POISSON| Solver                                                        PERIODIC
 POISSON| Periodicity                                                        XYZ

 RS_GRID| Information for grid number                                          1
 RS_GRID|   Bounds   1            -60      59                Points:         120
 RS_GRID|   Bounds   2            -60      59                Points:         120
 RS_GRID|   Bounds   3            -60      59                Points:         120

 RS_GRID| Information for grid number                                          2
 RS_GRID|   Bounds   1            -36      35                Points:          72
 RS_GRID|   Bounds   2            -36      35                Points:          72
 RS_GRID|   Bounds   3            -36      35                Points:          72

 RS_GRID| Information for grid number                                          3
 RS_GRID|   Bounds   1            -20      19                Points:          40
 RS_GRID|   Bounds   2            -20      19                Points:          40
 RS_GRID|   Bounds   3            -20      19                Points:          40

 RS_GRID| Information for grid number                                          4
 RS_GRID|   Bounds   1            -12      11                Points:          24
 RS_GRID|   Bounds   2            -12      11                Points:          24
 RS_GRID|   Bounds   3            -12      11                Points:          24

 RS_GRID| Information for grid number                                          5
 RS_GRID|   Bounds   1             -7       7                Points:          15
 RS_GRID|   Bounds   2             -7       7                Points:          15
 RS_GRID|   Bounds   3             -7       7                Points:          15

 *******************************************************************************
                                    Kpoints
 *******************************************************************************
 BRILLOUIN| K-point scheme                                        Monkhorst-Pack
 BRILLOUIN| K-Point grid                                             3    3    3
 BRILLOUIN| Gamma-centered k-point mesh                                     ON
 BRILLOUIN| K-point symmetry accuracy                               0.100000E-05
 BRILLOUIN| K-Point point group symmetrization                                ON
 BRILLOUIN| Restrict symmetry to inversion                                    ON
 BRILLOUIN| Wavefunction type                                            COMPLEX
 BRILLOUIN| List of Kpoints [2 Pi/Bohr]                                       14
 BRILLOUIN| Number           Weight            X              Y              Z
 BRILLOUIN|     1           0.07407       -0.33333       -0.33333       -0.33333
 BRILLOUIN|     2           0.07407       -0.33333       -0.33333        0.00000
 BRILLOUIN|     3           0.07407       -0.33333       -0.33333        0.33333
 BRILLOUIN|     4           0.07407       -0.33333        0.00000       -0.33333
 BRILLOUIN|     5           0.07407       -0.33333        0.00000        0.00000
 BRILLOUIN|     6           0.07407       -0.33333        0.00000        0.33333
 BRILLOUIN|     7           0.07407       -0.33333        0.33333       -0.33333
 BRILLOUIN|     8           0.07407       -0.33333        0.33333        0.00000
 BRILLOUIN|     9           0.07407       -0.33333        0.33333        0.33333
 BRILLOUIN|    10           0.07407        0.00000       -0.33333       -0.33333
 BRILLOUIN|    11           0.07407        0.00000       -0.33333        0.00000
 BRILLOUIN|    12           0.07407        0.00000       -0.33333        0.33333
 BRILLOUIN|    13           0.07407        0.00000        0.00000       -0.33333
 BRILLOUIN|    14           0.03704        0.00000        0.00000        0.00000
 *******************************************************************************

 *** WARNING in qs_scf_initialization.F:719 :: MO derivative methods flag ***
 *** has been switched off for kpoint calculation                         ***


 Extrapolation method: initial_guess

 Atomic guess: The first density matrix is obtained in terms of atomic orbitals
               and electronic configurations assigned to each atomic kind

 Guess for atomic kind: H

 Electronic structure
    Total number of core electrons                                          0.00
    Total number of valence electrons                                       1.00
    Total number of electrons                                               1.00
    Multiplicity                                                   not specified
    S      1.00


 *******************************************************************************
                  Iteration          Convergence                     Energy [au]
 *******************************************************************************
                          1        0.842545E-02                  -0.445100128715
                          2        0.129529E-02                  -0.445186551903
                          3        0.161091E-05                  -0.445188626016
                          4        0.290776E-07                  -0.445188626019

 Energy components [Hartree]           Total Energy ::           -0.445188626019
                                        Band Energy ::           -0.232306922112
                                     Kinetic Energy ::            0.426044212024
                                   Potential Energy ::           -0.871232838043
                                      Virial (-V/T) ::            2.044935275390
                                        Core Energy ::           -0.495846412394
                                          XC Energy ::           -0.232824427171
                                     Coulomb Energy ::            0.283482213547

 Orbital energies  State     L     Occupation   Energy[a.u.]          Energy[eV]

                       1     0          1.000      -0.232307           -6.321393


 Total Electron Density at R=0:                                         0.247530

 Guess for atomic kind: O

 Electronic structure
    Total number of core electrons                                          0.00
    Total number of valence electrons                                       8.00
    Total number of electrons                                               8.00
    Multiplicity                                                   not specified
    S      2.00  2.00
    P      4.00


 *******************************************************************************
                  Iteration          Convergence                     Energy [au]
 *******************************************************************************
                          1        0.852480                     -74.332672756082
                          2        0.822104                     -74.327611038196
                          3        0.503433E-01                 -74.437825052376
                          4        0.180131E-02                 -74.438232362009
                          5        0.615789E-04                 -74.438232811716
                          6        0.162343E-05                 -74.438232812301
                          7        0.619766E-06                 -74.438232812301

 Energy components [Hartree]           Total Energy ::          -74.438232812301
                                        Band Energy ::          -40.686258539782
                                     Kinetic Energy ::           74.021280552073
                                   Potential Energy ::         -148.459513364374
                                      Virial (-V/T) ::            2.005632870130
                                        Core Energy ::         -102.906048127742
                                          XC Energy ::           -7.749500989531
                                     Coulomb Energy ::           36.217316304972

 Orbital energies  State     L     Occupation   Energy[a.u.]          Energy[eV]

                       1     0          2.000     -18.777544         -510.962961
                       2     0          2.000      -0.872213          -23.734118

                       1     1          4.000      -0.346686           -9.433811


 Total Electron Density at R=0:                                       296.401580
 Re-scaling the density matrix to get the right number of electrons
                  # Electrons              Trace(P)               Scaling factor
                          120               120.000                        1.000

 Number of electrons:                                                        120
 Number of occupied orbitals:                                                 60
 Number of molecular orbitals:                                                60

 Number of orbital functions:                                                708
 Number of independent orbital functions:                                    708


 SCF WAVEFUNCTION OPTIMIZATION

  ----------------------------------- OT ---------------------------------------
  Minimizer      : DIIS                : direct inversion
                                         in the iterative subspace
                                         using   7 DIIS vectors
                                         safer DIIS on
  Preconditioner : FULL_ALL            : diagonalization, state selective
  Precond_solver : DEFAULT
  stepsize       :    0.10000000                  energy_gap     :    0.00100000
  ortho_irac     : CHOL                           irac_degree    :             4
  max_irac       :            50                  eps_irac       :   0.10000E-09
  eps_irac_switch:   0.10000E-01                  eps_irac_quick_exit: 0.100E-04
  on_the_fly_loc : F
  ----------------------------------- OT ---------------------------------------

  Step     Update method      Time    Convergence         Total energy    Change
  ------------------------------------------------------------------------------

 *** WARNING in qs_ks_methods.F:773 :: Native SKALA grid evaluation with   ***
 *** k-points is using the CPU TorchScript path. Use a mutually compatible ***
 *** BLAS, ScaLAPACK, OpenMP, and LibTorch runtime stack, or select        ***
 *** NATIVE_GRID_USE_CUDA T.                                               ***

 SKALA_GPW| Atom-composite cross support/maxima   1.715758840678E+00   6.439370060574E+01   8.920524249626E+02   2.029283476302E+03
 SKALA_GPW| Active atom-composite XC energy  -1.0342950704567616E+02
 SKALA_GPW| Active atom-composite electrons   1.2000432060649847E+02
 SKALA_GPW| Active atom-composite density range   6.3802049017545415E-04   1.4042784899027555E+02
 SKALA_GPW| Active atom-composite tau range   3.4621313452134556E-04   4.2010778847667680E+03
 SKALA_GPW| Active atom-composite tau integral   8.5353831787156435E+02
 SKALA_GPW| Active atom-composite max gradient   2.0754107048496908E+03
     1 OT DIIS     0.10E+00 1725.0     0.02288884      -859.3646498009 -8.59E+02
 SKALA_GPW| Atom-composite cross support/maxima   1.715758840678E+00   6.767670061703E+01   9.614470153069E+02   2.170658875984E+03
 SKALA_GPW| Active atom-composite XC energy  -1.0941043457905985E+02
 SKALA_GPW| Active atom-composite electrons   1.2000393558086775E+02
 SKALA_GPW| Active atom-composite density range   5.5261008590221225E-04   1.4869537469720686E+02
 SKALA_GPW| Active atom-composite tau range   2.9107397616500656E-04   4.5583505720020885E+03
 SKALA_GPW| Active atom-composite tau integral   9.1576098149327493E+02
 SKALA_GPW| Active atom-composite max gradient   2.2260767843262370E+03
     2 OT DIIS     0.10E+00 1534.5     0.01006104      -901.3073180198 -4.19E+01
 SKALA_GPW| Atom-composite cross support/maxima   1.715758840678E+00   6.814556245359E+01   9.748442351246E+02   2.205211828152E+03
 SKALA_GPW| Active atom-composite XC energy  -1.1008549108196762E+02
 SKALA_GPW| Active atom-composite electrons   1.2000375894889719E+02
 SKALA_GPW| Active atom-composite density range   5.0739999663680136E-04   1.5073028788330595E+02
 SKALA_GPW| Active atom-composite tau range   2.6483278860222839E-04   4.6490476605448875E+03
 SKALA_GPW| Active atom-composite tau integral   9.1842720591664829E+02
 SKALA_GPW| Active atom-composite max gradient   2.2684933423613156E+03
     3 OT DIIS     0.10E+00 1516.7     0.00812243      -908.5244752752 -7.22E+00
 SKALA_GPW| Atom-composite cross support/maxima   1.715758840678E+00   6.805799394554E+01   9.747879150275E+02   2.204696604243E+03
 SKALA_GPW| Active atom-composite XC energy  -1.1033632927594377E+02
 SKALA_GPW| Active atom-composite electrons   1.2000371274154321E+02
 SKALA_GPW| Active atom-composite density range   4.9464545281616601E-04   1.5086842145519827E+02
 SKALA_GPW| Active atom-composite tau range   2.5832131862853300E-04   4.6494952700058284E+03
 SKALA_GPW| Active atom-composite tau integral   9.1949830684572089E+02
 SKALA_GPW| Active atom-composite max gradient   2.2699035531586028E+03
     4 OT DIIS     0.10E+00 1523.3     0.00339396      -910.7743548224 -2.25E+00
 SKALA_GPW| Atom-composite cross support/maxima   1.715758840678E+00   6.792666556233E+01   9.719776200143E+02   2.198385823826E+03
 SKALA_GPW| Active atom-composite XC energy  -1.1040459626134235E+02
 SKALA_GPW| Active atom-composite electrons   1.2000361189266512E+02
 SKALA_GPW| Active atom-composite density range   4.6875304937517737E-04   1.5046279880227294E+02
 SKALA_GPW| Active atom-composite tau range   2.4393037789538038E-04   4.6420042011012838E+03
 SKALA_GPW| Active atom-composite tau integral   9.1644762972805870E+02
 SKALA_GPW| Active atom-composite max gradient   2.2655909825190120E+03
     5 OT DIIS     0.10E+00 1514.5     0.00242319      -912.2257162269 -1.45E+00
 SKALA_GPW| Atom-composite cross support/maxima   1.715758840678E+00   6.780891840956E+01   9.707490481294E+02   2.194318568469E+03
 SKALA_GPW| Active atom-composite XC energy  -1.1055369059116877E+02
 SKALA_GPW| Active atom-composite electrons   1.2000352920155346E+02
 SKALA_GPW| Active atom-composite density range   4.4788324911235682E-04   1.5027783102871419E+02
 SKALA_GPW| Active atom-composite tau range   2.3294455080630677E-04   4.6378797895063499E+03
 SKALA_GPW| Active atom-composite tau integral   9.1507808222960659E+02
 SKALA_GPW| Active atom-composite max gradient   2.2632910524556155E+03
     6 OT DIIS     0.10E+00 1506.4     0.00207175      -913.1104672192 -8.85E-01
 SKALA_GPW| Atom-composite cross support/maxima   1.715758840678E+00   6.779430498770E+01   9.701053690406E+02   2.193456380352E+03
 SKALA_GPW| Active atom-composite XC energy  -1.1077122368033164E+02
 SKALA_GPW| Active atom-composite electrons   1.2000343338572280E+02
 SKALA_GPW| Active atom-composite density range   4.2577687260642619E-04   1.5019991711280531E+02
 SKALA_GPW| Active atom-composite tau range   2.2090224052864917E-04   4.6371588740332581E+03
 SKALA_GPW| Active atom-composite tau integral   9.1423363579105433E+02
 SKALA_GPW| Active atom-composite max gradient   2.2626654698838411E+03
     7 OT DIIS     0.10E+00 1528.9     0.00172133      -914.0036230571 -8.93E-01
 SKALA_GPW| Atom-composite cross support/maxima   1.715758840678E+00   6.778901488964E+01   9.704120977522E+02   2.193554521631E+03
 SKALA_GPW| Active atom-composite XC energy  -1.1104922992098821E+02
 SKALA_GPW| Active atom-composite electrons   1.2000331569698594E+02
 SKALA_GPW| Active atom-composite density range   4.0037337197707852E-04   1.5023518942788436E+02
 SKALA_GPW| Active atom-composite tau range   2.0754100962998314E-04   4.6400653083754432E+03
 SKALA_GPW| Active atom-composite tau integral   9.1390383873908456E+02
 SKALA_GPW| Active atom-composite max gradient   2.2641414063617062E+03
     8 OT DIIS     0.10E+00 1505.9     0.00137355      -914.9226784259 -9.19E-01
 SKALA_GPW| Atom-composite cross support/maxima   1.715758840678E+00   6.781706727836E+01   9.712759965081E+02   2.195070583163E+03
 SKALA_GPW| Active atom-composite XC energy  -1.1125687699893182E+02
 SKALA_GPW| Active atom-composite electrons   1.2000320812911849E+02
 SKALA_GPW| Active atom-composite density range   3.7301301712248399E-04   1.5032382290515383E+02
 SKALA_GPW| Active atom-composite tau range   1.9777854802943329E-04   4.6437754938265743E+03
 SKALA_GPW| Active atom-composite tau integral   9.1394231551669327E+02
 SKALA_GPW| Active atom-composite max gradient   2.2650882046380070E+03
     9 OT DIIS     0.10E+00 1496.1     0.00114218      -915.5847684394 -6.62E-01
 SKALA_GPW| Atom-composite cross support/maxima   1.715758840678E+00   6.782246056158E+01   9.712624533144E+02   2.195382637515E+03
 SKALA_GPW| Active atom-composite XC energy  -1.1133697823321749E+02
 SKALA_GPW| Active atom-composite electrons   1.2000313484227844E+02
 SKALA_GPW| Active atom-composite density range   3.3992931524890504E-04   1.5034416965378861E+02
 SKALA_GPW| Active atom-composite tau range   1.9230993637412038E-04   4.6435344155642506E+03
 SKALA_GPW| Active atom-composite tau integral   9.1362312025070150E+02
 SKALA_GPW| Active atom-composite max gradient   2.2653096816996240E+03
    10 OT DIIS     0.10E+00 1495.1     0.00101019      -915.9502040178 -3.65E-01
 SKALA_GPW| Atom-composite cross support/maxima   1.715758840678E+00   6.777986159238E+01   9.709747075521E+02   2.194050568665E+03
 SKALA_GPW| Active atom-composite XC energy  -1.1138978641352436E+02
 SKALA_GPW| Active atom-composite electrons   1.2000303477557449E+02
 SKALA_GPW| Active atom-composite density range   3.0068604463939763E-04   1.5027932437106929E+02
 SKALA_GPW| Active atom-composite tau range   1.8653851781631986E-04   4.6434786025094518E+03
 SKALA_GPW| Active atom-composite tau integral   9.1281016723792084E+02
 SKALA_GPW| Active atom-composite max gradient   2.2650170418065431E+03
    11 OT DIIS     0.10E+00 1489.0     0.00085476      -916.3636671630 -4.13E-01
 SKALA_GPW| Atom-composite cross support/maxima   1.715758840678E+00   6.771718055540E+01   9.706119069565E+02   2.192735498331E+03
 SKALA_GPW| Active atom-composite XC energy  -1.1143578931357510E+02
 SKALA_GPW| Active atom-composite electrons   1.2000293430405266E+02
 SKALA_GPW| Active atom-composite density range   2.7198156744186994E-04   1.5021154345265322E+02
 SKALA_GPW| Active atom-composite tau range   1.8088092128414467E-04   4.6430760228141808E+03
 SKALA_GPW| Active atom-composite tau integral   9.1207085900249785E+02
 SKALA_GPW| Active atom-composite max gradient   2.2642551347658177E+03
    12 OT DIIS     0.10E+00 1500.1     0.00071462      -916.6852487147 -3.22E-01
 SKALA_GPW| Atom-composite cross support/maxima   1.715758840678E+00   6.768752373317E+01   9.703644399357E+02   2.192112361895E+03
 SKALA_GPW| Active atom-composite XC energy  -1.1149365332558266E+02
 SKALA_GPW| Active atom-composite electrons   1.2000285512432120E+02
 SKALA_GPW| Active atom-composite density range   2.5421348218508964E-04   1.5017019519077351E+02
 SKALA_GPW| Active atom-composite tau range   1.7661668654599585E-04   4.6425736168213807E+03
 SKALA_GPW| Active atom-composite tau integral   9.1178407420601332E+02
 SKALA_GPW| Active atom-composite max gradient   2.2637131545200668E+03
    13 OT DIIS     0.10E+00 1485.6     0.00059703      -916.8826169317 -1.97E-01
 SKALA_GPW| Atom-composite cross support/maxima   1.715758840678E+00   6.766743150624E+01   9.701810122814E+02   2.191539709981E+03
 SKALA_GPW| Active atom-composite XC energy  -1.1159661013099895E+02
 SKALA_GPW| Active atom-composite electrons   1.2000275995541546E+02
 SKALA_GPW| Active atom-composite density range   2.3669418020809340E-04   1.5013562925169029E+02
 SKALA_GPW| Active atom-composite tau range   1.7185082915022445E-04   4.6413857779425962E+03
 SKALA_GPW| Active atom-composite tau integral   9.1189014404486659E+02
 SKALA_GPW| Active atom-composite max gradient   2.2631258337242630E+03
    14 OT DIIS     0.10E+00 1498.8     0.00047146      -917.0542558725 -1.72E-01
 SKALA_GPW| Atom-composite cross support/maxima   1.715758840678E+00   6.766519173232E+01   9.699962908299E+02   2.190888012291E+03
 SKALA_GPW| Active atom-composite XC energy  -1.1164634469161263E+02
 SKALA_GPW| Active atom-composite electrons   1.2000269185648028E+02
 SKALA_GPW| Active atom-composite density range   2.2384369863224452E-04   1.5010495980216942E+02
 SKALA_GPW| Active atom-composite tau range   1.6834775146123724E-04   4.6401676594855198E+03
 SKALA_GPW| Active atom-composite tau integral   9.1181646407090432E+02
 SKALA_GPW| Active atom-composite max gradient   2.2625414653135144E+03
    15 OT DIIS     0.10E+00 1489.7     0.00036586      -917.1644392159 -1.10E-01
 SKALA_GPW| Atom-composite cross support/maxima   1.715758840678E+00   6.766217750458E+01   9.698883754635E+02   2.190405639209E+03
 SKALA_GPW| Active atom-composite XC energy  -1.1164420267350728E+02
 SKALA_GPW| Active atom-composite electrons   1.2000265607472308E+02
 SKALA_GPW| Active atom-composite density range   2.1704462517695421E-04   1.5008540908916942E+02
 SKALA_GPW| Active atom-composite tau range   1.6770746173219261E-04   4.6392392984192493E+03
 SKALA_GPW| Active atom-composite tau integral   9.1157207934498899E+02
 SKALA_GPW| Active atom-composite max gradient   2.2621420399852454E+03
    16 OT DIIS     0.10E+00 1482.6     0.00027405      -917.2307549732 -6.63E-02
 SKALA_GPW| Atom-composite cross support/maxima   1.715758840678E+00   6.765723000533E+01   9.698305517629E+02   2.190099367062E+03
 SKALA_GPW| Active atom-composite XC energy  -1.1164244413150848E+02
 SKALA_GPW| Active atom-composite electrons   1.2000264112263028E+02
 SKALA_GPW| Active atom-composite density range   2.1461180058267952E-04   1.5007394005114122E+02
 SKALA_GPW| Active atom-composite tau range   1.6803396160449256E-04   4.6386067662445466E+03
 SKALA_GPW| Active atom-composite tau integral   9.1147547549105525E+02
 SKALA_GPW| Active atom-composite max gradient   2.2619004374008941E+03
    17 OT DIIS     0.10E+00 1493.2     0.00021906      -917.2606983779 -2.99E-02
 SKALA_GPW| Atom-composite cross support/maxima   1.715758840678E+00   6.764980048567E+01   9.699163796495E+02   2.189714106809E+03
 SKALA_GPW| Active atom-composite XC energy  -1.1165303041493162E+02
 SKALA_GPW| Active atom-composite electrons   1.2000262360766413E+02
 SKALA_GPW| Active atom-composite density range   2.1308772620785775E-04   1.5006303539460183E+02
 SKALA_GPW| Active atom-composite tau range   1.6849115474219169E-04   4.6376280460809858E+03
 SKALA_GPW| Active atom-composite tau integral   9.1147471138955666E+02
 SKALA_GPW| Active atom-composite max gradient   2.2615992298216493E+03
    18 OT DIIS     0.10E+00 1428.9     0.00014926      -917.2889362395 -2.82E-02
 SKALA_GPW| Atom-composite cross support/maxima   1.715758840678E+00   6.764896613726E+01   9.698652351351E+02   2.189426756954E+03
 SKALA_GPW| Active atom-composite XC energy  -1.1165550634359307E+02
 SKALA_GPW| Active atom-composite electrons   1.2000261524895220E+02
 SKALA_GPW| Active atom-composite density range   2.1309983472326681E-04   1.5005267105422223E+02
 SKALA_GPW| Active atom-composite tau range   1.6871906930826023E-04   4.6370071472118598E+03
 SKALA_GPW| Active atom-composite tau integral   9.1144126029849804E+02
 SKALA_GPW| Active atom-composite max gradient   2.2613723575073709E+03
    19 OT DIIS     0.10E+00 1388.3     0.00011242      -917.2993071701 -1.04E-02
 SKALA_GPW| Atom-composite cross support/maxima   1.715758840678E+00   6.765031620271E+01   9.697788899668E+02   2.189425076301E+03
 SKALA_GPW| Active atom-composite XC energy  -1.1166292563881514E+02
 SKALA_GPW| Active atom-composite electrons   1.2000260763949812E+02
 SKALA_GPW| Active atom-composite density range   2.1219999003493787E-04   1.5004925039230994E+02
 SKALA_GPW| Active atom-composite tau range   1.6848296240696558E-04   4.6368434495144838E+03
 SKALA_GPW| Active atom-composite tau integral   9.1145098699419225E+02
 SKALA_GPW| Active atom-composite max gradient   2.2612822361018088E+03
    20 OT DIIS     0.10E+00 1557.0     0.00008957      -917.3038703666 -4.56E-03
 SKALA_GPW| Atom-composite cross support/maxima   1.715758840678E+00   6.764796889407E+01   9.697274639558E+02   2.189348175528E+03
 SKALA_GPW| Active atom-composite XC energy  -1.1166327532511286E+02
 SKALA_GPW| Active atom-composite electrons   1.2000260318628092E+02
 SKALA_GPW| Active atom-composite density range   2.1192206607969881E-04   1.5004633271805119E+02
 SKALA_GPW| Active atom-composite tau range   1.6861034078164333E-04   4.6366523670737997E+03
 SKALA_GPW| Active atom-composite tau integral   9.1142658395992407E+02
 SKALA_GPW| Active atom-composite max gradient   2.2612025620338527E+03
    21 OT DIIS     0.10E+00 1540.6     0.00006924      -917.3076507668 -3.78E-03
 SKALA_GPW| Atom-composite cross support/maxima   1.715758840678E+00   6.764535285730E+01   9.697526422677E+02   2.189238672496E+03
 SKALA_GPW| Active atom-composite XC energy  -1.1166131198573046E+02
 SKALA_GPW| Active atom-composite electrons   1.2000260200984218E+02
 SKALA_GPW| Active atom-composite density range   2.1224399546879687E-04   1.5004152444430662E+02
 SKALA_GPW| Active atom-composite tau range   1.6877005408059487E-04   4.6365645099947369E+03
 SKALA_GPW| Active atom-composite tau integral   9.1140757798545030E+02
 SKALA_GPW| Active atom-composite max gradient   2.2611650445919777E+03
    22 OT DIIS     0.10E+00 1544.2     0.00005343      -917.3098524273 -2.20E-03
 SKALA_GPW| Atom-composite cross support/maxima   1.715758840678E+00   6.764505382411E+01   9.697857766132E+02   2.189197074509E+03
 SKALA_GPW| Active atom-composite XC energy  -1.1166256950077170E+02
 SKALA_GPW| Active atom-composite electrons   1.2000260130346200E+02
 SKALA_GPW| Active atom-composite density range   2.1251713983796528E-04   1.5004305264263826E+02
 SKALA_GPW| Active atom-composite tau range   1.6883756652221206E-04   4.6365264266115882E+03
 SKALA_GPW| Active atom-composite tau integral   9.1141439733605750E+02
 SKALA_GPW| Active atom-composite max gradient   2.2611470411193577E+03
    23 OT DIIS     0.10E+00 1545.1     0.00003755      -917.3112997283 -1.45E-03
 SKALA_GPW| Atom-composite cross support/maxima   1.715758840678E+00   6.764448827310E+01   9.697756355357E+02   2.189153911288E+03
 SKALA_GPW| Active atom-composite XC energy  -1.1166216493617542E+02
 SKALA_GPW| Active atom-composite electrons   1.2000260145790145E+02
 SKALA_GPW| Active atom-composite density range   2.1302626055971308E-04   1.5004183839873224E+02
 SKALA_GPW| Active atom-composite tau range   1.6884729925165388E-04   4.6364745525457483E+03
 SKALA_GPW| Active atom-composite tau integral   9.1140829493311787E+02
 SKALA_GPW| Active atom-composite max gradient   2.2611291063650456E+03
    24 OT DIIS     0.10E+00 1470.2     0.00002931      -917.3119425995 -6.43E-04
 SKALA_GPW| Atom-composite cross support/maxima   1.715758840678E+00   6.764392437574E+01   9.697427978416E+02   2.189145691215E+03
 SKALA_GPW| Active atom-composite XC energy  -1.1166184500591282E+02
 SKALA_GPW| Active atom-composite electrons   1.2000260158245449E+02
 SKALA_GPW| Active atom-composite density range   2.1330083600713408E-04   1.5003864223765260E+02
 SKALA_GPW| Active atom-composite tau range   1.6886845790354310E-04   4.6364180612112741E+03
 SKALA_GPW| Active atom-composite tau integral   9.1140121017183276E+02
 SKALA_GPW| Active atom-composite max gradient   2.2610909925981073E+03
    25 OT DIIS     0.10E+00 1448.8     0.00002365      -917.3122638731 -3.21E-04
 SKALA_GPW| Atom-composite cross support/maxima   1.715758840678E+00   6.764373591120E+01   9.697314132368E+02   2.189120275209E+03
 SKALA_GPW| Active atom-composite XC energy  -1.1166057841940031E+02
 SKALA_GPW| Active atom-composite electrons   1.2000260208186332E+02
 SKALA_GPW| Active atom-composite density range   2.1364166613505847E-04   1.5003830648336694E+02
 SKALA_GPW| Active atom-composite tau range   1.6894198149157577E-04   4.6363834646283349E+03
 SKALA_GPW| Active atom-composite tau integral   9.1139182546079735E+02
 SKALA_GPW| Active atom-composite max gradient   2.2610791965401181E+03
    26 OT DIIS     0.10E+00 1425.1     0.00001846      -917.3125036258 -2.40E-04
 SKALA_GPW| Atom-composite cross support/maxima   1.715758840678E+00   6.764354478659E+01   9.697419936876E+02   2.189095706677E+03
 SKALA_GPW| Active atom-composite XC energy  -1.1166023595089707E+02
 SKALA_GPW| Active atom-composite electrons   1.2000260227146362E+02
 SKALA_GPW| Active atom-composite density range   2.1374933239771312E-04   1.5003766282551837E+02
 SKALA_GPW| Active atom-composite tau range   1.6900082518509971E-04   4.6363542876211113E+03
 SKALA_GPW| Active atom-composite tau integral   9.1139134768670863E+02
 SKALA_GPW| Active atom-composite max gradient   2.2610761502751516E+03
    27 OT DIIS     0.10E+00 1443.9     0.00001414      -917.3126567862 -1.53E-04
 SKALA_GPW| Atom-composite cross support/maxima   1.715758840678E+00   6.764350875099E+01   9.697512040481E+02   2.189098747041E+03
 SKALA_GPW| Active atom-composite XC energy  -1.1166057938385079E+02
 SKALA_GPW| Active atom-composite electrons   1.2000260218498804E+02
 SKALA_GPW| Active atom-composite density range   2.1365114536325003E-04   1.5003898722728357E+02
 SKALA_GPW| Active atom-composite tau range   1.6903558287393171E-04   4.6363615574691848E+03
 SKALA_GPW| Active atom-composite tau integral   9.1139525198393301E+02
 SKALA_GPW| Active atom-composite max gradient   2.2610891738093173E+03
    28 OT DIIS     0.10E+00 1452.0     0.00001016      -917.3127607685 -1.04E-04
 SKALA_GPW| Atom-composite cross support/maxima   1.715758840678E+00   6.764361734502E+01   9.697447662966E+02   2.189087903254E+03
 SKALA_GPW| Active atom-composite XC energy  -1.1166132168630483E+02
 SKALA_GPW| Active atom-composite electrons   1.2000260178311760E+02
 SKALA_GPW| Active atom-composite density range   2.1357396177103474E-04   1.5003819233278483E+02
 SKALA_GPW| Active atom-composite tau range   1.6901312935149848E-04   4.6363323211650677E+03
 SKALA_GPW| Active atom-composite tau integral   9.1139867793485644E+02
 SKALA_GPW| Active atom-composite max gradient   2.2610773767322385E+03
    29 OT DIIS     0.10E+00 1431.5     0.00000754      -917.3128050783 -4.43E-05
 SKALA_GPW| Atom-composite cross support/maxima   1.715758840678E+00   6.764364629893E+01   9.697372435383E+02   2.189086634357E+03
 SKALA_GPW| Active atom-composite XC energy  -1.1166169405635115E+02
 SKALA_GPW| Active atom-composite electrons   1.2000260145036849E+02
 SKALA_GPW| Active atom-composite density range   2.1353867735610332E-04   1.5003768483677780E+02
 SKALA_GPW| Active atom-composite tau range   1.6898496434226604E-04   4.6363127213337657E+03
 SKALA_GPW| Active atom-composite tau integral   9.1139922133057007E+02
 SKALA_GPW| Active atom-composite max gradient   2.2610701454865070E+03
    30 OT DIIS     0.10E+00 1432.4     0.00000584      -917.3128263578 -2.13E-05
 SKALA_GPW| Atom-composite cross support/maxima   1.715758840678E+00   6.764348805068E+01   9.697353545441E+02   2.189081894063E+03
 SKALA_GPW| Active atom-composite XC energy  -1.1166177127966472E+02
 SKALA_GPW| Active atom-composite electrons   1.2000260127781405E+02
 SKALA_GPW| Active atom-composite density range   2.1354776962011202E-04   1.5003742755028742E+02
 SKALA_GPW| Active atom-composite tau range   1.6898094690309703E-04   4.6363040058324486E+03
 SKALA_GPW| Active atom-composite tau integral   9.1139875718408655E+02
 SKALA_GPW| Active atom-composite max gradient   2.2610658752903078E+03
    31 OT DIIS     0.10E+00 1326.5     0.00000457      -917.3128388060 -1.24E-05
 SKALA_GPW| Atom-composite cross support/maxima   1.715758840678E+00   6.764345534904E+01   9.697364329852E+02   2.189079495614E+03
 SKALA_GPW| Active atom-composite XC energy  -1.1166179391299158E+02
 SKALA_GPW| Active atom-composite electrons   1.2000260123816226E+02
 SKALA_GPW| Active atom-composite density range   2.1357630770540119E-04   1.5003729785602118E+02
 SKALA_GPW| Active atom-composite tau range   1.6898871351180998E-04   4.6362981280936865E+03
 SKALA_GPW| Active atom-composite tau integral   9.1139886030245214E+02
 SKALA_GPW| Active atom-composite max gradient   2.2610635982017438E+03
    32 OT DIIS     0.10E+00 1326.1     0.00000386      -917.3128442204 -5.41E-06
 SKALA_GPW| Atom-composite cross support/maxima   1.715758840678E+00   6.764348151288E+01   9.697379200580E+02   2.189078413782E+03
 SKALA_GPW| Active atom-composite XC energy  -1.1166183176378972E+02
 SKALA_GPW| Active atom-composite electrons   1.2000260124374178E+02
 SKALA_GPW| Active atom-composite density range   2.1361633115191193E-04   1.5003730308489821E+02
 SKALA_GPW| Active atom-composite tau range   1.6900217145157659E-04   4.6362989455106663E+03
 SKALA_GPW| Active atom-composite tau integral   9.1139932522708523E+02
 SKALA_GPW| Active atom-composite max gradient   2.2610632032929639E+03
    33 OT DIIS     0.10E+00 1308.6     0.00000300      -917.3128492530 -5.03E-06
 SKALA_GPW| Atom-composite cross support/maxima   1.715758840678E+00   6.764345230759E+01   9.697366443831E+02   2.189078806603E+03
 SKALA_GPW| Active atom-composite XC energy  -1.1166183287002562E+02
 SKALA_GPW| Active atom-composite electrons   1.2000260124696635E+02
 SKALA_GPW| Active atom-composite density range   2.1362940442011614E-04   1.5003717523862113E+02
 SKALA_GPW| Active atom-composite tau range   1.6900346599874486E-04   4.6362930265086143E+03
 SKALA_GPW| Active atom-composite tau integral   9.1139908418824143E+02
 SKALA_GPW| Active atom-composite max gradient   2.2610616115192738E+03
    34 OT DIIS     0.10E+00 1329.9     0.00000248      -917.3128517400 -2.49E-06
 SKALA_GPW| Atom-composite cross support/maxima   1.715758840678E+00   6.764342583640E+01   9.697350695586E+02   2.189079635570E+03
 SKALA_GPW| Active atom-composite XC energy  -1.1166176556360973E+02
 SKALA_GPW| Active atom-composite electrons   1.2000260126088328E+02
 SKALA_GPW| Active atom-composite density range   2.1364358344517768E-04   1.5003713711080269E+02
 SKALA_GPW| Active atom-composite tau range   1.6900345935640720E-04   4.6362953144072999E+03
 SKALA_GPW| Active atom-composite tau integral   9.1139826326907894E+02
 SKALA_GPW| Active atom-composite max gradient   2.2610610475067469E+03
    35 OT DIIS     0.10E+00 1331.2     0.00000194      -917.3128537721 -2.03E-06
 SKALA_GPW| Atom-composite cross support/maxima   1.715758840678E+00   6.764340919605E+01   9.697352683839E+02   2.189078801707E+03
 SKALA_GPW| Active atom-composite XC energy  -1.1166170361322318E+02
 SKALA_GPW| Active atom-composite electrons   1.2000260128130463E+02
 SKALA_GPW| Active atom-composite density range   2.1364884712872428E-04   1.5003712292518208E+02
 SKALA_GPW| Active atom-composite tau range   1.6900536398217991E-04   4.6362936592003698E+03
 SKALA_GPW| Active atom-composite tau integral   9.1139780967824322E+02
 SKALA_GPW| Active atom-composite max gradient   2.2610606520634360E+03
    36 OT DIIS     0.10E+00 1322.4     0.00000157      -917.3128550039 -1.23E-06
 SKALA_GPW| Atom-composite cross support/maxima   1.715758840678E+00   6.764339821765E+01   9.697365497571E+02   2.189077748368E+03
 SKALA_GPW| Active atom-composite XC energy  -1.1166167119866395E+02
 SKALA_GPW| Active atom-composite electrons   1.2000260131035787E+02
 SKALA_GPW| Active atom-composite density range   2.1365803616729253E-04   1.5003712750972727E+02
 SKALA_GPW| Active atom-composite tau range   1.6900887505122932E-04   4.6362948730288599E+03
 SKALA_GPW| Active atom-composite tau integral   9.1139789354788377E+02
 SKALA_GPW| Active atom-composite max gradient   2.2610614831621597E+03
    37 OT DIIS     0.10E+00 1326.1     0.00000132      -917.3128558152 -8.11E-07
 SKALA_GPW| Atom-composite cross support/maxima   1.715758840678E+00   6.764339761114E+01   9.697371715988E+02   2.189078372457E+03
 SKALA_GPW| Active atom-composite XC energy  -1.1166165443968504E+02
 SKALA_GPW| Active atom-composite electrons   1.2000260134355462E+02
 SKALA_GPW| Active atom-composite density range   2.1367515040706129E-04   1.5003721196648763E+02
 SKALA_GPW| Active atom-composite tau range   1.6901196771730492E-04   4.6362949433878139E+03
 SKALA_GPW| Active atom-composite tau integral   9.1139808007036368E+02
 SKALA_GPW| Active atom-composite max gradient   2.2610618551351968E+03
    38 OT DIIS     0.10E+00 1320.1     0.00000107      -917.3128564897 -6.75E-07
 SKALA_GPW| Atom-composite cross support/maxima   1.715758840678E+00   6.764339538041E+01   9.697367687417E+02   2.189077409730E+03
 SKALA_GPW| Active atom-composite XC energy  -1.1166163792232599E+02
 SKALA_GPW| Active atom-composite electrons   1.2000260136645339E+02
 SKALA_GPW| Active atom-composite density range   2.1369247484809035E-04   1.5003715922614242E+02
 SKALA_GPW| Active atom-composite tau range   1.6901316803382964E-04   4.6362924317374964E+03
 SKALA_GPW| Active atom-composite tau integral   9.1139804474094217E+02
 SKALA_GPW| Active atom-composite max gradient   2.2610609580857063E+03
    39 OT DIIS     0.10E+00 1313.3     0.00000086      -917.3128569890 -4.99E-07
 SKALA_GPW| Atom-composite cross support/maxima   1.715758840678E+00   6.764339935885E+01   9.697362847597E+02   2.189076995457E+03
 SKALA_GPW| Active atom-composite XC energy  -1.1166162520107399E+02
 SKALA_GPW| Active atom-composite electrons   1.2000260137493741E+02
 SKALA_GPW| Active atom-composite density range   2.1370590204197612E-04   1.5003713036772513E+02
 SKALA_GPW| Active atom-composite tau range   1.6901247279984990E-04   4.6362906647227992E+03
 SKALA_GPW| Active atom-composite tau integral   9.1139791073608956E+02
 SKALA_GPW| Active atom-composite max gradient   2.2610605496484604E+03
    40 OT DIIS     0.10E+00 1309.2     0.00000069      -917.3128573023 -3.13E-07
 SKALA_GPW| Atom-composite cross support/maxima   1.715758840678E+00   6.764338512788E+01   9.697360189514E+02   2.189076448522E+03
 SKALA_GPW| Active atom-composite XC energy  -1.1166162228255979E+02
 SKALA_GPW| Active atom-composite electrons   1.2000260137247851E+02
 SKALA_GPW| Active atom-composite density range   2.1370921946931040E-04   1.5003710981265135E+02
 SKALA_GPW| Active atom-composite tau range   1.6901099410070216E-04   4.6362901715677535E+03
 SKALA_GPW| Active atom-composite tau integral   9.1139781593904593E+02
 SKALA_GPW| Active atom-composite max gradient   2.2610602419611587E+03
    41 OT DIIS     0.10E+00 1320.6     0.00000053      -917.3128575229 -2.21E-07
 SKALA_GPW| Atom-composite cross support/maxima   1.715758840678E+00   6.764337973053E+01   9.697361155981E+02   2.189075941392E+03
 SKALA_GPW| Active atom-composite XC energy  -1.1166163317381633E+02
 SKALA_GPW| Active atom-composite electrons   1.2000260136760213E+02
 SKALA_GPW| Active atom-composite density range   2.1370650036824402E-04   1.5003710472580107E+02
 SKALA_GPW| Active atom-composite tau range   1.6900993178671828E-04   4.6362899600178862E+03
 SKALA_GPW| Active atom-composite tau integral   9.1139790289308246E+02
 SKALA_GPW| Active atom-composite max gradient   2.2610601656089962E+03
    42 OT DIIS     0.10E+00 1312.0     0.00000046      -917.3128576097 -8.68E-08

  *** SCF run converged in    42 steps ***


  Electronic density on regular grids:        -96.6770525018       23.3229474982
  Core density on regular grids:              120.0000000000        0.0000000000
  Hard and soft densities (Lebedev):        -1018.7152925896     -995.3923450861
  Total Rho_soft + Rho1_hard - Rho1_soft     -120.0000000054
  Total charge density (r-space):              -0.0000000054
  Total Rho_soft + Rho0_soft (g-space):        -0.0000000084

  Overlap energy of the core charge distribution:               0.00000035448345
  Self energy of the core charge distribution:               -908.77281774728772
  Core Hamiltonian energy:                                    -63.02577673689483
  Hartree energy:                                             356.90523872671849
  Exchange-correlation energy:                                  0.00000000000000
  Dispersion energy:                                           -0.07146385721870

  GAPW| Exc from hard and soft atomic rho1:                  -111.66163317381633
  GAPW| local Eh = 1 center integrals:                       -190.68640517567809

  Total energy:                                              -917.31285760969376

  outer SCF iter =    1 RMS gradient =   0.46E-06 energy =       -917.3128576097
  outer SCF loop converged in   1 iterations or   42 steps


 !-----------------------------------------------------------------------------!
                     Mulliken Population Analysis

 #  Atom  Element  Kind  Atomic population                           Net charge
       1     H        1          0.358337                              0.641663
       2     H        1          0.367038                              0.632962
       3     H        1          0.373660                              0.626340
       4     H        1          0.358334                              0.641666
       5     H        1          0.367031                              0.632969
       6     H        1          0.373657                              0.626343
       7     H        1          0.358329                              0.641671
       8     H        1          0.367039                              0.632961
       9     H        1          0.373653                              0.626347
      10     H        1          0.358330                              0.641670
      11     H        1          0.367041                              0.632959
      12     H        1          0.373652                              0.626348
      13     H        1          0.358330                              0.641670
      14     H        1          0.367030                              0.632970
      15     H        1          0.373656                              0.626344
      16     H        1          0.373662                              0.626338
      17     H        1          0.358328                              0.641672
      18     H        1          0.367038                              0.632962
      19     H        1          0.373664                              0.626336
      20     H        1          0.358328                              0.641672
      21     H        1          0.367046                              0.632954
      22     H        1          0.373661                              0.626339
      23     H        1          0.358330                              0.641670
      24     H        1          0.367043                              0.632957
      25     O        2          9.270680                             -1.270680
      26     O        2          9.270687                             -1.270687
      27     O        2          9.270688                             -1.270688
      28     O        2          9.270687                             -1.270687
      29     O        2          9.270697                             -1.270697
      30     O        2          9.270686                             -1.270686
      31     O        2          9.270683                             -1.270683
      32     O        2          9.270675                             -1.270675
      33     O        2          9.260570                             -1.260570
      34     O        2          9.260578                             -1.260578
      35     O        2          9.260572                             -1.260572
      36     O        2          9.260579                             -1.260579
 # Total charge                            120.000000                 -0.000000

 !-----------------------------------------------------------------------------!

 !-----------------------------------------------------------------------------!
                           Hirshfeld Charges

  #Atom  Element  Kind  Ref Charge     Population                    Net charge
      1       H      1       1.000          0.373                         0.627
      2       H      1       1.000          0.375                         0.625
      3       H      1       1.000          0.376                         0.624
      4       H      1       1.000          0.373                         0.627
      5       H      1       1.000          0.375                         0.625
      6       H      1       1.000          0.376                         0.624
      7       H      1       1.000          0.373                         0.627
      8       H      1       1.000          0.375                         0.625
      9       H      1       1.000          0.376                         0.624
     10       H      1       1.000          0.373                         0.627
     11       H      1       1.000          0.375                         0.625
     12       H      1       1.000          0.376                         0.624
     13       H      1       1.000          0.373                         0.627
     14       H      1       1.000          0.375                         0.625
     15       H      1       1.000          0.376                         0.624
     16       H      1       1.000          0.376                         0.624
     17       H      1       1.000          0.373                         0.627
     18       H      1       1.000          0.375                         0.625
     19       H      1       1.000          0.376                         0.624
     20       H      1       1.000          0.373                         0.627
     21       H      1       1.000          0.375                         0.625
     22       H      1       1.000          0.376                         0.624
     23       H      1       1.000          0.373                         0.627
     24       H      1       1.000          0.375                         0.625
     25       O      2       8.000          9.248                        -1.248
     26       O      2       8.000          9.248                        -1.248
     27       O      2       8.000          9.248                        -1.248
     28       O      2       8.000          9.248                        -1.248
     29       O      2       8.000          9.248                        -1.248
     30       O      2       8.000          9.248                        -1.248
     31       O      2       8.000          9.248                        -1.248
     32       O      2       8.000          9.248                        -1.248
     33       O      2       8.000          9.255                        -1.255
     34       O      2       8.000          9.255                        -1.255
     35       O      2       8.000          9.255                        -1.255
     36       O      2       8.000          9.255                        -1.255

  Total Charge                                                            0.000
 !-----------------------------------------------------------------------------!

 ENERGY| Total FORCE_EVAL ( QS ) energy [hartree]           -917.312857609693765

 -------------------------------------------------------------------------------
 -                                                                             -
 -                                DBCSR STATISTICS                             -
 -                                                                             -
 -------------------------------------------------------------------------------
 COUNTER                                    TOTAL       BLAS       SMM       ACC
 flops    14 x    14 x    60              7056000     100.0%      0.0%      0.0%     
 flops    31 x    14 x    60              7499520     100.0%      0.0%      0.0%     
 flops    14 x    31 x    60              7499520     100.0%      0.0%      0.0%     
 flops    31 x    31 x    60              8994960     100.0%      0.0%      0.0%     
 flops    32 x    60 x    60            554803200     100.0%      0.0%      0.0%     
 flops    28 x    60 x   708          11323468800     100.0%      0.0%      0.0%     
 flops    28 x    60 x    60          12395980800     100.0%      0.0%      0.0%     
 flops    32 x    60 x   708          12941107200     100.0%      0.0%      0.0%     
 flops    14 x    60 x    60          16674739200     100.0%      0.0%      0.0%     
 flops    31 x    60 x    60          31647974400     100.0%      0.0%      0.0%     
 flops    14 x    28 x    14          45690365952     100.0%      0.0%      0.0%     
 flops    31 x    28 x    14          50585762304     100.0%      0.0%      0.0%     
 flops    14 x    28 x    31          50585762304     100.0%      0.0%      0.0%     
 flops    14 x    32 x    14          52217561088     100.0%      0.0%      0.0%     
 flops    31 x    28 x    31          56005665408     100.0%      0.0%      0.0%     
 flops    31 x    32 x    14          57812299776     100.0%      0.0%      0.0%     
 flops    14 x    32 x    31          57812299776     100.0%      0.0%      0.0%     
 flops    31 x    32 x    31          64006474752     100.0%      0.0%      0.0%     
 flops inhomo. stacks                           0       0.0%      0.0%      0.0%
 flops total                       520.285315E+09     100.0%      0.0%      0.0%
 flops max/rank                    520.285315E+09     100.0%      0.0%      0.0%
 matmuls inhomo. stacks                         0       0.0%      0.0%      0.0%
 matmuls total                           19113682     100.0%      0.0%      0.0%
 number of processed stacks               1276842     100.0%      0.0%      0.0%
 average stack size                                    15.0       0.0       0.0
 marketing flops                   520.428618E+09
 -------------------------------------------------------------------------------
 # multiplications                          26212
 max memory usage/rank              26.837889E+09
 # max total images/rank                        1
 # max 3D layers                                1
 # MPI messages exchanged                       0
 -------------------------------------------------------------------------------

 -------------------------------------------------------------------------------
 -                                                                             -
 -                                GRID STATISTICS                              -
 -                                                                             -
 -------------------------------------------------------------------------------
 LP    KERNEL             BACKEND                              COUNT     PERCENT
 6     collocate ortho    CPU                                2039312      15.34%
 6     integrate ortho    CPU                                1946616      14.64%
 4     collocate ortho    CPU                                1753840      13.19%
 4     integrate ortho    CPU                                1674120      12.59%
 5     collocate ortho    CPU                                1360480      10.23%
 7     collocate ortho    CPU                                1360480      10.23%
 5     integrate ortho    CPU                                1298640       9.77%
 7     integrate ortho    CPU                                1298640       9.77%
 8     collocate ortho    CPU                                 285472       2.15%
 8     integrate ortho    CPU                                 272496       2.05%
 4     collocate general  CPU                                   1512       0.01%
 4     integrate general  CPU                                   1512       0.01%
 0     collocate general  CPU                                     72       0.00%
 0     integrate general  CPU                                     36       0.00%
 -------------------------------------------------------------------------------

 -------------------------------------------------------------------------------
 -                                                                             -
 -                          OFFLOAD MEMPOOL STATISTICS                         -
 -                                                                             -
 -------------------------------------------------------------------------------
 Memory consumption                Number of allocations  Used [MiB]  Size [MiB]
 Host                                                  8         145           0
 -------------------------------------------------------------------------------

 MEMORY| Estimated peak process memory [MiB]                                7108

 -------------------------------------------------------------------------------
 ----                             MULTIGRID INFO                            ----
 -------------------------------------------------------------------------------
 count for grid        1:          46433          cutoff [a.u.]          400.00
 count for grid        2:           8602          cutoff [a.u.]          133.33
 count for grid        3:          29396          cutoff [a.u.]           44.44
 count for grid        4:          39416          cutoff [a.u.]           14.81
 count for grid        5:             80          cutoff [a.u.]            4.94
 total gridlevel count  :         123927

 -------------------------------------------------------------------------------
 -                                                                             -
 -                           R E F E R E N C E S                               -
 -                                                                             -
 -------------------------------------------------------------------------------
 
 CP2K version 2026.2 (Development Version), the CP2K developers group (2026).
 CP2K is freely available from https://www.cp2k.org/ .
 
 M. Iannuzzi, J. Wilhelm, F. Stein, A. Bussy, H. Elgabarty, D. Golze, A. Hehn, 
 M. Graml, S. Marek, B. Sertcan Gökmen, C. Schran, H. Forbert, R. Z. 
 Khaliullin, A. Kozhevnikov, M. Taillefumier, R. Meli, V. V. Rybkin, M. Brehm, 
 R. Schade, O. Schütt, J. V. Pototschnig, H. Mirhosseini, A. Knüpfer, D. Marx, 
 M. Krack, J. Hutter, T. D. Kühne.
 J. Phys. Chem. B 130, 1237-1310 (2026).
 The CP2K Program Package Made Simple.
 https://doi.org/10.1021/acs.jpcb.5c05851

 L. Wittmann, I. Gordiy, M. Friede, B. Helmich-Paris, S. Grimme, A. Hansen, M. 
 Bursch.
 Phys. Chem. Chem. Phys. 26, 21379-21394 (2024).
 Extension of the D3 and D4 London dispersion corrections to the full actinides 
 series.
 https://doi.org/10.1039/d4cp01514b

 T. D. Kühne, M. Iannuzzi, M. Del Ben, V. V. Rybkin, P. Seewald, F. Stein, T. 
 Laino, R. Z. Khaliullin, O. Schütt, F. Schiffmann, D. Golze, J. Wilhelm, S. 
 Chulkov, M. H. Bani-Hashemian, V. Weber, U. Borstnik, M. Taillefumier, A. S. 
 Jakobovits, A. Lazzaro, H. Pabst, T. Müller, R. Schade, M. Guidon, S. 
 Andermatt, N. Holmberg, G. K. Schenter, A. Hehn, A. Bussy, F. Belleflamme, G. 
 Tabacchi, A. Glöß, M. Lass, I. Bethune, C. J. Mundy, C. Plessl, M. Watkins, 
 J. VandeVondele, M. Krack, J. Hutter.
 J. Chem. Phys. 152, 194103 (2020).
 CP2K: An electronic structure and molecular dynamics software package - 
 Quickstep: Efficient and accurate electronic structure calculations.
 https://doi.org/10.1063/5.0007045

 A. Togo, I. Tanaka.
 arXiv, 1808.01590 (2018).
 Spglib : a software library for crystal symmetry search.

 L. Goerigk, A. Hansen, C. Bauer, S. Ehrlich, A. Najibi, S. Grimme.
 Phys. Chem. Chem. Phys. 19, 32184-32215 (2017).
 A look at the density functional theory zoo with the advanced GMTKN55 database 
 for general main group thermochemistry, kinetics and noncovalent interactions.
 https://doi.org/10.1039/C7CP04913G

 O. Schuett, P. Messmer, J. Hutter, J. VandeVondele.
 Electronic Structure Calculations on Graphics Processing Units, 173-190 (2016).
 GPU-Accelerated Sparse Matrix-Matrix Multiplication for Linear Scaling Density 
 Functional Theory.
 https://doi.org/10.1002/9781118670712.ch8

 U. Borstnik, J. VandeVondele, V. Weber, J. Hutter.
 Parallel Comput. 40, 47-58 (2014).
 Sparse matrix multiplication: The distributed block-compressed sparse row 
 library.
 https://doi.org/10.1016/j.parco.2014.03.012

 S. Grimme, S. Ehrlich, L. Goerigk.
 J. Comput. Chem. 32, 1456 (2011).
 Effect of the damping function in dispersion corrected density functional 
 theory.
 https://doi.org/10.1002/jcc.21759

 S. Grimme, J. Antony, S. Ehrlich, H. Krieg.
 J. Chem. Phys. 132, 154104 (2010).
 A consistent and accurate ab initio parametrization of density functional 
 dispersion correction (DFT-D) for the 94 elements H-Pu.
 https://doi.org/10.1063/1.3382344

 V. Weber, J. VandeVondele, J. Hutter, A. M. N. Niklasson.
 J. Chem. Phys. 128, 084113 (2008).
 Direct energy functional minimization under orthogonality constraints.
 https://doi.org/10.1063/1.2841077

 J. VandeVondele, J. Hutter.
 J. Chem. Phys. 127, 114105 (2007).
 Gaussian basis sets for accurate calculations on molecular systems in gas and 
 condensed phases.
 https://doi.org/10.1063/1.2770708

 M. Frigo, S. G. Johnson.
 Proc. IEEE 93, 216-231 (2005).
 The design and implementation of FFTW3.
 https://doi.org/10.1109/JPROC.2004.840301

 J. VandeVondele, J. Hutter.
 J. Chem. Phys. 118, 4365-4369 (2003).
 An efficient orbital transformation method for electronic structure 
 calculations.
 https://doi.org/10.1063/1.1543154

 M. Krack, M. Parrinello.
 Phys. Chem. Chem. Phys. 2, 2105-2112 (2000).
 All-electron ab-initio molecular dynamics.
 https://doi.org/10.1039/b001167n

 G. Lippert, J. Hutter, M. Parrinello.
 Theor. Chem. Acc. 103, 124-140 (1999).
 The Gaussian and augmented-plane-wave density functional method for ab initio 
 molecular dynamics simulations.
 https://doi.org/10.1007/s002140050523

 C.-L. Fu, K.-M. Ho.
 Phys. Rev. B 28, 5480-5486 (1983).
 First-principles calculation of the equilibrium ground-state properties of 
 transition metals: Applications to Nb and Mo.
 https://doi.org/10.1103/PhysRevB.28.5480

 T. G. Worlton, J. L. Warren.
 Comput. Phys. Commun. 3, 88-117 (1972).
 Group-theoretical analysis of lattice vibrations.
 https://doi.org/10.1016/0010-4655(72)90058-6


 -------------------------------------------------------------------------------
 -                                                                             -
 -                                T I M I N G                                  -
 -                                                                             -
 -------------------------------------------------------------------------------
 SUBROUTINE                       CALLS  ASD         SELF TIME        TOTAL TIME
                                MAXIMUM       AVERAGE  MAXIMUM  AVERAGE  MAXIMUM
 CP2K                                 1  1.0     0.08     0.08 60786.60 60786.60
 qs_energies                          1  2.0     0.00     0.00 60786.02 60786.02
 scf_env_do_scf                       1  3.0     0.00     0.00 60782.66 60782.66
 qs_ks_update_qs_env                 43  5.0     0.00     0.00 60548.03 60548.03
 rebuild_ks_matrix                   42  6.0     0.00     0.00 60542.84 60542.84
 qs_ks_build_kohn_sham_matrix        42  7.0     0.02     0.02 60542.84 60542.84
 calculate_vxc_atom                  42  8.0 47951.88 47951.88 60439.31 60439.31
 scf_env_do_scf_inner_loop           42  4.0     0.32     0.32 59060.08 59060.08
 skala_atom_torch_backward          504  9.0  4707.69  4707.69  4707.69  4707.69
 skala_atom_torch_forward           504  9.0     0.19     0.19  3139.95  3139.95
 torch_model_forward_mol_tensor     504 10.0  3139.76  3139.76  3139.76  3139.76
 calc_tau_atom                     4536  9.0  2248.82  2248.82  2248.82  2248.82
 init_scf_loop                        1  4.0     0.01     0.01  1722.58  1722.58
 -------------------------------------------------------------------------------

 The number of warnings for this run is : 3
 
 -------------------------------------------------------------------------------
  **** **** ******  **  PROGRAM ENDED AT                 2026-09-13 03:46:08.148
 ***** ** ***  *** **   PROGRAM RAN ON                                    cge061
 **    ****   ******    PROGRAM RAN BY                                  kuehne88
 ***** **    ** ** **   PROGRAM PROCESS ID                                176280
  **** **  *******  **  PROGRAM STOPPED IN /bigdata/casus/fwuk/shared/kuehne88-n
                                           ative-skala/ice13-ae-32core-20260912/
                                           runs/gapw-ae/IX
