 DBCSR| CPU Multiplication driver                                           BLAS (U)
 DBCSR| Multrec recursion limit                                              512 (U)
 DBCSR| Multiplication stack size                                          30000 (D)
 DBCSR| Maximum elements for images                                    UNLIMITED (U)
 DBCSR| Multiplicative factor virtual images                                   1 (U)
 DBCSR| Use multiplication densification                                       F (D)
 DBCSR| Multiplication size stacks                                             3 (U)
 DBCSR| Use memory pool for CPU allocation                                     F (U)
 DBCSR| Number of 3D layers                                               SINGLE (U)
 DBCSR| Use MPI memory allocation                                              F (U)
 DBCSR| Use RMA algorithm                                                      F (U)
 DBCSR| Use Communication thread                                               T (U)
 DBCSR| Communication thread load                                             30 (D)
 DBCSR| MPI: My process id                                                     0
 DBCSR| MPI: Number of processes                                               1
 DBCSR| OMP: Current number of threads                                        16
 DBCSR| OMP: Max number of threads                                            16
 DBCSR| ACC: Number of devices/node                                            1
 DBCSR| ACC: Number of stack-buffers per thread                                8 (U)
 DBCSR| ACC: Avoid driver after busy                                           F (U)
 DBCSR| ACC: Process inhomogeneous stacks                                      T (U)
 DBCSR| ACC: Min. flop for processing                                          0 (U)
 DBCSR| ACC: Use G2G algorithm                                                 F (D)
 DBCSR| ACC: Min. flop for sorting                                          4000 (U)
 DBCSR| ACC: Number of binning bins                                         4096 (U)
 DBCSR| ACC: Size of binning bins                                             16 (U)
 DBCSR| ACC: GPU backend is enabled                                            T (D)
 DBCSR| Split modifier for TAS multiplication algorithm                  1.0E+00 (U)


  **** **** ******  **  PROGRAM STARTED AT               2026-08-20 01:21:16.985
 ***** ** ***  *** **   PROGRAM STARTED ON                                 gb008
 **    ****   ******    PROGRAM STARTED BY                              kuehne88
 ***** **    ** ** **   PROGRAM PROCESS ID                               3138470
  **** **  *******  **  PROGRAM STARTED IN /data/home2/kuehne88/cp2k-native-skal
                                           a/validation-uzh/h2o-grid-runs/native
                                           -r100-l100

 CP2K| version string:                 CP2K version 2026.2 (Development Version)
 CP2K| source code revision number:                                   2f672e6c06
 CP2K| cp2kflags: omp fftw3 parallel scalapack mpi_f08 dbcsr_acc spglib openblas
 CP2K|             libtorch libtorch_cuda offload_cuda
 CP2K| is freely available from                            https://www.cp2k.org/
 CP2K| Program compiled at                                   2026-08-20 01:20:11
 CP2K| Program compiled on                                                 gb008
 CP2K| Program compiled for                                               x86_64
 CP2K| Data directory path    /home/kuehne88/cp2k-native-skala/install/cp2k-b200
 CP2K| Input file name                                                 input.inp

 GLOBAL| Force Environment number                                              1
 GLOBAL| Basis set file name                             BASIS_MOLOPT_UZH_2026.2
 GLOBAL| Potential file name                                POTENTIAL_UZH_2026.2
 GLOBAL| MM Potential file name                                     MM_POTENTIAL
 GLOBAL| Coordinate file name                                      __STD_INPUT__
 GLOBAL| Method name                                                        CP2K
 GLOBAL| Project name                                       h2o_native_r100_l100
 GLOBAL| Run type                                                         ENERGY
 GLOBAL| FFT library                                                       FFTW3
 GLOBAL| Diagonalization library                                       ScaLAPACK
 GLOBAL| Cholesky decomposition library                                ScaLAPACK
 GLOBAL| DGEMM library                                                      BLAS
 GLOBAL| Direct generalized diagonalization requested                          F
 GLOBAL| Orthonormality check for eigenvectors                          DISABLED
 GLOBAL| Matrix multiplication library                                 ScaLAPACK
 GLOBAL| All-to-all communication in single precision                          F
 GLOBAL| FFTs using library dependent lengths                                  F
 GLOBAL| Grid backend                                                       AUTO
 GLOBAL| Global print level                                               MEDIUM
 GLOBAL| MPI I/O enabled                                                       T
 GLOBAL| Total number of message passing processes                             1
 GLOBAL| Number of distributed systems (nodes)                                 1
 GLOBAL| Number of threads for this process                                   16
 GLOBAL| This output is from process                                           0
 GLOBAL| OpenMP stack size per thread (OMP_STACKSIZE)                       256M
 GLOBAL| CPU model name                         AMD EPYC 9755 128-Core Processor

 MEMORY| system memory details [Kb]
 MEMORY|                        rank 0           min           max       average
 MEMORY| MemTotal           2377441624    2377441624    2377441624    2377441624
 MEMORY| MemFree            2248112368    2248112368    2248112368    2248112368
 MEMORY| Buffers                  7448          7448          7448          7448
 MEMORY| Cached                9814232       9814232       9814232       9814232
 MEMORY| Slab                  3457096       3457096       3457096       3457096
 MEMORY| SReclaimable           650232        650232        650232        650232
 MEMORY| MemLikelyFree      2258584280    2258584280    2258584280    2258584280


 *** Fundamental physical constants (SI units) ***

 *** Literature: B. J. Mohr and B. N. Taylor,
 ***             CODATA recommended values of the fundamental physical
 ***             constants: 2006, Web Version 5.1
 ***             http://physics.nist.gov/constants

 Speed of light in vacuum [m/s]                             2.99792458000000E+08
 Magnetic constant or permeability of vacuum [N/A**2]       1.25663706143592E-06
 Electric constant or permittivity of vacuum [F/m]          8.85418781762039E-12
 Planck constant (h) [J*s]                                  6.62606896000000E-34
 Planck constant (h-bar) [J*s]                              1.05457162825177E-34
 Elementary charge [C]                                      1.60217648700000E-19
 Electron mass [kg]                                         9.10938215000000E-31
 Electron g factor [ ]                                     -2.00231930436220E+00
 Proton mass [kg]                                           1.67262163700000E-27
 Fine-structure constant                                    7.29735253760000E-03
 Rydberg constant [1/m]                                     1.09737315685270E+07
 Avogadro constant [1/mol]                                  6.02214179000000E+23
 Boltzmann constant [J/K]                                   1.38065040000000E-23
 Atomic mass unit [kg]                                      1.66053878200000E-27
 Bohr radius [m]                                            5.29177208590000E-11

 *** Conversion factors ***

 [u] -> [a.u.]                                              1.82288848426455E+03
 [Angstrom] -> [Bohr] = [a.u.]                              1.88972613288564E+00
 [a.u.] = [Bohr] -> [Angstrom]                              5.29177208590000E-01
 [a.u.] -> [s]                                              2.41888432650478E-17
 [a.u.] -> [fs]                                             2.41888432650478E-02
 [a.u.] -> [J]                                              4.35974393937059E-18
 [a.u.] -> [N]                                              8.23872205491840E-08
 [a.u.] -> [K]                                              3.15774647902944E+05
 [a.u.] -> [kJ/mol]                                         2.62549961709828E+03
 [a.u.] -> [kcal/mol]                                       6.27509468713739E+02
 [a.u.] -> [Pa]                                             2.94210107994716E+13
 [a.u.] -> [bar]                                            2.94210107994716E+08
 [a.u.] -> [atm]                                            2.90362800883016E+08
 [a.u.] -> [eV]                                             2.72113838565563E+01
 [a.u.] -> [Hz]                                             6.57968392072181E+15
 [a.u.] -> [1/cm] (wave numbers)                            2.19474631370540E+05
 [a.u./Bohr**2] -> [1/cm]                                   5.14048714338585E+03
 

 CELL| Volume [angstrom^3]:                                          8000.000000
 CELL| Vector a [angstrom]:      20.000     0.000     0.000   |a| =    20.000000
 CELL| Vector b [angstrom]:       0.000    20.000     0.000   |b| =    20.000000
 CELL| Vector c [angstrom]:       0.000     0.000    20.000   |c| =    20.000000
 CELL| Angle (b,c), alpha [degree]:                                    90.000000
 CELL| Angle (a,c), beta  [degree]:                                    90.000000
 CELL| Angle (a,b), gamma [degree]:                                    90.000000
 CELL| Numerically orthorhombic:                                             YES
 CELL| Periodicity                                                          NONE

 CELL_REF| Volume [angstrom^3]:                                      8000.000000
 CELL_REF| Vector a [angstrom    20.000     0.000     0.000   |a| =    20.000000
 CELL_REF| Vector b [angstrom     0.000    20.000     0.000   |b| =    20.000000
 CELL_REF| Vector c [angstrom     0.000     0.000    20.000   |c| =    20.000000
 CELL_REF| Angle (b,c), alpha [degree]:                                90.000000
 CELL_REF| Angle (a,c), beta  [degree]:                                90.000000
 CELL_REF| Angle (a,b), gamma [degree]:                                90.000000
 CELL_REF| Numerically orthorhombic:                                         YES
 CELL_REF| Periodicity                                                      NONE

 GENERATE|  Preliminary Number of Bonds generated:                             0
 GENERATE|  Achieved consistency in connectivity generation.

 *******************************************************************************
 *******************************************************************************
 **                                                                           **
 **     #####                         ##              ##                      **
 **    ##   ##            ##          ##              ##                      **
 **   ##     ##                       ##            ######                    **
 **   ##     ##  ##   ##  ##   #####  ##  ##   ####   ##    #####    #####    **
 **   ##     ##  ##   ##  ##  ##      ## ##   ##      ##   ##   ##  ##   ##   **
 **   ##  ## ##  ##   ##  ##  ##      ####     ###    ##   ######   ######    **
 **    ##  ###   ##   ##  ##  ##      ## ##      ##   ##   ##       ##        **
 **     #######   #####   ##   #####  ##  ##  ####    ##    #####   ##        **
 **           ##                                                    ##        **
 **                                                                           **
 **                                                ... make the atoms dance   **
 **                                                                           **
 **            Copyright (C) by CP2K developers group (2000-2026)             **
 **                      J. Chem. Phys. 152, 194103 (2020)                    **
 **                                                                           **
 *******************************************************************************

 DFT| Spin restricted Kohn-Sham (RKS) calculation                            RKS
 DFT| Multiplicity                                                             1
 DFT| Number of spin states                                                    1
 DFT| Charge                                                                   0
 DFT| Self-interaction correction (SIC)                                       NO
 DFT| Cutoffs: density                                              1.000000E-10
 DFT|          gradient                                             1.000000E-10
 DFT|          tau                                                  1.000000E-10
 DFT|          cutoff_smoothing_range                               0.000000E+00
 DFT| XC density smoothing                                                  NONE
 DFT| XC derivatives                                                          PW

 FUNCTIONAL| GAUXC:
 FUNCTIONAL| Functional computed by GauXC Skala model SKALA                     


 QS| Method:                                                                 GPW
 QS| Density plane wave grid type                        NON-SPHERICAL FULLSPACE
 QS| Number of grid levels:                                                    5
 QS| Density cutoff [a.u.]:                                                400.0
 QS| Multi grid cutoff [a.u.]: 1) grid level                               400.0
 QS|                           2) grid level                               133.3
 QS|                           3) grid level                                44.4
 QS|                           4) grid level                                14.8
 QS|                           5) grid level                                 4.9
 QS| Grid level progression factor:                                          3.0
 QS| Relative density cutoff [a.u.]:                                        30.0
 QS| Interaction thresholds: eps_pgf_orb:                                1.0E-06
 QS|                         eps_filter_matrix:                          0.0E+00
 QS|                         eps_core_charge:                            1.0E-14
 QS|                         eps_rho_gspace:                             1.0E-12
 QS|                         eps_rho_rspace:                             1.0E-12
 QS|                         eps_gvg_rspace:                             1.0E-06
 QS|                         eps_ppl:                                    1.0E-02
 QS|                         eps_ppnl:                                   1.0E-08


 ATOMIC KIND INFORMATION

  1. Atomic kind: O                                     Number of atoms:       1

     Orbital Basis Set                                   TZV2P-MOLOPT-PBE-GTH-q6

       Number of orbital shell sets:                                           1
       Number of orbital shells:                                               9
       Number of primitive Cartesian functions:                                5
       Number of Cartesian basis functions:                                   34
       Number of spherical basis functions:                                   29
       Norm type:                                                              2

       Normalised Cartesian orbitals:

                        Set   Shell   Orbital            Exponent    Coefficient

                          1       1    2s               10.277042      -0.485504
                                                         3.564053      -0.220015
                                                         1.313636       0.373321
                                                         0.488903       0.264765
                                                         0.155332       0.020043

                          1       2    3s               10.277042       0.224066
                                                         3.564053       0.080746
                                                         1.313636      -0.123482
                                                         0.488903      -0.035459
                                                         0.155332       0.195554

                          1       3    4s               10.277042      -3.846583
                                                         3.564053      -0.604002
                                                         1.313636       0.878850
                                                         0.488903      -0.388670
                                                         0.155332       0.020403

                          1       4    3px              10.277042      -1.528218
                                                         3.564053      -1.277699
                                                         1.313636      -0.654740
                                                         0.488903      -0.229926
                                                         0.155332      -0.043447
                          1       4    3py              10.277042      -1.528218
                                                         3.564053      -1.277699
                                                         1.313636      -0.654740
                                                         0.488903      -0.229926
                                                         0.155332      -0.043447
                          1       4    3pz              10.277042      -1.528218
                                                         3.564053      -1.277699
                                                         1.313636      -0.654740
                                                         0.488903      -0.229926
                                                         0.155332      -0.043447

                          1       5    4px              10.277042       2.036465
                                                         3.564053       1.678955
                                                         1.313636       0.821025
                                                         0.488903       0.173956
                                                         0.155332      -0.133459
                          1       5    4py              10.277042       2.036465
                                                         3.564053       1.678955
                                                         1.313636       0.821025
                                                         0.488903       0.173956
                                                         0.155332      -0.133459
                          1       5    4pz              10.277042       2.036465
                                                         3.564053       1.678955
                                                         1.313636       0.821025
                                                         0.488903       0.173956
                                                         0.155332      -0.133459

                          1       6    5px              10.277042       4.160760
                                                         3.564053       3.839534
                                                         1.313636       1.365137
                                                         0.488903      -0.557232
                                                         0.155332       0.019989
                          1       6    5py              10.277042       4.160760
                                                         3.564053       3.839534
                                                         1.313636       1.365137
                                                         0.488903      -0.557232
                                                         0.155332       0.019989
                          1       6    5pz              10.277042       4.160760
                                                         3.564053       3.839534
                                                         1.313636       1.365137
                                                         0.488903      -0.557232
                                                         0.155332       0.019989

                          1       7    4dx2             10.277042      -5.653729
                                                         3.564053       2.384130
                                                         1.313636       0.763128
                                                         0.488903       0.368121
                                                         0.155332      -0.007951
                          1       7    4dxy             10.277042      -9.792547
                                                         3.564053       4.129435
                                                         1.313636       1.321776
                                                         0.488903       0.637605
                                                         0.155332      -0.013772
                          1       7    4dxz             10.277042      -9.792547
                                                         3.564053       4.129435
                                                         1.313636       1.321776
                                                         0.488903       0.637605
                                                         0.155332      -0.013772
                          1       7    4dy2             10.277042      -5.653729
                                                         3.564053       2.384130
                                                         1.313636       0.763128
                                                         0.488903       0.368121
                                                         0.155332      -0.007951
                          1       7    4dyz             10.277042      -9.792547
                                                         3.564053       4.129435
                                                         1.313636       1.321776
                                                         0.488903       0.637605
                                                         0.155332      -0.013772
                          1       7    4dz2             10.277042      -5.653729
                                                         3.564053       2.384130
                                                         1.313636       0.763128
                                                         0.488903       0.368121
                                                         0.155332      -0.007951

                          1       8    5dx2             10.277042      -1.240143
                                                         3.564053       0.370203
                                                         1.313636       0.144297
                                                         0.488903       0.056503
                                                         0.155332       0.057456
                          1       8    5dxy             10.277042      -2.147990
                                                         3.564053       0.641211
                                                         1.313636       0.249929
                                                         0.488903       0.097865
                                                         0.155332       0.099516
                          1       8    5dxz             10.277042      -2.147990
                                                         3.564053       0.641211
                                                         1.313636       0.249929
                                                         0.488903       0.097865
                                                         0.155332       0.099516
                          1       8    5dy2             10.277042      -1.240143
                                                         3.564053       0.370203
                                                         1.313636       0.144297
                                                         0.488903       0.056503
                                                         0.155332       0.057456
                          1       8    5dyz             10.277042      -2.147990
                                                         3.564053       0.641211
                                                         1.313636       0.249929
                                                         0.488903       0.097865
                                                         0.155332       0.099516
                          1       8    5dz2             10.277042      -1.240143
                                                         3.564053       0.370203
                                                         1.313636       0.144297
                                                         0.488903       0.056503
                                                         0.155332       0.057456

                          1       9    5fx3             10.277042      -6.690350
                                                         3.564053       0.340627
                                                         1.313636       0.043047
                                                         0.488903       0.291962
                                                         0.155332      -0.000154
                          1       9    5fx2y            10.277042     -14.960077
                                                         3.564053       0.761664
                                                         1.313636       0.096256
                                                         0.488903       0.652848
                                                         0.155332      -0.000345
                          1       9    5fx2z            10.277042     -14.960077
                                                         3.564053       0.761664
                                                         1.313636       0.096256
                                                         0.488903       0.652848
                                                         0.155332      -0.000345
                          1       9    5fxy2            10.277042     -14.960077
                                                         3.564053       0.761664
                                                         1.313636       0.096256
                                                         0.488903       0.652848
                                                         0.155332      -0.000345
                          1       9    5fxyz            10.277042     -25.911613
                                                         3.564053       1.319241
                                                         1.313636       0.166721
                                                         0.488903       1.130766
                                                         0.155332      -0.000597
                          1       9    5fxz2            10.277042     -14.960077
                                                         3.564053       0.761664
                                                         1.313636       0.096256
                                                         0.488903       0.652848
                                                         0.155332      -0.000345
                          1       9    5fy3             10.277042      -6.690350
                                                         3.564053       0.340627
                                                         1.313636       0.043047
                                                         0.488903       0.291962
                                                         0.155332      -0.000154
                          1       9    5fy2z            10.277042     -14.960077
                                                         3.564053       0.761664
                                                         1.313636       0.096256
                                                         0.488903       0.652848
                                                         0.155332      -0.000345
                          1       9    5fyz2            10.277042     -14.960077
                                                         3.564053       0.761664
                                                         1.313636       0.096256
                                                         0.488903       0.652848
                                                         0.155332      -0.000345
                          1       9    5fz3             10.277042      -6.690350
                                                         3.564053       0.340627
                                                         1.313636       0.043047
                                                         0.488903       0.291962
                                                         0.155332      -0.000154

       Atomic covalent radius [Angstrom]:                                  0.730

       Atomic van der Waals radius [Angstrom]:                             1.520

     GTH Potential information for                                    GTH-PBE-q6

       Description:                       Goedecker-Teter-Hutter pseudopotential
                                           Goedecker et al., PRB 54, 1703 (1996)
                                          Hartwigsen et al., PRB 58, 3641 (1998)
                                                      Krack, TCA 114, 145 (2005)

       Gaussian exponent of the core charge distribution:               8.366479
       Electronic configuration (s p d ...):                       2   4   0   0

       Parameters of the local part of the GTH pseudopotential:

                          rloc        C1          C2          C3          C4
                        0.244463  -16.675482    2.489086

       Parameters of the non-local part of the GTH pseudopotential:

                   l      r(l)      h(i,j,l)

                   0    0.220971   18.334469

  2. Atomic kind: H                                     Number of atoms:       2

     Orbital Basis Set                                   TZV2P-MOLOPT-PBE-GTH-q1

       Number of orbital shell sets:                                           1
       Number of orbital shells:                                               6
       Number of primitive Cartesian functions:                                5
       Number of Cartesian basis functions:                                   15
       Number of spherical basis functions:                                   14
       Norm type:                                                              2

       Normalised Cartesian orbitals:

                        Set   Shell   Orbital            Exponent    Coefficient

                          1       1    2s                9.586642       0.069481
                                                         2.202360       0.112147
                                                         0.604094       0.130550
                                                         0.146498       0.088477
                                                         0.139526       0.035929

                          1       2    3s                9.586642      -0.087313
                                                         2.202360      -0.117928
                                                         0.604094      -0.099372
                                                         0.146498      -0.105375
                                                         0.139526       0.287433

                          1       3    4s                9.586642       0.882480
                                                         2.202360       0.096105
                                                         0.604094      -0.739894
                                                         0.146498       0.120904
                                                         0.139526       0.013904

                          1       4    3px               9.586642      -2.186125
                                                         2.202360       1.112625
                                                         0.604094       0.330981
                                                         0.146498       0.087385
                                                         0.139526      -0.016905
                          1       4    3py               9.586642      -2.186125
                                                         2.202360       1.112625
                                                         0.604094       0.330981
                                                         0.146498       0.087385
                                                         0.139526      -0.016905
                          1       4    3pz               9.586642      -2.186125
                                                         2.202360       1.112625
                                                         0.604094       0.330981
                                                         0.146498       0.087385
                                                         0.139526      -0.016905

                          1       5    4px               9.586642       1.866908
                                                         2.202360       0.174551
                                                         0.604094       0.060190
                                                         0.146498       0.014182
                                                         0.139526       0.100545
                          1       5    4py               9.586642       1.866908
                                                         2.202360       0.174551
                                                         0.604094       0.060190
                                                         0.146498       0.014182
                                                         0.139526       0.100545
                          1       5    4pz               9.586642       1.866908
                                                         2.202360       0.174551
                                                         0.604094       0.060190
                                                         0.146498       0.014182
                                                         0.139526       0.100545

                          1       6    4dx2              9.586642       0.111501
                                                         2.202360      -0.020603
                                                         0.604094      -0.012612
                                                         0.146498      -0.000171
                                                         0.139526       0.052995
                          1       6    4dxy              9.586642       0.193125
                                                         2.202360      -0.035686
                                                         0.604094      -0.021844
                                                         0.146498      -0.000296
                                                         0.139526       0.091790
                          1       6    4dxz              9.586642       0.193125
                                                         2.202360      -0.035686
                                                         0.604094      -0.021844
                                                         0.146498      -0.000296
                                                         0.139526       0.091790
                          1       6    4dy2              9.586642       0.111501
                                                         2.202360      -0.020603
                                                         0.604094      -0.012612
                                                         0.146498      -0.000171
                                                         0.139526       0.052995
                          1       6    4dyz              9.586642       0.193125
                                                         2.202360      -0.035686
                                                         0.604094      -0.021844
                                                         0.146498      -0.000296
                                                         0.139526       0.091790
                          1       6    4dz2              9.586642       0.111501
                                                         2.202360      -0.020603
                                                         0.604094      -0.012612
                                                         0.146498      -0.000171
                                                         0.139526       0.052995

       Atomic covalent radius [Angstrom]:                                  0.320

       Atomic van der Waals radius [Angstrom]:                             1.090

     GTH Potential information for                                    GTH-PBE-q1

       Description:                       Goedecker-Teter-Hutter pseudopotential
                                           Goedecker et al., PRB 54, 1703 (1996)
                                          Hartwigsen et al., PRB 58, 3641 (1998)
                                                      Krack, TCA 114, 145 (2005)

       Gaussian exponent of the core charge distribution:              12.426182
       Electronic configuration (s p d ...):                       1   0   0   0

       Parameters of the local part of the GTH pseudopotential:

                          rloc        C1          C2          C3          C4
                        0.200593   -4.178068    0.724409


 MOLECULE KIND INFORMATION


 All atoms are their own molecule, skipping detailed information


 TOTAL NUMBERS AND MAXIMUM NUMBERS

  Total number of            - Atomic kinds:                                   2
                             - Atoms:                                          3
                             - Shell sets:                                     3
                             - Shells:                                        21
                             - Primitive Cartesian functions:                 15
                             - Cartesian basis functions:                     64
                             - Spherical basis functions:                     57

  Maximum angular momentum of- Orbital basis functions:                        3
                             - Local part of the GTH pseudopotential:          2
                             - Non-local part of the GTH pseudopotential:      0


 MODULE QUICKSTEP: ATOMIC COORDINATES IN ANGSTROM

   Atom Kind Element         X             Y             Z       Z(eff)     Mass
      1    1 O     8     10.000000     10.000000      9.747858   6.0000  15.9994
      2    2 H     1     10.000000     10.758602     10.252142   1.0000   1.0079
      3    2 H     1     10.000000      9.241398     10.252142   1.0000   1.0079



 SCF PARAMETERS         Density guess:                                    ATOMIC
                        --------------------------------------------------------
                        max_scf:                                             200
                        max_scf_history:                                       0
                        max_diis:                                              4
                        --------------------------------------------------------
                        eps_scf:                                        1.00E-06
                        eps_scf_history:                                0.00E+00
                        eps_diis:                                       1.00E-01
                        eps_eigval:                                     1.00E-05
                        --------------------------------------------------------
                        level_shift [a.u.]:                             0.000000
                        --------------------------------------------------------
                        Mixing method:                           DIRECT_P_MIXING
                        --------------------------------------------------------
                        No outer SCF

 PW_GRID| Information for grid number                                          1
 PW_GRID| Cutoff [a.u.]                                                    400.0
 PW_GRID| spherical cutoff:                                                   NO
 PW_GRID|   Bounds   1           -180     179                Points:         360
 PW_GRID|   Bounds   2           -180     179                Points:         360
 PW_GRID|   Bounds   3           -180     179                Points:         360
 PW_GRID| Volume element (a.u.^3)  0.1157E-02     Volume (a.u.^3)     53986.6767
 PW_GRID| Grid span                                                    FULLSPACE

 PW_GRID| Information for grid number                                          2
 PW_GRID| Number of the reference grid                                         1
 PW_GRID| Cutoff [a.u.]                                                    133.3
 PW_GRID| spherical cutoff:                                                   NO
 PW_GRID|   Bounds   1           -100      99                Points:         200
 PW_GRID|   Bounds   2           -100      99                Points:         200
 PW_GRID|   Bounds   3           -100      99                Points:         200
 PW_GRID| Volume element (a.u.^3)  0.6748E-02     Volume (a.u.^3)     53986.6767
 PW_GRID| Grid span                                                    FULLSPACE

 PW_GRID| Information for grid number                                          3
 PW_GRID| Number of the reference grid                                         1
 PW_GRID| Cutoff [a.u.]                                                     44.4
 PW_GRID| spherical cutoff:                                                   NO
 PW_GRID|   Bounds   1            -60      59                Points:         120
 PW_GRID|   Bounds   2            -60      59                Points:         120
 PW_GRID|   Bounds   3            -60      59                Points:         120
 PW_GRID| Volume element (a.u.^3)  0.3124E-01     Volume (a.u.^3)     53986.6767
 PW_GRID| Grid span                                                    FULLSPACE

 PW_GRID| Information for grid number                                          4
 PW_GRID| Number of the reference grid                                         1
 PW_GRID| Cutoff [a.u.]                                                     14.8
 PW_GRID| spherical cutoff:                                                   NO
 PW_GRID|   Bounds   1            -36      35                Points:          72
 PW_GRID|   Bounds   2            -36      35                Points:          72
 PW_GRID|   Bounds   3            -36      35                Points:          72
 PW_GRID| Volume element (a.u.^3)  0.1446         Volume (a.u.^3)     53986.6767
 PW_GRID| Grid span                                                    FULLSPACE

 PW_GRID| Information for grid number                                          5
 PW_GRID| Number of the reference grid                                         1
 PW_GRID| Cutoff [a.u.]                                                      4.9
 PW_GRID| spherical cutoff:                                                   NO
 PW_GRID|   Bounds   1            -20      19                Points:          40
 PW_GRID|   Bounds   2            -20      19                Points:          40
 PW_GRID|   Bounds   3            -20      19                Points:          40
 PW_GRID| Volume element (a.u.^3)  0.8435         Volume (a.u.^3)     53986.6767
 PW_GRID| Grid span                                                    FULLSPACE

 POISSON| Solver                                                        ANALYTIC
 POISSON| Periodicity                                                       NONE

 RS_GRID| Information for grid number                                          1
 RS_GRID|   Bounds   1           -180     179                Points:         360
 RS_GRID|   Bounds   2           -180     179                Points:         360
 RS_GRID|   Bounds   3           -180     179                Points:         360

 RS_GRID| Information for grid number                                          2
 RS_GRID|   Bounds   1           -100      99                Points:         200
 RS_GRID|   Bounds   2           -100      99                Points:         200
 RS_GRID|   Bounds   3           -100      99                Points:         200

 RS_GRID| Information for grid number                                          3
 RS_GRID|   Bounds   1            -60      59                Points:         120
 RS_GRID|   Bounds   2            -60      59                Points:         120
 RS_GRID|   Bounds   3            -60      59                Points:         120

 RS_GRID| Information for grid number                                          4
 RS_GRID|   Bounds   1            -36      35                Points:          72
 RS_GRID|   Bounds   2            -36      35                Points:          72
 RS_GRID|   Bounds   3            -36      35                Points:          72

 RS_GRID| Information for grid number                                          5
 RS_GRID|   Bounds   1            -20      19                Points:          40
 RS_GRID|   Bounds   2            -20      19                Points:          40
 RS_GRID|   Bounds   3            -20      19                Points:          40

 Extrapolation method: initial_guess

 Atomic guess: The first density matrix is obtained in terms of atomic orbitals
               and electronic configurations assigned to each atomic kind

 Guess for atomic kind: O

 Electronic structure
    Total number of core electrons                                          2.00
    Total number of valence electrons                                       6.00
    Total number of electrons                                               8.00
    Multiplicity                                                   not specified
    S   [  2.00] 2.00
    P      4.00


 *******************************************************************************
                  Iteration          Convergence                     Energy [au]
 *******************************************************************************
                          1        0.796005                     -15.566061392878
                          2        0.774658                     -15.568438641124
                          3        0.351111E-01                 -15.654930076648
                          4        0.189172E-02                 -15.655143267357
                          5        0.220385E-04                 -15.655143728195
                          6        0.421753E-06                 -15.655143728266

 Energy components [Hartree]           Total Energy ::          -15.655143728266
                                        Band Energy ::           -3.002138986156
                                     Kinetic Energy ::           11.764067744784
                                   Potential Energy ::          -27.419211473050
                                      Virial (-V/T) ::            2.330759399546
                                        Core Energy ::          -26.135412074758
                                          XC Energy ::           -3.153998435017
                                     Coulomb Energy ::           13.634266781510
                       Total Pseudopotential Energy ::          -37.934831757073
                       Local Pseudopotential Energy ::          -39.243587898816
                    Nonlocal Pseudopotential Energy ::            1.308756141743
                                        Confinement ::            0.353519375303

 Orbital energies  State     L     Occupation   Energy[a.u.]          Energy[eV]

                       1     0          2.000      -0.864691          -23.529445

                       1     1          4.000      -0.318189           -8.658367


 Total Electron Density at R=0:                                         0.000131

 Guess for atomic kind: H

 Electronic structure
    Total number of core electrons                                          0.00
    Total number of valence electrons                                       1.00
    Total number of electrons                                               1.00
    Multiplicity                                                   not specified
    S      1.00


 *******************************************************************************
                  Iteration          Convergence                     Energy [au]
 *******************************************************************************
                          1        0.471942E-02                  -0.424095106469
                          2        0.464819E-03                  -0.424113671871
                          3        0.190364E-04                  -0.424114007136
                          4        0.633677E-08                  -0.424114007691

 Energy components [Hartree]           Total Energy ::           -0.424114007691
                                        Band Energy ::           -0.198799540676
                                     Kinetic Energy ::            0.462903625467
                                   Potential Energy ::           -0.887017633158
                                      Virial (-V/T) ::            1.916203685515
                                        Core Energy ::           -0.479182004469
                                          XC Energy ::           -0.244447840446
                                     Coulomb Energy ::            0.299515837225
                       Total Pseudopotential Energy ::           -0.960851778720
                       Local Pseudopotential Energy ::           -0.960851778720
                    Nonlocal Pseudopotential Energy ::            0.000000000000
                                        Confinement ::            0.187661487833

 Orbital energies  State     L     Occupation   Energy[a.u.]          Energy[eV]

                       1     0          1.000      -0.198800           -5.409611


 Total Electron Density at R=0:                                         0.230125
 Re-scaling the density matrix to get the right number of electrons
                  # Electrons              Trace(P)               Scaling factor
                            8                 8.000                        1.000

 Number of electrons:                                                          8
 Number of occupied orbitals:                                                  4
 Number of molecular orbitals:                                                 4

 Number of orbital functions:                                                 57
 Number of independent orbital functions:                                     57


 SCF WAVEFUNCTION OPTIMIZATION

  Step     Update method      Time    Convergence         Total energy    Change
  ------------------------------------------------------------------------------
 SKALA_GPW| Atom-composite cross support/maxima   0.000000000000E+00   0.000000000000E+00   0.000000000000E+00   0.000000000000E+00

 SKALA_GPW| Native grid Torch CUDA device 0 of 1 requested -1
 SKALA_GPW| Native grid Torch CUDA rank devices 0:0
 SKALA_GPW| Active atom-composite XC energy  -4.0292675621108023E+00
 SKALA_GPW| Active atom-composite electrons   7.9999628937456002E+00
 SKALA_GPW| Active atom-composite density range  -2.3671063091282608E-09   5.1454130390126196E-01
 SKALA_GPW| Active atom-composite tau range  -6.4462778849976216E-08   1.5501444881641964E+01
 SKALA_GPW| Active atom-composite tau integral   1.2689654876995972E+01
 SKALA_GPW| Active atom-composite max gradient   2.0514506417188039E+00
     1 P_Mix/Diag. 0.10E+00    6.4     0.65208910       -17.0521039996 -1.71E+01
 SKALA_GPW| Atom-composite cross support/maxima   0.000000000000E+00   0.000000000000E+00   0.000000000000E+00   0.000000000000E+00
 SKALA_GPW| Active atom-composite XC energy  -4.0816970421894840E+00
 SKALA_GPW| Active atom-composite electrons   7.9999617566461998E+00
 SKALA_GPW| Active atom-composite density range  -2.4989828708358285E-09   5.2693585150335631E-01
 SKALA_GPW| Active atom-composite tau range  -6.8193849095685199E-08   1.6016097082244745E+01
 SKALA_GPW| Active atom-composite tau integral   1.3001396614817628E+01
 SKALA_GPW| Active atom-composite max gradient   2.1301931264331282E+00
     2 P_Mix/Diag. 0.10E+00    5.3     0.59785228       -17.0759424759 -2.38E-02
 SKALA_GPW| Atom-composite cross support/maxima   0.000000000000E+00   0.000000000000E+00   0.000000000000E+00   0.000000000000E+00
 SKALA_GPW| Active atom-composite XC energy  -4.1230350668896811E+00
 SKALA_GPW| Active atom-composite electrons   7.9999609044790674E+00
 SKALA_GPW| Active atom-composite density range  -2.6067750543974001E-09   5.4101649102016403E-01
 SKALA_GPW| Active atom-composite tau range  -7.1285050996413192E-08   1.6381372867169727E+01
 SKALA_GPW| Active atom-composite tau integral   1.3233269320894664E+01
 SKALA_GPW| Active atom-composite max gradient   2.2005521506001187E+00
     3 P_Mix/Diag. 0.10E+00    6.8     0.54656498       -17.0947547111 -1.88E-02
 SKALA_GPW| Atom-composite cross support/maxima   0.000000000000E+00   0.000000000000E+00   0.000000000000E+00   0.000000000000E+00
 SKALA_GPW| Active atom-composite XC energy  -4.1554743057431400E+00
 SKALA_GPW| Active atom-composite electrons   7.9999602773745222E+00
 SKALA_GPW| Active atom-composite density range  -2.6949291205328335E-09   5.5225900081656121E-01
 SKALA_GPW| Active atom-composite tau range  -7.3848554799479457E-08   1.6635997590498839E+01
 SKALA_GPW| Active atom-composite tau integral   1.3404714898451989E+01
 SKALA_GPW| Active atom-composite max gradient   2.2546129253974785E+00
     4 P_Mix/Diag. 0.10E+00    5.4     0.49767191       -17.1101731004 -1.54E-02
 SKALA_GPW| Atom-composite cross support/maxima   0.000000000000E+00   0.000000000000E+00   0.000000000000E+00   0.000000000000E+00
 SKALA_GPW| Active atom-composite XC energy  -4.1808550224663961E+00
 SKALA_GPW| Active atom-composite electrons   7.9999598265474985E+00
 SKALA_GPW| Active atom-composite density range  -2.7673031336531280E-09   5.6097660425357654E-01
 SKALA_GPW| Active atom-composite tau range  -7.5981731756418900E-08   1.6809640394349834E+01
 SKALA_GPW| Active atom-composite tau integral   1.3530829482671383E+01
 SKALA_GPW| Active atom-composite max gradient   2.2963827697283086E+00
     5 P_Mix/Diag. 0.10E+00    5.2     0.45173777       -17.1231456781 -1.30E-02
 SKALA_GPW| Atom-composite cross support/maxima   0.000000000000E+00   0.000000000000E+00   0.000000000000E+00   0.000000000000E+00
 SKALA_GPW| Active atom-composite XC energy  -4.2006979629442611E+00
 SKALA_GPW| Active atom-composite electrons   7.9999595047287499E+00
 SKALA_GPW| Active atom-composite density range  -2.8271828007587432E-09   5.6778654971729836E-01
 SKALA_GPW| Active atom-composite tau range  -7.7768670568003149E-08   1.6924425457785425E+01
 SKALA_GPW| Active atom-composite tau integral   1.3623089938567123E+01
 SKALA_GPW| Active atom-composite max gradient   2.3288936232386739E+00
     6 P_Mix/Diag. 0.10E+00    5.1     0.40889535       -17.1342512162 -1.11E-02
 SKALA_GPW| Atom-composite cross support/maxima   0.000000000000E+00   0.000000000000E+00   0.000000000000E+00   0.000000000000E+00
 SKALA_GPW| Active atom-composite XC energy  -4.2162329032084713E+00
 SKALA_GPW| Active atom-composite electrons   7.9999592720950616E+00
 SKALA_GPW| Active atom-composite density range  -2.8772532456743462E-09   5.7316090738626135E-01
 SKALA_GPW| Active atom-composite tau range  -7.9278859505318346E-08   1.6996798729145969E+01
 SKALA_GPW| Active atom-composite tau integral   1.3690232790163712E+01
 SKALA_GPW| Active atom-composite max gradient   2.3544665479877755E+00
     7 P_Mix/Diag. 0.10E+00    5.1     0.36933082       -17.1438630682 -9.61E-03
 SKALA_GPW| Atom-composite cross support/maxima   0.000000000000E+00   0.000000000000E+00   0.000000000000E+00   0.000000000000E+00
 SKALA_GPW| Active atom-composite XC energy  -4.2284431812737928E+00
 SKALA_GPW| Active atom-composite electrons   7.9999590976473263E+00
 SKALA_GPW| Active atom-composite density range  -2.9196607515413721E-09   5.7745610365475541E-01
 SKALA_GPW| Active atom-composite tau range  -8.0568983040702530E-08   1.7038990913054882E+01
 SKALA_GPW| Active atom-composite tau integral   1.3738820098354374E+01
 SKALA_GPW| Active atom-composite max gradient   2.3748559693016564E+00
     8 P_Mix/Diag. 0.10E+00    5.1     0.33318948       -17.1522527151 -8.39E-03
 SKALA_GPW| Atom-composite cross support/maxima   0.000000000000E+00   0.000000000000E+00   0.000000000000E+00   0.000000000000E+00
 SKALA_GPW| Active atom-composite XC energy  -4.2381267388422001E+00
 SKALA_GPW| Active atom-composite electrons   7.9999589587969062E+00
 SKALA_GPW| Active atom-composite density range  -2.9560452684783200E-09   5.8093909991339043E-01
 SKALA_GPW| Active atom-composite tau range  -8.1683545889371938E-08   1.7060358120183711E+01
 SKALA_GPW| Active atom-composite tau integral   1.3773823448962364E+01
 SKALA_GPW| Active atom-composite max gradient   2.3913701462374157E+00
     9 P_Mix/Diag. 0.10E+00    5.2     0.30044844       -17.1596387550 -7.39E-03
 SKALA_GPW| Atom-composite cross support/maxima   0.000000000000E+00   0.000000000000E+00   0.000000000000E+00   0.000000000000E+00
 SKALA_GPW| Active atom-composite XC energy  -4.2459156490930567E+00
 SKALA_GPW| Active atom-composite electrons   7.9999588403528339E+00
 SKALA_GPW| Active atom-composite density range  -2.9876049598767849E-09   5.8380755307046139E-01
 SKALA_GPW| Active atom-composite tau range  -8.2655926440656389E-08   1.7067339103751834E+01
 SKALA_GPW| Active atom-composite tau integral   1.3799004252480511E+01
 SKALA_GPW| Active atom-composite max gradient   2.4049693120593214E+00
    10 P_Mix/Diag. 0.10E+00    5.1     0.27089334       -17.1661942332 -6.56E-03
 SKALA_GPW| Atom-composite cross support/maxima   0.000000000000E+00   0.000000000000E+00   0.000000000000E+00   0.000000000000E+00
 SKALA_GPW| Active atom-composite XC energy  -4.2522880928871363E+00
 SKALA_GPW| Active atom-composite electrons   7.9999587329795805E+00
 SKALA_GPW| Active atom-composite density range  -3.0152088845060039E-09   5.8620654428081276E-01
 SKALA_GPW| Active atom-composite tau range  -8.3510791294938615E-08   1.7064843953701317E+01
 SKALA_GPW| Active atom-composite tau integral   1.3817157478305495E+01
 SKALA_GPW| Active atom-composite max gradient   2.4163522500772396E+00
    11 P_Mix/Diag. 0.10E+00    5.0     0.24425679       -17.1720495328 -5.86E-03
 SKALA_GPW| Atom-composite cross support/maxima   0.000000000000E+00   0.000000000000E+00   0.000000000000E+00   0.000000000000E+00
 SKALA_GPW| Active atom-composite XC energy  -4.2575919421416799E+00
 SKALA_GPW| Active atom-composite electrons   7.9999586313852777E+00
 SKALA_GPW| Active atom-composite density range  -3.0395011364304710E-09   5.8824236714999056E-01
 SKALA_GPW| Active atom-composite tau range  -8.4266635846195690E-08   1.7056373063264068E+01
 SKALA_GPW| Active atom-composite tau integral   1.3830312087185661E+01
 SKALA_GPW| Active atom-composite max gradient   2.4260279166563161E+00
    12 P_Mix/Diag. 0.10E+00    5.1     0.22026665       -17.1773014855 -5.25E-03
 SKALA_GPW| Atom-composite cross support/maxima   0.000000000000E+00   0.000000000000E+00   0.000000000000E+00   0.000000000000E+00
 SKALA_GPW| Active atom-composite XC energy  -4.2620754798028901E+00
 SKALA_GPW| Active atom-composite electrons   7.9999585328324097E+00
 SKALA_GPW| Active atom-composite density range  -3.0609740422974187E-09   5.8999310527737392E-01
 SKALA_GPW| Active atom-composite tau range  -8.4937696454512981E-08   1.7044491319248287E+01
 SKALA_GPW| Active atom-composite tau integral   1.3839915847281770E+01
 SKALA_GPW| Active atom-composite max gradient   2.4343688132933017E+00
    13 P_Mix/Diag. 0.10E+00    5.1     0.19865909       -17.1820239779 -4.72E-03
 SKALA_GPW| Atom-composite cross support/maxima   0.000000000000E+00   0.000000000000E+00   0.000000000000E+00   0.000000000000E+00
 SKALA_GPW| Active atom-composite XC energy  -4.2659157667618155E+00
 SKALA_GPW| Active atom-composite electrons   7.9999584361216627E+00
 SKALA_GPW| Active atom-composite density range  -3.0800155751245057E-09   5.9151646417884851E-01
 SKALA_GPW| Active atom-composite tau range  -8.5535250186238840E-08   1.7030884868359461E+01
 SKALA_GPW| Active atom-composite tau integral   1.3846993644163366E+01
 SKALA_GPW| Active atom-composite max gradient   2.4416494084586184E+00
    14 P_Mix/Diag. 0.10E+00    5.1     0.17919597       -17.1862759196 -4.25E-03
 SKALA_GPW| Atom-composite cross support/maxima   0.000000000000E+00   0.000000000000E+00   0.000000000000E+00   0.000000000000E+00
 SKALA_GPW| Active atom-composite XC energy  -4.2692404402573274E+00
 SKALA_GPW| Active atom-composite electrons   7.9999583409350743E+00
 SKALA_GPW| Active atom-composite density range  -3.0969400619020763E-09   5.9285546417827073E-01
 SKALA_GPW| Active atom-composite tau range  -8.6068470829992561E-08   1.7016533490497327E+01
 SKALA_GPW| Active atom-composite tau integral   1.3852268894902803E+01
 SKALA_GPW| Active atom-composite max gradient   2.4480736260783948E+00
    15 P_Mix/Diag. 0.10E+00    5.2     0.16166507       -17.1901064673 -3.83E-03
 SKALA_GPW| Atom-composite cross support/maxima   0.000000000000E+00   0.000000000000E+00   0.000000000000E+00   0.000000000000E+00
 SKALA_GPW| Active atom-composite XC energy  -4.2721428050572268E+00
 SKALA_GPW| Active atom-composite electrons   7.9999582474216346E+00
 SKALA_GPW| Active atom-composite density range  -3.1120078730273604E-09   5.9404250015999283E-01
 SKALA_GPW| Active atom-composite tau range  -8.6544989521119562E-08   1.7002183141040167E+01
 SKALA_GPW| Active atom-composite tau integral   1.3856251396133663E+01
 SKALA_GPW| Active atom-composite max gradient   2.4537943841795249E+00
    16 P_Mix/Diag. 0.10E+00    5.1     0.14587321       -17.1935579308 -3.45E-03
 SKALA_GPW| Atom-composite cross support/maxima   0.000000000000E+00   0.000000000000E+00   0.000000000000E+00   0.000000000000E+00
 SKALA_GPW| Active atom-composite XC energy  -4.2746925043500479E+00
 SKALA_GPW| Active atom-composite electrons   7.9999581559420285E+00
 SKALA_GPW| Active atom-composite density range  -3.1254384777052241E-09   5.9510224892331987E-01
 SKALA_GPW| Active atom-composite tau range  -8.6971269734485458E-08   1.6988308174813387E+01
 SKALA_GPW| Active atom-composite tau integral   1.3859300425229472E+01
 SKALA_GPW| Active atom-composite max gradient   2.4589275584978267E+00
    17 P_Mix/Diag. 0.10E+00    5.1     0.13164478       -17.1966676444 -3.11E-03
 SKALA_GPW| Atom-composite cross support/maxima   0.000000000000E+00   0.000000000000E+00   0.000000000000E+00   0.000000000000E+00
 SKALA_GPW| Active atom-composite XC energy  -4.2769427692783450E+00
 SKALA_GPW| Active atom-composite electrons   7.9999580669210699E+00
 SKALA_GPW| Active atom-composite density range  -3.1374196301748506E-09   5.9605376597420057E-01
 SKALA_GPW| Active atom-composite tau range  -8.7352867934877366E-08   1.6975194526820729E+01
 SKALA_GPW| Active atom-composite tau integral   1.3861669691920557E+01
 SKALA_GPW| Active atom-composite max gradient   2.4635620425542868E+00
    18 P_Mix/Diag. 0.10E+00    5.1     0.11882218       -17.1994690028 -2.80E-03
 SKALA_GPW| Atom-composite cross support/maxima   0.000000000000E+00   0.000000000000E+00   0.000000000000E+00   0.000000000000E+00
 SKALA_GPW| Active atom-composite XC energy  -4.2789353295150168E+00
 SKALA_GPW| Active atom-composite electrons   7.9999579807622370E+00
 SKALA_GPW| Active atom-composite density range  -3.1481135544917521E-09   5.9691199685184493E-01
 SKALA_GPW| Active atom-composite tau range  -8.7694617452556329E-08   1.6962998421194619E+01
 SKALA_GPW| Active atom-composite tau integral   1.3863538677587872E+01
 SKALA_GPW| Active atom-composite max gradient   2.4677670033226868E+00
    19 P_Mix/Diag. 0.10E+00    5.0     0.10726412       -17.2019921466 -2.52E-03
 SKALA_GPW| Atom-composite cross support/maxima   0.000000000000E+00   0.000000000000E+00   0.000000000000E+00   0.000000000000E+00
 SKALA_GPW| Active atom-composite XC energy  -4.2807036460654704E+00
 SKALA_GPW| Active atom-composite electrons   7.9999578978038466E+00
 SKALA_GPW| Active atom-composite density range  -3.1576618628590402E-09   5.9768888651670860E-01
 SKALA_GPW| Active atom-composite tau range  -8.8000759813821508E-08   1.6951788780404065E+01
 SKALA_GPW| Active atom-composite tau integral   1.3865034928815414E+01
 SKALA_GPW| Active atom-composite max gradient   2.4715972525042638E+00
    20 P_Mix/Diag. 0.10E+00    5.1     0.09684320       -17.2042642951 -2.27E-03
 SKALA_GPW| Atom-composite cross support/maxima   0.000000000000E+00   0.000000000000E+00   0.000000000000E+00   0.000000000000E+00
 SKALA_GPW| Active atom-composite XC energy  -4.2822752528826875E+00
 SKALA_GPW| Active atom-composite electrons   7.9999578183044688E+00
 SKALA_GPW| Active atom-composite density range  -3.1661890839397428E-09   5.9839414582158268E-01
 SKALA_GPW| Active atom-composite tau range  -8.8275047636572246E-08   1.6941576481527633E+01
 SKALA_GPW| Active atom-composite tau integral   1.3866249472981202E+01
 SKALA_GPW| Active atom-composite max gradient   2.4750969382048154E+00
    21 DIIS/Diag.  0.71E-03    5.1     0.09436499       -17.2063101400 -2.05E-03
 SKALA_GPW| Atom-composite cross support/maxima   0.000000000000E+00   0.000000000000E+00   0.000000000000E+00   0.000000000000E+00
 SKALA_GPW| Active atom-composite XC energy  -4.2949019093697967E+00
 SKALA_GPW| Active atom-composite electrons   7.9999567119280535E+00
 SKALA_GPW| Active atom-composite density range  -3.2376102530141721E-09   6.0577359266214847E-01
 SKALA_GPW| Active atom-composite tau range  -9.0642456887223561E-08   1.6860194459461155E+01
 SKALA_GPW| Active atom-composite tau integral   1.3873337779508729E+01
 SKALA_GPW| Active atom-composite max gradient   2.5141011037236614E+00
    22 DIIS/Diag.  0.18E-02    5.2     0.00085364       -17.2247577835 -1.84E-02
 SKALA_GPW| Atom-composite cross support/maxima   0.000000000000E+00   0.000000000000E+00   0.000000000000E+00   0.000000000000E+00
 SKALA_GPW| Active atom-composite XC energy  -4.2952503616404893E+00
 SKALA_GPW| Active atom-composite electrons   7.9999566980689565E+00
 SKALA_GPW| Active atom-composite density range  -3.2379453791917321E-09   6.0587807355359258E-01
 SKALA_GPW| Active atom-composite tau range  -9.0651705350338173E-08   1.6864347869716905E+01
 SKALA_GPW| Active atom-composite tau integral   1.3875461206035920E+01
 SKALA_GPW| Active atom-composite max gradient   2.5146115283855965E+00
    23 DIIS/Diag.  0.92E-03    5.1     0.00495245       -17.2247579125 -1.29E-07
 SKALA_GPW| Atom-composite cross support/maxima   0.000000000000E+00   0.000000000000E+00   0.000000000000E+00   0.000000000000E+00
 SKALA_GPW| Active atom-composite XC energy  -4.2949537035046479E+00
 SKALA_GPW| Active atom-composite electrons   7.9999567406789316E+00
 SKALA_GPW| Active atom-composite density range  -3.2382692513121004E-09   6.0550283088471357E-01
 SKALA_GPW| Active atom-composite tau range  -9.0657008223840743E-08   1.6851945438850585E+01
 SKALA_GPW| Active atom-composite tau integral   1.3871313935406626E+01
 SKALA_GPW| Active atom-composite max gradient   2.5123627928201731E+00
    24 DIIS/Diag.  0.39E-02    5.1     0.01301646       -17.2247554409  2.47E-06
 SKALA_GPW| Atom-composite cross support/maxima   0.000000000000E+00   0.000000000000E+00   0.000000000000E+00   0.000000000000E+00
 SKALA_GPW| Active atom-composite XC energy  -4.2963341459026374E+00
 SKALA_GPW| Active atom-composite electrons   7.9999569616465491E+00
 SKALA_GPW| Active atom-composite density range  -3.2414514212393593E-09   6.0512948355971330E-01
 SKALA_GPW| Active atom-composite tau range  -9.0718006834725996E-08   1.6854202816366872E+01
 SKALA_GPW| Active atom-composite tau integral   1.3876314391650684E+01
 SKALA_GPW| Active atom-composite max gradient   2.5093490112820906E+00
    25 DIIS/Diag.  0.55E-02    5.2     0.01526116       -17.2247352492  2.02E-05
 SKALA_GPW| Atom-composite cross support/maxima   0.000000000000E+00   0.000000000000E+00   0.000000000000E+00   0.000000000000E+00
 SKALA_GPW| Active atom-composite XC energy  -4.2953334242432062E+00
 SKALA_GPW| Active atom-composite electrons   7.9999566707259149E+00
 SKALA_GPW| Active atom-composite density range  -3.2385197821627770E-09   6.0605172022441822E-01
 SKALA_GPW| Active atom-composite tau range  -9.0667500453211663E-08   1.6866077358954431E+01
 SKALA_GPW| Active atom-composite tau integral   1.3876168522028033E+01
 SKALA_GPW| Active atom-composite max gradient   2.5157630761783283E+00
    26 DIIS/Diag.  0.15E-03    5.6     0.00029354       -17.2247584641 -2.32E-05
 SKALA_GPW| Atom-composite cross support/maxima   0.000000000000E+00   0.000000000000E+00   0.000000000000E+00   0.000000000000E+00
 SKALA_GPW| Active atom-composite XC energy  -4.2952972804617122E+00
 SKALA_GPW| Active atom-composite electrons   7.9999566682716114E+00
 SKALA_GPW| Active atom-composite density range  -3.2385294382107947E-09   6.0605348076309173E-01
 SKALA_GPW| Active atom-composite tau range  -9.0667695260782393E-08   1.6865586109342374E+01
 SKALA_GPW| Active atom-composite tau integral   1.3875920667842653E+01
 SKALA_GPW| Active atom-composite max gradient   2.5157685735532511E+00
    27 DIIS/Diag.  0.35E-04    5.2     0.00000847       -17.2247584753 -1.12E-08
 SKALA_GPW| Atom-composite cross support/maxima   0.000000000000E+00   0.000000000000E+00   0.000000000000E+00   0.000000000000E+00
 SKALA_GPW| Active atom-composite XC energy  -4.2952932894942863E+00
 SKALA_GPW| Active atom-composite electrons   7.9999566682910208E+00
 SKALA_GPW| Active atom-composite density range  -3.2385327162368432E-09   6.0605301735000139E-01
 SKALA_GPW| Active atom-composite tau range  -9.0667797570534136E-08   1.6865532500744052E+01
 SKALA_GPW| Active atom-composite tau integral   1.3875897092465117E+01
 SKALA_GPW| Active atom-composite max gradient   2.5157729164879745E+00
    28 DIIS/Diag.  0.54E-05    5.3     0.00000515       -17.2247584708  4.52E-09
 SKALA_GPW| Atom-composite cross support/maxima   0.000000000000E+00   0.000000000000E+00   0.000000000000E+00   0.000000000000E+00
 SKALA_GPW| Active atom-composite XC energy  -4.2952924416908669E+00
 SKALA_GPW| Active atom-composite electrons   7.9999566682802250E+00
 SKALA_GPW| Active atom-composite density range  -3.2385330228181193E-09   6.0605316737926873E-01
 SKALA_GPW| Active atom-composite tau range  -9.0667814206303307E-08   1.6865525159088133E+01
 SKALA_GPW| Active atom-composite tau integral   1.3875891934565459E+01
 SKALA_GPW| Active atom-composite max gradient   2.5157731023590002E+00
    29 DIIS/Diag.  0.13E-05    5.2     0.00000089       -17.2247584732 -2.33E-09

  *** SCF run converged in    29 steps ***


  Electronic density on regular grids:         -8.0000000000        0.0000000000
  Core density on regular grids:                8.0000000000       -0.0000000000
  Total charge density on r-space grids:       -0.0000000000
  Total charge density g-space grids:          -0.0000000000

  Overlap energy of the core charge distribution:               0.00000036414151
  Self energy of the core charge distribution:                -44.35427365113802
  Core Hamiltonian energy:                                     13.06326121632316
  Hartree energy:                                              18.36154603920875
  Exchange-correlation energy:                                  0.00000000000000

  Total energy:                                               -17.22475847315548

 !-----------------------------------------------------------------------------!
                     Mulliken Population Analysis

 #  Atom  Element  Kind  Atomic population                           Net charge
       1     O        1          6.241862                             -0.241862
       2     H        2          0.879069                              0.120931
       3     H        2          0.879069                              0.120931
 # Total charge                              8.000000                  0.000000

 !-----------------------------------------------------------------------------!

 !-----------------------------------------------------------------------------!
                           Hirshfeld Charges

  #Atom  Element  Kind  Ref Charge     Population                    Net charge
      1       O      1       6.000          7.111                        -1.111
      2       H      2       1.000          0.444                         0.556
      3       H      2       1.000          0.444                         0.556

  Total Charge                                                            0.002
 !-----------------------------------------------------------------------------!

 ENERGY| Total FORCE_EVAL ( QS ) energy [hartree]            -17.224758473155482

 -------------------------------------------------------------------------------
 -                                                                             -
 -                                DBCSR STATISTICS                             -
 -                                                                             -
 -------------------------------------------------------------------------------
 COUNTER                                    TOTAL       BLAS       SMM       ACC
 flops    29 x    14 x     4                94192       0.0%      0.0%    100.0% (*) 
 flops    14 x    29 x     4                94192       0.0%      0.0%    100.0% (*) 
 flops    14 x    14 x     4               136416       0.0%      0.0%    100.0% (*) 
 flops    29 x    29 x     4               195112       0.0%      0.0%    100.0% (*) 

 *** WARNING in dbcsr_mm_sched.F:613 :: (*) ACC Untuned kernels, consider ***
 *** to run the ACC tuning procedure for them                             ***

 flops inhomo. stacks                           0       0.0%      0.0%      0.0%
 flops total                       519.912000E+03       0.0%      0.0%    100.0%
 flops max/rank                    519.912000E+03       0.0%      0.0%    100.0%
 matmuls inhomo. stacks                         0       0.0%      0.0%      0.0%
 matmuls total                                174       0.0%      0.0%    100.0%
 number of processed stacks                   145       0.0%      0.0%    100.0%
 average stack size                                     0.0       0.0       1.2
 marketing flops                   753.768000E+03
 -------------------------------------------------------------------------------
 # multiplications                             29
 max memory usage/rank             482.240856E+09
 # max total images/rank                        1
 # max 3D layers                                1
 # MPI messages exchanged                       0
 -------------------------------------------------------------------------------
 -                                                                             -
 -                      DBCSR MESSAGE PASSING PERFORMANCE                      -
 -                                                                             -
 -------------------------------------------------------------------------------
 ROUTINE             CALLS      AVE VOLUME [Bytes]
 MP_Bcast                5                     12.
 MP_Allreduce          114                     12.
 MP_Alltoall           957                  12911.
 MP_ISend              116                     60.
 MP_IRecv              116                     60.
 -------------------------------------------------------------------------------

 -------------------------------------------------------------------------------
 -                                                                             -
 -                                GRID STATISTICS                              -
 -                                                                             -
 -------------------------------------------------------------------------------
 LP    KERNEL             BACKEND                              COUNT     PERCENT
 6     collocate ortho    GPU                                   2970      16.88%
 6     integrate ortho    GPU                                   2871      16.32%
 4     collocate ortho    GPU                                   2220      12.62%
 4     integrate ortho    GPU                                   2146      12.20%
 5     collocate ortho    GPU                                   1500       8.53%
 7     collocate ortho    GPU                                   1500       8.53%
 5     integrate ortho    GPU                                   1450       8.24%
 7     integrate ortho    GPU                                   1450       8.24%
 8     collocate ortho    GPU                                    750       4.26%
 8     integrate ortho    GPU                                    725       4.12%
 0     collocate general  CPU                                      6       0.03%
 0     integrate general  CPU                                      3       0.02%
 -------------------------------------------------------------------------------

 -------------------------------------------------------------------------------
 -                                                                             -
 -                          OFFLOAD MEMPOOL STATISTICS                         -
 -                                                                             -
 -------------------------------------------------------------------------------
 Memory consumption                Number of allocations  Used [MiB]  Size [MiB]
 Device                                                7         434         434
 Host                                                  7         434          58
 -------------------------------------------------------------------------------

 MEMORY| Estimated peak process memory [MiB]                               19451

 -------------------------------------------------------------------------------
 ----                             MULTIGRID INFO                            ----
 -------------------------------------------------------------------------------
 count for grid        1:          12013          cutoff [a.u.]          400.00
 count for grid        2:           7992          cutoff [a.u.]          133.33
 count for grid        3:           6272          cutoff [a.u.]           44.44
 count for grid        4:           2267          cutoff [a.u.]           14.81
 count for grid        5:            105          cutoff [a.u.]            4.94
 total gridlevel count  :          28649

 -------------------------------------------------------------------------------
 -                                                                             -
 -                         MESSAGE PASSING PERFORMANCE                         -
 -                                                                             -
 -------------------------------------------------------------------------------

 ROUTINE             CALLS      AVE VOLUME [Bytes]
 MP_Group                5
 MP_Bcast               58                    230.
 MP_Allreduce         1247               86801868.
 MP_Sync                34
 MP_comm_split          29
 -------------------------------------------------------------------------------


 -------------------------------------------------------------------------------
 -                                                                             -
 -                           R E F E R E N C E S                               -
 -                                                                             -
 -------------------------------------------------------------------------------
 
 CP2K version 2026.2 (Development Version), the CP2K developers group (2026).
 CP2K is freely available from https://www.cp2k.org/ .
 
 M. Iannuzzi, J. Wilhelm, F. Stein, A. Bussy, H. Elgabarty, D. Golze, A. Hehn, 
 M. Graml, S. Marek, B. Sertcan Gökmen, C. Schran, H. Forbert, R. Z. 
 Khaliullin, A. Kozhevnikov, M. Taillefumier, R. Meli, V. V. Rybkin, M. Brehm, 
 R. Schade, O. Schütt, J. V. Pototschnig, H. Mirhosseini, A. Knüpfer, D. Marx, 
 M. Krack, J. Hutter, T. D. Kühne.
 J. Phys. Chem. B 130, 1237-1310 (2026).
 The CP2K Program Package Made Simple.
 https://doi.org/10.1021/acs.jpcb.5c05851

 T. D. Kühne, M. Iannuzzi, M. Del Ben, V. V. Rybkin, P. Seewald, F. Stein, T. 
 Laino, R. Z. Khaliullin, O. Schütt, F. Schiffmann, D. Golze, J. Wilhelm, S. 
 Chulkov, M. H. Bani-Hashemian, V. Weber, U. Borstnik, M. Taillefumier, A. S. 
 Jakobovits, A. Lazzaro, H. Pabst, T. Müller, R. Schade, M. Guidon, S. 
 Andermatt, N. Holmberg, G. K. Schenter, A. Hehn, A. Bussy, F. Belleflamme, G. 
 Tabacchi, A. Glöß, M. Lass, I. Bethune, C. J. Mundy, C. Plessl, M. Watkins, 
 J. VandeVondele, M. Krack, J. Hutter.
 J. Chem. Phys. 152, 194103 (2020).
 CP2K: An electronic structure and molecular dynamics software package - 
 Quickstep: Efficient and accurate electronic structure calculations.
 https://doi.org/10.1063/5.0007045

 O. Schuett, P. Messmer, J. Hutter, J. VandeVondele.
 Electronic Structure Calculations on Graphics Processing Units, 173-190 (2016).
 GPU-Accelerated Sparse Matrix-Matrix Multiplication for Linear Scaling Density 
 Functional Theory.
 https://doi.org/10.1002/9781118670712.ch8

 U. Borstnik, J. VandeVondele, V. Weber, J. Hutter.
 Parallel Comput. 40, 47-58 (2014).
 Sparse matrix multiplication: The distributed block-compressed sparse row 
 library.
 https://doi.org/10.1016/j.parco.2014.03.012

 J. VandeVondele, J. Hutter.
 J. Chem. Phys. 127, 114105 (2007).
 Gaussian basis sets for accurate calculations on molecular systems in gas and 
 condensed phases.
 https://doi.org/10.1063/1.2770708

 J. VandeVondele, M. Krack, F. Mohamed, M. Parrinello, T. Chassaing, J. Hutter.
 Comput. Phys. Commun. 167, 103-128 (2005).
 QUICKSTEP: Fast and accurate density functional calculations using a mixed 
 Gaussian and plane waves approach.
 https://doi.org/10.1016/j.cpc.2004.12.014

 M. Krack.
 Theor. Chem. Acc. 114, 145-152 (2005).
 Pseudopotentials for H to Kr optimized for gradient-corrected 
 exchange-correlation functionals.
 https://doi.org/10.1007/s00214-005-0655-y

 M. Frigo, S. G. Johnson.
 Proc. IEEE 93, 216-231 (2005).
 The design and implementation of FFTW3.
 https://doi.org/10.1109/JPROC.2004.840301

 C. Hartwigsen, S. Goedecker, J. Hutter.
 Phys. Rev. B 58, 3641-3662 (1998).
 Relativistic separable dual-space Gaussian pseudopotentials from H to Rn.
 https://doi.org/10.1103/PhysRevB.58.3641

 G. Lippert, J. Hutter, M. Parrinello.
 Mol. Phys. 92, 477-487 (1997).
 A hybrid Gaussian and plane wave density functional scheme.
 https://doi.org/10.1080/002689797170220

 S. Goedecker, M. Teter, J. Hutter.
 Phys. Rev. B 54, 1703-1710 (1996).
 Separable dual-space Gaussian pseudopotentials.
 https://doi.org/10.1103/PhysRevB.54.1703


 -------------------------------------------------------------------------------
 -                                                                             -
 -                                T I M I N G                                  -
 -                                                                             -
 -------------------------------------------------------------------------------
 SUBROUTINE                       CALLS  ASD         SELF TIME        TOTAL TIME
                                MAXIMUM       AVERAGE  MAXIMUM  AVERAGE  MAXIMUM
 CP2K                                 1  1.0    0.346    0.346  163.668  163.668
 qs_energies                          1  2.0    0.000    0.000  154.488  154.488
 scf_env_do_scf                       1  3.0    0.000    0.000  152.968  152.968
 scf_env_do_scf_inner_loop           29  4.0    0.004    0.004  152.968  152.968
 qs_ks_update_qs_env                 29  5.0    0.000    0.000  136.036  136.036
 rebuild_ks_matrix                   29  6.0    0.000    0.000  136.035  136.035
 qs_ks_build_kohn_sham_matrix        29  7.0    0.004    0.004  136.035  136.035
 calculate_vxc_atom                  29  8.0   85.495   85.495  110.054  110.054
 fft_wrap_pw1pw2                    883  9.5    0.010    0.010   21.618   21.618
 fft_wrap_pw1pw2_400                411 10.6    0.001    0.001   20.255   20.255
 qs_rho_update_rho_low               30  5.0    0.000    0.000   17.141   17.141
 calculate_rho_elec                  60  6.0    5.442    5.442   17.141   17.141
 xc_pw_derive                       174  9.5    0.001    0.001   15.274   15.274
 pw_poisson_solve                    29  8.0    0.001    0.001   12.696   12.696
 pw_gpu_r3dc1d_3d                   446 11.0   10.874   10.874   10.874   10.874
 pw_gpu_c1dr3d_3d                   437 12.1   10.731   10.731   10.731   10.731
 xc_pw_divergence                    29  9.0    0.001    0.001   10.509   10.509
 sum_up_and_integrate                29  8.0    0.001    0.001   10.314   10.314
 density_rs2pw                       60  7.0    0.002    0.002   10.123   10.123
 integrate_v_rspace                  58  9.0    0.037    0.037    9.714    9.714
 qs_init_subsys                       1  2.0    0.000    0.000    8.827    8.827
 qs_env_setup                         1  3.0    0.000    0.000    8.826    8.826
 qs_env_rebuild_pw_env                2  3.5    0.000    0.000    8.826    8.826
 pw_env_rebuild                       1  5.0    0.000    0.000    8.826    8.826
 pw_grid_setup                        5  6.0    0.000    0.000    8.749    8.749
 pw_grid_setup_internal               5  7.0    0.095    0.095    8.661    8.661
 pw_derive                          261 10.3    8.144    8.144    8.144    8.144
 pw_grid_sort                         5  8.0    6.009    6.009    7.960    7.960
 pw_integral_ab_c1d_c1d_gs           29  9.0    6.799    6.799    6.799    6.799
 potential_pw2rs                     58 10.0    0.163    0.163    5.793    5.793
 pw_copy                            580 10.2    5.539    5.539    5.539    5.539
 pw_axpy                            532  8.6    4.640    4.640    4.640    4.640
 pw_poisson_set                      30  8.9    0.001    0.001    4.155    4.155
 grid_integrate_task_list            58 10.0    3.884    3.884    3.884    3.884
 -------------------------------------------------------------------------------

 The number of warnings for this run is : 1
 
 -------------------------------------------------------------------------------
  **** **** ******  **  PROGRAM ENDED AT                 2026-08-20 01:24:04.513
 ***** ** ***  *** **   PROGRAM RAN ON                                     gb008
 **    ****   ******    PROGRAM RAN BY                                  kuehne88
 ***** **    ** ** **   PROGRAM PROCESS ID                               3138470
  **** **  *******  **  PROGRAM STOPPED IN /data/home2/kuehne88/cp2k-native-skal
                                           a/validation-uzh/h2o-grid-runs/native
                                           -r100-l100
